*HEADING
Long bridge span with three supports: left end fully fixed, center prop roller (x free, y+z fixed), right end roller (x free, y+z fixed). Deck distributed load. Three-span continuous behaviour.

*NODE, NSET=ALL_NODES
1, 0.000000, 0.000000, 0.000000
2, 0.000000, 0.000000, 30.000000
3, 150.000000, 0.000000, 30.000000
4, 150.000000, 0.000000, 0.000000
5, 150.000000, 20.000000, 30.000000
6, 150.000000, 20.000000, 0.000000
7, 0.000000, 20.000000, 30.000000
8, 0.000000, 20.000000, 0.000000
9, 0.000000, 0.000000, 4.285714
10, 0.000000, 0.000000, 8.571428
11, 0.000000, 0.000000, 12.857142
12, 0.000000, 0.000000, 17.142857
13, 0.000000, 0.000000, 21.428572
14, 0.000000, 0.000000, 25.714285
15, 4.545455, 0.000000, 30.000000
16, 9.090909, 0.000000, 30.000000
17, 13.636364, 0.000000, 30.000000
18, 18.181818, 0.000000, 30.000000
19, 22.727272, 0.000000, 30.000000
20, 27.272728, 0.000000, 30.000000
21, 31.818182, 0.000000, 30.000000
22, 36.363636, 0.000000, 30.000000
23, 40.909092, 0.000000, 30.000000
24, 45.454544, 0.000000, 30.000000
25, 50.000000, 0.000000, 30.000000
26, 54.545456, 0.000000, 30.000000
27, 59.090908, 0.000000, 30.000000
28, 63.636364, 0.000000, 30.000000
29, 68.181816, 0.000000, 30.000000
30, 72.727272, 0.000000, 30.000000
31, 77.272728, 0.000000, 30.000000
32, 81.818184, 0.000000, 30.000000
33, 86.363640, 0.000000, 30.000000
34, 90.909088, 0.000000, 30.000000
35, 95.454544, 0.000000, 30.000000
36, 100.000000, 0.000000, 30.000000
37, 104.545456, 0.000000, 30.000000
38, 109.090912, 0.000000, 30.000000
39, 113.636360, 0.000000, 30.000000
40, 118.181816, 0.000000, 30.000000
41, 122.727272, 0.000000, 30.000000
42, 127.272728, 0.000000, 30.000000
43, 131.818176, 0.000000, 30.000000
44, 136.363632, 0.000000, 30.000000
45, 140.909088, 0.000000, 30.000000
46, 145.454544, 0.000000, 30.000000
47, 150.000000, 0.000000, 4.285714
48, 150.000000, 0.000000, 8.571428
49, 150.000000, 0.000000, 12.857142
50, 150.000000, 0.000000, 17.142857
51, 150.000000, 0.000000, 21.428572
52, 150.000000, 0.000000, 25.714285
53, 4.545455, 0.000000, 0.000000
54, 9.090909, 0.000000, 0.000000
55, 13.636364, 0.000000, 0.000000
56, 18.181818, 0.000000, 0.000000
57, 22.727272, 0.000000, 0.000000
58, 27.272728, 0.000000, 0.000000
59, 31.818182, 0.000000, 0.000000
60, 36.363636, 0.000000, 0.000000
61, 40.909092, 0.000000, 0.000000
62, 45.454544, 0.000000, 0.000000
63, 50.000000, 0.000000, 0.000000
64, 54.545456, 0.000000, 0.000000
65, 59.090908, 0.000000, 0.000000
66, 63.636364, 0.000000, 0.000000
67, 68.181816, 0.000000, 0.000000
68, 72.727272, 0.000000, 0.000000
69, 77.272728, 0.000000, 0.000000
70, 81.818184, 0.000000, 0.000000
71, 86.363640, 0.000000, 0.000000
72, 90.909088, 0.000000, 0.000000
73, 95.454544, 0.000000, 0.000000
74, 100.000000, 0.000000, 0.000000
75, 104.545456, 0.000000, 0.000000
76, 109.090912, 0.000000, 0.000000
77, 113.636360, 0.000000, 0.000000
78, 118.181816, 0.000000, 0.000000
79, 122.727272, 0.000000, 0.000000
80, 127.272728, 0.000000, 0.000000
81, 131.818176, 0.000000, 0.000000
82, 136.363632, 0.000000, 0.000000
83, 140.909088, 0.000000, 0.000000
84, 145.454544, 0.000000, 0.000000
85, 150.000000, 4.000000, 30.000000
86, 150.000000, 8.000000, 30.000000
87, 150.000000, 12.000000, 30.000000
88, 150.000000, 16.000000, 30.000000
89, 150.000000, 20.000000, 4.285714
90, 150.000000, 20.000000, 8.571428
91, 150.000000, 20.000000, 12.857142
92, 150.000000, 20.000000, 17.142857
93, 150.000000, 20.000000, 21.428572
94, 150.000000, 20.000000, 25.714285
95, 150.000000, 4.000000, 0.000000
96, 150.000000, 8.000000, 0.000000
97, 150.000000, 12.000000, 0.000000
98, 150.000000, 16.000000, 0.000000
99, 145.454544, 20.000000, 30.000000
100, 140.909088, 20.000000, 30.000000
101, 136.363632, 20.000000, 30.000000
102, 131.818176, 20.000000, 30.000000
103, 127.272728, 20.000000, 30.000000
104, 122.727272, 20.000000, 30.000000
105, 118.181816, 20.000000, 30.000000
106, 113.636360, 20.000000, 30.000000
107, 109.090912, 20.000000, 30.000000
108, 104.545456, 20.000000, 30.000000
109, 100.000000, 20.000000, 30.000000
110, 95.454544, 20.000000, 30.000000
111, 90.909088, 20.000000, 30.000000
112, 86.363640, 20.000000, 30.000000
113, 81.818184, 20.000000, 30.000000
114, 77.272728, 20.000000, 30.000000
115, 72.727272, 20.000000, 30.000000
116, 68.181816, 20.000000, 30.000000
117, 63.636364, 20.000000, 30.000000
118, 59.090908, 20.000000, 30.000000
119, 54.545456, 20.000000, 30.000000
120, 50.000000, 20.000000, 30.000000
121, 45.454544, 20.000000, 30.000000
122, 40.909092, 20.000000, 30.000000
123, 36.363636, 20.000000, 30.000000
124, 31.818182, 20.000000, 30.000000
125, 27.272728, 20.000000, 30.000000
126, 22.727272, 20.000000, 30.000000
127, 18.181818, 20.000000, 30.000000
128, 13.636364, 20.000000, 30.000000
129, 9.090909, 20.000000, 30.000000
130, 4.545455, 20.000000, 30.000000
131, 0.000000, 20.000000, 4.285714
132, 0.000000, 20.000000, 8.571428
133, 0.000000, 20.000000, 12.857142
134, 0.000000, 20.000000, 17.142857
135, 0.000000, 20.000000, 21.428572
136, 0.000000, 20.000000, 25.714285
137, 145.454544, 20.000000, 0.000000
138, 140.909088, 20.000000, 0.000000
139, 136.363632, 20.000000, 0.000000
140, 131.818176, 20.000000, 0.000000
141, 127.272728, 20.000000, 0.000000
142, 122.727272, 20.000000, 0.000000
143, 118.181816, 20.000000, 0.000000
144, 113.636360, 20.000000, 0.000000
145, 109.090912, 20.000000, 0.000000
146, 104.545456, 20.000000, 0.000000
147, 100.000000, 20.000000, 0.000000
148, 95.454544, 20.000000, 0.000000
149, 90.909088, 20.000000, 0.000000
150, 86.363640, 20.000000, 0.000000
151, 81.818184, 20.000000, 0.000000
152, 77.272728, 20.000000, 0.000000
153, 72.727272, 20.000000, 0.000000
154, 68.181816, 20.000000, 0.000000
155, 63.636364, 20.000000, 0.000000
156, 59.090908, 20.000000, 0.000000
157, 54.545456, 20.000000, 0.000000
158, 50.000000, 20.000000, 0.000000
159, 45.454544, 20.000000, 0.000000
160, 40.909092, 20.000000, 0.000000
161, 36.363636, 20.000000, 0.000000
162, 31.818182, 20.000000, 0.000000
163, 27.272728, 20.000000, 0.000000
164, 22.727272, 20.000000, 0.000000
165, 18.181818, 20.000000, 0.000000
166, 13.636364, 20.000000, 0.000000
167, 9.090909, 20.000000, 0.000000
168, 4.545455, 20.000000, 0.000000
169, 0.000000, 16.000000, 30.000000
170, 0.000000, 12.000000, 30.000000
171, 0.000000, 8.000000, 30.000000
172, 0.000000, 4.000000, 30.000000
173, 0.000000, 16.000000, 0.000000
174, 0.000000, 12.000000, 0.000000
175, 0.000000, 8.000000, 0.000000
176, 0.000000, 4.000000, 0.000000
177, 4.138056, 0.000000, 15.272334
178, 146.565079, 0.000000, 15.031639
179, 24.978285, 0.000000, 3.947430
180, 88.627953, 0.000000, 3.931624
181, 38.723011, 0.000000, 26.113558
182, 120.577194, 0.000000, 26.130964
183, 61.346840, 0.000000, 3.963032
184, 75.101517, 0.000000, 26.122133
185, 102.250214, 0.000000, 26.146997
186, 47.727272, 0.000000, 3.936479
187, 129.518860, 0.000000, 4.192331
188, 111.322266, 0.000000, 4.185948
189, 20.434977, 0.000000, 26.118544
190, 52.365059, 0.000000, 26.116829
191, 88.743195, 0.000000, 26.125198
192, 74.990540, 0.000000, 3.931017
193, 134.090912, 0.000000, 26.063520
194, 97.734802, 0.000000, 4.116628
195, 38.625256, 0.000000, 3.929969
196, 65.886581, 0.000000, 26.134619
197, 29.523935, 0.000000, 26.122110
198, 15.883330, 0.000000, 3.933659
199, 120.430298, 0.000000, 4.165490
200, 111.341171, 0.000000, 26.150087
201, 11.365607, 0.000000, 26.230087
202, 138.518997, 0.000000, 4.375395
203, 143.090912, 0.000000, 25.749802
204, 7.035555, 0.000000, 3.781942
205, 3.941741, 0.000000, 23.334547
206, 146.651962, 0.000000, 6.502708
207, 11.364541, 0.000000, 3.899859
208, 13.609819, 0.000000, 7.828856
209, 18.115278, 0.000000, 7.864991
210, 15.827931, 0.000000, 11.758588
211, 20.337906, 0.000000, 11.785604
212, 18.048586, 0.000000, 15.671948
213, 22.565933, 0.000000, 15.715557
214, 13.547088, 0.000000, 15.642840
215, 24.860975, 0.000000, 11.822775
216, 27.093023, 0.000000, 15.757826
217, 29.391916, 0.000000, 11.853054
218, 31.627884, 0.000000, 15.797355
219, 33.951595, 0.000000, 11.869427
220, 36.172382, 0.000000, 15.689322
221, 38.508743, 0.000000, 11.849366
222, 40.836796, 0.000000, 15.626111
223, 43.052525, 0.000000, 11.875662
224, 45.399780, 0.000000, 15.788700
225, 47.588535, 0.000000, 11.938777
226, 49.828629, 0.000000, 15.764506
227, 52.112587, 0.000000, 11.969680
228, 54.475948, 0.000000, 15.719360
229, 56.671452, 0.000000, 11.955462
230, 59.039131, 0.000000, 15.887835
231, 61.213367, 0.000000, 12.033715
232, 63.461575, 0.000000, 16.024483
233, 65.745628, 0.000000, 12.123259
234, 67.984184, 0.000000, 16.086761
235, 70.308319, 0.000000, 12.108685
236, 72.529953, 0.000000, 15.949694
237, 74.870522, 0.000000, 12.031939
238, 77.213501, 0.000000, 15.861933
239, 79.418297, 0.000000, 12.093505
240, 81.780876, 0.000000, 16.051720
241, 83.977203, 0.000000, 12.153139
242, 86.198212, 0.000000, 16.015461
243, 88.518517, 0.000000, 12.087758
244, 90.862724, 0.000000, 15.943081
245, 93.045113, 0.000000, 12.226319
246, 95.423325, 0.000000, 16.157757
247, 97.589912, 0.000000, 12.266063
248, 99.829895, 0.000000, 16.304724
249, 102.112007, 0.000000, 12.321742
250, 104.348213, 0.000000, 16.363058
251, 106.647758, 0.000000, 12.511443
252, 108.885635, 0.000000, 16.426910
253, 111.142853, 0.000000, 12.505968
254, 113.423157, 0.000000, 16.463049
255, 115.659943, 0.000000, 12.471908
256, 117.963593, 0.000000, 16.286177
257, 120.264969, 0.000000, 12.504823
258, 122.669853, 0.000000, 16.198160
259, 124.844040, 0.000000, 12.521758
260, 127.241455, 0.000000, 16.408289
261, 129.390518, 0.000000, 12.583212
262, 131.625732, 0.000000, 16.556667
263, 133.888489, 0.000000, 12.667158
264, 136.107269, 0.000000, 16.611324
265, 138.338882, 0.000000, 12.753028
266, 104.530045, 0.000000, 8.498423
267, 15.755722, 0.000000, 19.541838
268, 47.782509, 0.000000, 19.212769
269, 81.742592, 0.000000, 8.075282
270, 61.209801, 0.000000, 19.759161
271, 68.088295, 0.000000, 8.114497
272, 24.792198, 0.000000, 19.659561
273, 84.181313, 0.000000, 19.395184
274, 54.436527, 0.000000, 7.970526
275, 97.620506, 0.000000, 19.920439
276, 33.959949, 0.000000, 19.375652
277, 31.749289, 0.000000, 7.896996
278, 129.581543, 0.000000, 20.034950
279, 70.326599, 0.000000, 19.603954
280, 11.263656, 0.000000, 19.503103
281, 106.581070, 0.000000, 20.344839
282, 115.788818, 0.000000, 19.886448
283, 140.342957, 0.000000, 16.758821
284, 138.332382, 0.000000, 20.404161
285, 142.780106, 0.000000, 20.508121
286, 8.984406, 0.000000, 15.527300
287, 136.191147, 0.000000, 8.661572
288, 140.410370, 0.000000, 8.500441
289, 127.165192, 0.000000, 8.494550
290, 6.787918, 0.000000, 19.383995
291, 6.916353, 0.000000, 11.512266
292, 118.004951, 0.000000, 8.458415
293, 95.346863, 0.000000, 8.248729
294, 45.358959, 0.000000, 7.948562
295, 134.010773, 0.000000, 4.296797
296, 11.329355, 0.000000, 11.667093
297, 138.607910, 0.000000, 26.155125
298, 133.880157, 0.000000, 20.346983
299, 20.418858, 0.000000, 3.942672
300, 15.845091, 0.000000, 26.308552
301, 131.694168, 0.000000, 8.482603
302, 124.949707, 0.000000, 4.222848
303, 129.557205, 0.000000, 26.070307
304, 125.026634, 0.000000, 26.286051
305, 122.950142, 0.000000, 22.924099
306, 122.609856, 0.000000, 8.394648
307, 115.816055, 0.000000, 4.275654
308, 113.482079, 0.000000, 8.471415
309, 111.137726, 0.000000, 20.133255
310, 63.529655, 0.000000, 8.081724
311, 93.159416, 0.000000, 26.231953
312, 91.053574, 0.000000, 22.801245
313, 97.680870, 0.000000, 26.246681
314, 70.525986, 0.000000, 26.281803
315, 93.155312, 0.000000, 4.023468
316, 99.984940, 0.000000, 8.298516
317, 102.301735, 0.000000, 4.303453
318, 70.448288, 0.000000, 3.966824
319, 72.653656, 0.000000, 7.998858
320, 65.882507, 0.000000, 4.072152
321, 58.988819, 0.000000, 7.928901
322, 43.154819, 0.000000, 26.196140
323, 41.006786, 0.000000, 22.659962
324, 47.789051, 0.000000, 26.272085
325, 52.243393, 0.000000, 3.948743
326, 34.077576, 0.000000, 3.938717
327, 36.312813, 0.000000, 7.882459
328, 43.152931, 0.000000, 3.941581
329, 49.897301, 0.000000, 7.951684
330, 24.968098, 0.000000, 26.149881
331, 116.001709, 0.000000, 26.324919
332, 106.783958, 0.000000, 26.192877
333, 34.146576, 0.000000, 26.245840
334, 79.521713, 0.000000, 26.222155
335, 77.404572, 0.000000, 22.762707
336, 84.170921, 0.000000, 26.310781
337, 56.792286, 0.000000, 26.205875
338, 54.655746, 0.000000, 22.698469
339, 61.316395, 0.000000, 26.218685
340, 79.521820, 0.000000, 3.963827
341, 84.090912, 0.000000, 3.936479
342, 86.302635, 0.000000, 8.004685
343, 102.035767, 0.000000, 20.307999
344, 65.702110, 0.000000, 19.690336
345, 29.508047, 0.000000, 3.950137
346, 20.266426, 0.000000, 19.600185
347, 29.336420, 0.000000, 19.532772
348, 27.185946, 0.000000, 7.896723
349, 146.618729, 0.000000, 10.731915
350, 22.649542, 0.000000, 7.876699
351, 9.172900, 0.000000, 7.737277
352, 90.840134, 0.000000, 8.017592
353, 77.199570, 0.000000, 8.015738
354, 56.775326, 0.000000, 3.968534
355, 40.838757, 0.000000, 7.870255
356, 106.900024, 0.000000, 4.607452
357, 4.239609, 0.000000, 7.175591
358, 142.624725, 0.000000, 12.857142
359, 6.851137, 0.000000, 26.537649
360, 143.235779, 0.000000, 4.434184
361, 146.554153, 0.000000, 23.268742
362, 109.004173, 0.000000, 8.463442
363, 146.628677, 0.000000, 19.118771
364, 8.948652, 0.000000, 22.956608
365, 36.302628, 0.000000, 22.688871
366, 49.973980, 0.000000, 22.692085
367, 13.512512, 0.000000, 22.844435
368, 72.675545, 0.000000, 22.799223
369, 2.973543, 0.000000, 19.312462
370, 18.050474, 0.000000, 22.863913
371, 86.355293, 0.000000, 22.795933
372, 22.589983, 0.000000, 22.864077
373, 118.153656, 0.000000, 22.940804
374, 43.107346, 0.000000, 19.181044
375, 27.129633, 0.000000, 22.856760
376, 31.733191, 0.000000, 22.803667
377, 56.711575, 0.000000, 19.328728
378, 38.564312, 0.000000, 19.203493
379, 3.184693, 0.000000, 11.036253
380, 45.469082, 0.000000, 22.702347
381, 52.238064, 0.000000, 19.235987
382, 79.487778, 0.000000, 19.360193
383, 93.097000, 0.000000, 19.503572
384, 58.886749, 0.000000, 22.909683
385, 63.487331, 0.000000, 22.944639
386, 68.100693, 0.000000, 22.909096
387, 74.939659, 0.000000, 19.389618
388, 124.993805, 0.000000, 19.699570
389, 81.853600, 0.000000, 22.807825
390, 88.624687, 0.000000, 19.409079
391, 95.278404, 0.000000, 23.035158
392, 99.771248, 0.000000, 23.092085
393, 3.367764, 0.000000, 3.304260
394, 104.309319, 0.000000, 23.124573
395, 108.877785, 0.000000, 23.148478
396, 113.550148, 0.000000, 23.097332
397, 120.419975, 0.000000, 19.655876
398, 136.361771, 0.000000, 23.390747
399, 140.183304, 0.000000, 23.207897
400, 131.820053, 0.000000, 23.387644
401, 127.300621, 0.000000, 23.303850
402, 147.068466, 0.000000, 3.044521
403, 3.165101, 0.000000, 26.910686
404, 143.872742, 0.000000, 17.332693
405, 147.019928, 0.000000, 26.946566
406, 143.908310, 0.000000, 8.605278
407, 150.000000, 10.007768, 26.820795
408, 150.000000, 10.007904, 3.194551
409, 150.000000, 3.711537, 15.000000
410, 150.000000, 16.389462, 15.001346
411, 150.000000, 4.008081, 6.306571
412, 150.000000, 3.978424, 23.714718
413, 150.000000, 16.595833, 6.115995
414, 150.000000, 16.595469, 23.893456
415, 150.000000, 3.744612, 19.313538
416, 150.000000, 7.407910, 17.166931
417, 150.000000, 7.439376, 12.899630
418, 150.000000, 11.008868, 15.048653
419, 150.000000, 11.136209, 10.802258
420, 150.000000, 11.085201, 19.318169
421, 150.000000, 7.737897, 8.879771
422, 150.000000, 3.816149, 10.752424
423, 150.000000, 15.698942, 19.592028
424, 150.000000, 15.717200, 10.439439
425, 150.000000, 7.710459, 21.176521
426, 150.000000, 6.131760, 3.017313
427, 150.000000, 14.000000, 3.310502
428, 150.000000, 11.872562, 6.914026
429, 150.000000, 13.994530, 26.724043
430, 150.000000, 11.858088, 23.129246
431, 150.000000, 6.127021, 26.994690
432, 150.000000, 13.653399, 16.889717
433, 150.000000, 13.716645, 13.045253
434, 150.000000, 2.844480, 2.832208
435, 150.000000, 17.319166, 2.742442
436, 150.000000, 2.840970, 27.171188
437, 150.000000, 17.317999, 27.266357
438, 150.000000, 7.951641, 5.662446
439, 150.000000, 7.914253, 24.379715
440, 145.861938, 20.000000, 15.272334
441, 3.434016, 20.000000, 15.031775
442, 125.021713, 20.000000, 3.947370
443, 93.227097, 20.000000, 3.995458
444, 61.409004, 20.000000, 4.035664
445, 111.276855, 20.000000, 26.113630
446, 29.422615, 20.000000, 26.131073
447, 74.898300, 20.000000, 26.122236
448, 47.749538, 20.000000, 26.147081
449, 20.480650, 20.000000, 4.192758
450, 38.786186, 20.000000, 4.086974
451, 129.565018, 20.000000, 26.118544
452, 97.749504, 20.000000, 26.130041
453, 106.818184, 20.000000, 3.936479
454, 79.578178, 20.000000, 4.075165
455, 61.256626, 20.000000, 26.125303
456, 15.909091, 20.000000, 26.063520
457, 52.318108, 20.000000, 4.049202
458, 88.540138, 20.000000, 26.119076
459, 120.476044, 20.000000, 26.122143
460, 134.116669, 20.000000, 3.933659
461, 115.924858, 20.000000, 3.945831
462, 29.569208, 20.000000, 4.165928
463, 70.499901, 20.000000, 4.022290
464, 38.658577, 20.000000, 26.150171
465, 138.634399, 20.000000, 26.230087
466, 11.480043, 20.000000, 4.375554
467, 142.964447, 20.000000, 3.781942
468, 6.908267, 20.000000, 25.749912
469, 146.058258, 20.000000, 23.334547
470, 3.347757, 20.000000, 6.502708
471, 138.635452, 20.000000, 3.899859
472, 136.390182, 20.000000, 7.828856
473, 131.884720, 20.000000, 7.864991
474, 134.172073, 20.000000, 11.758588
475, 129.662094, 20.000000, 11.785604
476, 131.951416, 20.000000, 15.671948
477, 127.434067, 20.000000, 15.715557
478, 136.452911, 20.000000, 15.642840
479, 125.139023, 20.000000, 11.822775
480, 122.906357, 20.000000, 15.758373
481, 120.607666, 20.000000, 11.852856
482, 118.371315, 20.000000, 15.797710
483, 116.070488, 20.000000, 11.885205
484, 113.829910, 20.000000, 15.692207
485, 111.527672, 20.000000, 11.896543
486, 109.168190, 20.000000, 15.634583
487, 106.964165, 20.000000, 11.897696
488, 104.602188, 20.000000, 15.793838
489, 102.412811, 20.000000, 11.948791
490, 100.171333, 20.000000, 15.920753
491, 97.885750, 20.000000, 11.991260
492, 95.648331, 20.000000, 15.973630
493, 93.347336, 20.000000, 12.031633
494, 91.106712, 20.000000, 15.853795
495, 88.804100, 20.000000, 12.069830
496, 86.433266, 20.000000, 15.791597
497, 84.237892, 20.000000, 12.099075
498, 81.864449, 20.000000, 15.970662
499, 79.685211, 20.000000, 12.158342
500, 77.441803, 20.000000, 15.938675
501, 75.159065, 20.000000, 12.178746
502, 72.784966, 20.000000, 15.884724
503, 70.597870, 20.000000, 12.136300
504, 68.219803, 20.000000, 16.062675
505, 66.055786, 20.000000, 12.213263
506, 63.805450, 20.000000, 16.027361
507, 61.523582, 20.000000, 12.203760
508, 59.143147, 20.000000, 15.964559
509, 56.968716, 20.000000, 12.257762
510, 54.578201, 20.000000, 16.166601
511, 52.410698, 20.000000, 12.272483
512, 50.168510, 20.000000, 16.307184
513, 47.885880, 20.000000, 12.322927
514, 45.649223, 20.000000, 16.363585
515, 43.385723, 20.000000, 12.334700
516, 41.115677, 20.000000, 16.399446
517, 38.916798, 20.000000, 12.293797
518, 36.566139, 20.000000, 16.463627
519, 34.346924, 20.000000, 12.436658
520, 32.033825, 20.000000, 16.280451
521, 29.733801, 20.000000, 12.498408
522, 27.327763, 20.000000, 16.196302
523, 25.153421, 20.000000, 12.520795
524, 22.755980, 20.000000, 16.407845
525, 20.606691, 20.000000, 12.583382
526, 18.371439, 20.000000, 16.556532
527, 16.108639, 20.000000, 12.667418
528, 13.889852, 20.000000, 16.611235
529, 11.658453, 20.000000, 12.753001
530, 45.594471, 20.000000, 8.351708
531, 134.244278, 20.000000, 19.541838
532, 102.426880, 20.000000, 19.661749
533, 79.467339, 20.000000, 19.333067
534, 86.461800, 20.000000, 8.140388
535, 125.207802, 20.000000, 19.659561
536, 65.817963, 20.000000, 19.399456
537, 100.106422, 20.000000, 7.987306
538, 52.377399, 20.000000, 19.922026
539, 116.039345, 20.000000, 19.376671
540, 20.416786, 20.000000, 20.034544
541, 93.310905, 20.000000, 19.519417
542, 138.736343, 20.000000, 19.503103
543, 43.416004, 20.000000, 20.344715
544, 34.207584, 20.000000, 19.886063
545, 9.654516, 20.000000, 16.758886
546, 11.664872, 20.000000, 20.404026
547, 7.217028, 20.000000, 20.507965
548, 141.015594, 20.000000, 15.527300
549, 13.806806, 20.000000, 8.662279
550, 9.588154, 20.000000, 8.500581
551, 22.832878, 20.000000, 8.495631
552, 143.212082, 20.000000, 19.383995
553, 143.083649, 20.000000, 11.512266
554, 31.994600, 20.000000, 8.454014
555, 54.656635, 20.000000, 8.182180
556, 63.749668, 20.000000, 8.144358
557, 72.830559, 20.000000, 8.082961
558, 15.988161, 20.000000, 4.297478
559, 109.186836, 20.000000, 7.930514
560, 138.670639, 20.000000, 11.667093
561, 118.310188, 20.000000, 7.935951
562, 11.391925, 20.000000, 26.155123
563, 16.117373, 20.000000, 20.346708
564, 129.581146, 20.000000, 3.942662
565, 134.154907, 20.000000, 26.308552
566, 18.303970, 20.000000, 8.483158
567, 25.049326, 20.000000, 4.223650
568, 20.442791, 20.000000, 26.070307
569, 24.973333, 20.000000, 26.285883
570, 27.048861, 20.000000, 22.924219
571, 27.388872, 20.000000, 8.393071
572, 34.239254, 20.000000, 4.142906
573, 36.591953, 20.000000, 8.213858
574, 38.858994, 20.000000, 20.131031
575, 91.011040, 20.000000, 8.020769
576, 56.840073, 20.000000, 26.232130
577, 58.944866, 20.000000, 22.801760
578, 52.318569, 20.000000, 26.246866
579, 47.780521, 20.000000, 4.052680
580, 43.265373, 20.000000, 4.024727
581, 56.874237, 20.000000, 4.039698
582, 50.115276, 20.000000, 8.140482
583, 106.844704, 20.000000, 26.196302
584, 108.991890, 20.000000, 22.660412
585, 102.319557, 20.000000, 26.208376
586, 93.115982, 20.000000, 26.268690
587, 84.115448, 20.000000, 26.212549
588, 86.243134, 20.000000, 22.724657
589, 79.471474, 20.000000, 26.296629
590, 97.739708, 20.000000, 3.947376
591, 102.302856, 20.000000, 3.960284
592, 95.563362, 20.000000, 7.982831
593, 88.647011, 20.000000, 3.973398
594, 84.124138, 20.000000, 4.144695
595, 65.965538, 20.000000, 4.027813
596, 59.205074, 20.000000, 8.094543
597, 111.384293, 20.000000, 3.950265
598, 104.631874, 20.000000, 7.943511
599, 75.053116, 20.000000, 4.073299
600, 68.283218, 20.000000, 8.104497
601, 125.031929, 20.000000, 26.149883
602, 115.853104, 20.000000, 26.246054
603, 70.477776, 20.000000, 26.222328
604, 72.593864, 20.000000, 22.763212
605, 65.828300, 20.000000, 26.311089
606, 43.215656, 20.000000, 26.193005
607, 33.997540, 20.000000, 26.325224
608, 77.376976, 20.000000, 8.140545
609, 47.961308, 20.000000, 20.307873
610, 97.931679, 20.000000, 19.598595
611, 113.750488, 20.000000, 7.945660
612, 120.478897, 20.000000, 3.945289
613, 129.733582, 20.000000, 19.600185
614, 120.663048, 20.000000, 19.533539
615, 122.834488, 20.000000, 7.909865
616, 3.380541, 20.000000, 10.731937
617, 127.353867, 20.000000, 7.878878
618, 140.827103, 20.000000, 7.737277
619, 81.910698, 20.000000, 8.126369
620, 145.760391, 20.000000, 7.175591
621, 7.373720, 20.000000, 12.857142
622, 41.140903, 20.000000, 8.117962
623, 143.148865, 20.000000, 26.537649
624, 6.763596, 20.000000, 4.434227
625, 3.444980, 20.000000, 23.268734
626, 3.370162, 20.000000, 19.118902
627, 141.051346, 20.000000, 22.956608
628, 113.696449, 20.000000, 22.689369
629, 136.487488, 20.000000, 22.844435
630, 90.963684, 20.000000, 22.758463
631, 77.286255, 20.000000, 22.758480
632, 147.026459, 20.000000, 19.312462
633, 131.949524, 20.000000, 22.863913
634, 63.643192, 20.000000, 22.797071
635, 127.410095, 20.000000, 22.864079
636, 106.927696, 20.000000, 19.258453
637, 31.844450, 20.000000, 22.941107
638, 122.870125, 20.000000, 22.857016
639, 118.266350, 20.000000, 22.804132
640, 111.442245, 20.000000, 19.218616
641, 146.815308, 20.000000, 11.036253
642, 84.155159, 20.000000, 19.300322
643, 104.748795, 20.000000, 22.857462
644, 70.510727, 20.000000, 19.366886
645, 100.147881, 20.000000, 22.893147
646, 95.536606, 20.000000, 22.861393
647, 88.702141, 20.000000, 19.324709
648, 56.902657, 20.000000, 19.509253
649, 81.789803, 20.000000, 22.770950
650, 75.014160, 20.000000, 19.340841
651, 25.004440, 20.000000, 19.699068
652, 68.145302, 20.000000, 22.810007
653, 61.376213, 20.000000, 19.416576
654, 54.719257, 20.000000, 23.036320
655, 50.226120, 20.000000, 23.092958
656, 146.632233, 20.000000, 3.304260
657, 45.688004, 20.000000, 23.125364
658, 41.119732, 20.000000, 23.148922
659, 36.447815, 20.000000, 23.097086
660, 29.577820, 20.000000, 19.654535
661, 13.638233, 20.000000, 23.389645
662, 9.814608, 20.000000, 23.208218
663, 18.179953, 20.000000, 23.386515
664, 22.699186, 20.000000, 23.302929
665, 2.931361, 20.000000, 3.044530
666, 146.834900, 20.000000, 26.910686
667, 6.124950, 20.000000, 17.333508
668, 2.979740, 20.000000, 26.946587
669, 6.090754, 20.000000, 8.605319
670, 0.000000, 9.992096, 3.194551
671, 0.000000, 9.992232, 26.820795
672, 0.000000, 16.288462, 15.000000
673, 0.000000, 3.610538, 15.001346
674, 0.000000, 3.404168, 6.115995
675, 0.000000, 3.404531, 23.893456
676, 0.000000, 15.991919, 6.306571
677, 0.000000, 16.021576, 23.714718
678, 0.000000, 16.255388, 19.313538
679, 0.000000, 12.592090, 17.166931
680, 0.000000, 12.560624, 12.899630
681, 0.000000, 8.991132, 15.048653
682, 0.000000, 8.863791, 10.802258
683, 0.000000, 8.914799, 19.318169
684, 0.000000, 12.262103, 8.879771
685, 0.000000, 16.183851, 10.752424
686, 0.000000, 4.301058, 19.592028
687, 0.000000, 4.282800, 10.439439
688, 0.000000, 12.289541, 21.176521
689, 0.000000, 13.868240, 3.017313
690, 0.000000, 6.000000, 3.310502
691, 0.000000, 8.127438, 6.914026
692, 0.000000, 6.005470, 26.724043
693, 0.000000, 8.141912, 23.129246
694, 0.000000, 13.872979, 26.994690
695, 0.000000, 6.346601, 16.889717
696, 0.000000, 6.283354, 13.045253
697, 0.000000, 2.680834, 2.742442
698, 0.000000, 17.155519, 2.832208
699, 0.000000, 17.159029, 27.171188
700, 0.000000, 2.682000, 27.266357
701, 0.000000, 12.048359, 5.662446
702, 0.000000, 12.085747, 24.379715
703, 2.719127, 9.999799, 0.000000
704, 147.280869, 10.000169, 0.000000
705, 29.085634, 4.667230, 0.000000
706, 120.914368, 15.332770, 0.000000
707, 129.545456, 16.063520, 0.000000
708, 20.454546, 3.936479, 0.000000
709, 61.363636, 16.063520, 0.000000
710, 88.636360, 3.936479, 0.000000
711, 38.636364, 3.936479, 0.000000
712, 97.727272, 3.936479, 0.000000
713, 111.363640, 16.063520, 0.000000
714, 47.727272, 3.936479, 0.000000
715, 75.000000, 16.063520, 0.000000
716, 56.818180, 3.936479, 0.000000
717, 106.818184, 3.936479, 0.000000
718, 70.454544, 3.936479, 0.000000
719, 134.090912, 3.936479, 0.000000
720, 25.015680, 16.058090, 0.000000
721, 124.984322, 3.941913, 0.000000
722, 15.909091, 16.063520, 0.000000
723, 93.181816, 16.063520, 0.000000
724, 84.090912, 16.063520, 0.000000
725, 116.114426, 4.033830, 0.000000
726, 52.455959, 16.195396, 0.000000
727, 33.885578, 15.966170, 0.000000
728, 43.181820, 16.063520, 0.000000
729, 102.272728, 16.063520, 0.000000
730, 79.545456, 3.936479, 0.000000
731, 138.177490, 15.341369, 0.000000
732, 11.822555, 4.658535, 0.000000
733, 6.743011, 16.584316, 0.000000
734, 143.256989, 3.415649, 0.000000
735, 138.657166, 3.825600, 0.000000
736, 136.227036, 7.716811, 0.000000
737, 131.858017, 7.868641, 0.000000
738, 134.032089, 12.033165, 0.000000
739, 11.342831, 16.174324, 0.000000
740, 13.773024, 12.283055, 0.000000
741, 18.142059, 12.131311, 0.000000
742, 15.968030, 7.966702, 0.000000
743, 140.931381, 7.754942, 0.000000
744, 9.068635, 12.244942, 0.000000
745, 6.831627, 3.540893, 0.000000
746, 9.091172, 7.770739, 0.000000
747, 143.168381, 16.459072, 0.000000
748, 140.908829, 12.229148, 0.000000
749, 129.541229, 3.941607, 0.000000
750, 127.254250, 7.842269, 0.000000
751, 122.883202, 7.720227, 0.000000
752, 125.072197, 12.047832, 0.000000
753, 20.458776, 16.058388, 0.000000
754, 22.745777, 12.157720, 0.000000
755, 27.116804, 12.279772, 0.000000
756, 24.927805, 7.952168, 0.000000
757, 106.818184, 16.063520, 0.000000
758, 109.090912, 12.153128, 0.000000
759, 113.458954, 12.233816, 0.000000
760, 110.674667, 8.203921, 0.000000
761, 88.636360, 16.063520, 0.000000
762, 90.909088, 12.153128, 0.000000
763, 95.454544, 12.157475, 0.000000
764, 93.181816, 8.190562, 0.000000
765, 86.363640, 12.157475, 0.000000
766, 81.818184, 12.158200, 0.000000
767, 84.090912, 8.190562, 0.000000
768, 70.454544, 16.063520, 0.000000
769, 72.727272, 12.153128, 0.000000
770, 68.181816, 12.157475, 0.000000
771, 77.272728, 12.162669, 0.000000
772, 75.000000, 8.190562, 0.000000
773, 65.909088, 16.068594, 0.000000
774, 63.636364, 12.132959, 0.000000
775, 59.090908, 12.154115, 0.000000
776, 61.363636, 8.190562, 0.000000
777, 65.909088, 8.190562, 0.000000
778, 43.181820, 3.936479, 0.000000
779, 40.909092, 7.846872, 0.000000
780, 36.541042, 7.766184, 0.000000
781, 39.325329, 11.796079, 0.000000
782, 45.454544, 7.842525, 0.000000
783, 49.625004, 7.923008, 0.000000
784, 47.462894, 11.879164, 0.000000
785, 97.727272, 16.068594, 0.000000
786, 100.000000, 12.159046, 0.000000
787, 104.545456, 12.162809, 0.000000
788, 102.272728, 8.190562, 0.000000
789, 56.848721, 16.090012, 0.000000
790, 54.963661, 12.133289, 0.000000
791, 52.030785, 3.841220, 0.000000
792, 79.545456, 16.066418, 0.000000
793, 115.956161, 15.959525, 0.000000
794, 34.043839, 4.040475, 0.000000
795, 117.480011, 11.858455, 0.000000
796, 32.519989, 8.141544, 0.000000
797, 29.514053, 16.095570, 0.000000
798, 120.485947, 3.904430, 0.000000
799, 134.016953, 16.549183, 0.000000
800, 15.983070, 3.450757, 0.000000
801, 118.884773, 7.905282, 0.000000
802, 31.115227, 12.094716, 0.000000
803, 129.552399, 11.171085, 0.000000
804, 20.447643, 8.828876, 0.000000
805, 24.923998, 3.445256, 0.000000
806, 125.076004, 16.554745, 0.000000
807, 93.181816, 3.212704, 0.000000
808, 88.636360, 8.925642, 0.000000
809, 97.727272, 8.761184, 0.000000
810, 38.279533, 15.946279, 0.000000
811, 84.090912, 3.212704, 0.000000
812, 111.720467, 4.053721, 0.000000
813, 106.680389, 8.929380, 0.000000
814, 43.266735, 11.085632, 0.000000
815, 61.363636, 3.624151, 0.000000
816, 79.545456, 8.927694, 0.000000
817, 102.272728, 3.212704, 0.000000
818, 47.870052, 16.201801, 0.000000
819, 70.454544, 8.925642, 0.000000
820, 56.935841, 8.487780, 0.000000
821, 75.000000, 3.212704, 0.000000
822, 65.711891, 3.834713, 0.000000
823, 145.949768, 13.410450, 0.000000
824, 4.050232, 6.589501, 0.000000
825, 4.034120, 13.430546, 0.000000
826, 145.965881, 6.569405, 0.000000
827, 114.722214, 8.048171, 0.000000
828, 35.277782, 11.951829, 0.000000
829, 12.383570, 8.903159, 0.000000
830, 137.616547, 11.096541, 0.000000
831, 53.524929, 7.725454, 0.000000
832, 51.040394, 12.378058, 0.000000
833, 28.823519, 8.988023, 0.000000
834, 121.176483, 11.011976, 0.000000
835, 3.043012, 17.198057, 0.000000
836, 146.956985, 2.801930, 0.000000
837, 146.941559, 17.176765, 0.000000
838, 3.058439, 2.823222, 0.000000
839, 144.207352, 9.992823, 0.000000
840, 5.792657, 10.007106, 0.000000
841, 2.719127, 9.999799, 30.000000
842, 147.280869, 10.000169, 30.000000
843, 29.085634, 4.667230, 30.000000
844, 93.377373, 4.069117, 30.000000
845, 120.914368, 15.332770, 30.000000
846, 129.545456, 16.063520, 30.000000
847, 20.454546, 3.936479, 30.000000
848, 61.363636, 16.063520, 30.000000
849, 38.636364, 3.936479, 30.000000
850, 84.090912, 16.063520, 30.000000
851, 111.363640, 16.063520, 30.000000
852, 47.727272, 3.936479, 30.000000
853, 75.000000, 16.089607, 30.000000
854, 102.272728, 3.936479, 30.000000
855, 56.818180, 3.936479, 30.000000
856, 70.653893, 4.040842, 30.000000
857, 134.090912, 3.936479, 30.000000
858, 25.015680, 16.058090, 30.000000
859, 124.984322, 3.941913, 30.000000
860, 15.909091, 16.063520, 30.000000
861, 97.527924, 15.959158, 30.000000
862, 115.913040, 3.904555, 30.000000
863, 52.455959, 16.195396, 30.000000
864, 33.885578, 15.966170, 30.000000
865, 43.181820, 16.063520, 30.000000
866, 79.362221, 3.804603, 30.000000
867, 138.177490, 15.341369, 30.000000
868, 11.822555, 4.658535, 30.000000
869, 6.743011, 16.584316, 30.000000
870, 143.256989, 3.415649, 30.000000
871, 138.657166, 3.825600, 30.000000
872, 136.227036, 7.716811, 30.000000
873, 131.858017, 7.868641, 30.000000
874, 134.032089, 12.033165, 30.000000
875, 11.342831, 16.174324, 30.000000
876, 13.773024, 12.283055, 30.000000
877, 18.142059, 12.131311, 30.000000
878, 15.968030, 7.966702, 30.000000
879, 140.931381, 7.754942, 30.000000
880, 9.068635, 12.244942, 30.000000
881, 6.831627, 3.540893, 30.000000
882, 9.091172, 7.770739, 30.000000
883, 143.168381, 16.459072, 30.000000
884, 140.908829, 12.229148, 30.000000
885, 129.541229, 3.941607, 30.000000
886, 127.254250, 7.842269, 30.000000
887, 122.883202, 7.720227, 30.000000
888, 125.072197, 12.047832, 30.000000
889, 20.458776, 16.058388, 30.000000
890, 22.745777, 12.157720, 30.000000
891, 27.116804, 12.279772, 30.000000
892, 24.927805, 7.952168, 30.000000
893, 88.636360, 16.063520, 30.000000
894, 86.363640, 12.127042, 30.000000
895, 90.725861, 12.258918, 30.000000
896, 82.013733, 11.994404, 30.000000
897, 84.347504, 8.102352, 30.000000
898, 97.759865, 3.958585, 30.000000
899, 100.184875, 7.773042, 30.000000
900, 104.576263, 7.856306, 30.000000
901, 102.531197, 10.969331, 30.000000
902, 106.818184, 11.809438, 30.000000
903, 109.096046, 7.844097, 30.000000
904, 96.277168, 8.016239, 30.000000
905, 106.824173, 3.928893, 30.000000
906, 93.158585, 16.074699, 30.000000
907, 70.454544, 16.067869, 30.000000
908, 72.727272, 12.127042, 30.000000
909, 68.002373, 12.231367, 30.000000
910, 75.000000, 3.936479, 30.000000
911, 76.578911, 7.857315, 30.000000
912, 65.879181, 16.081633, 30.000000
913, 63.601471, 12.147449, 30.000000
914, 59.085094, 12.156529, 30.000000
915, 61.363636, 8.190562, 30.000000
916, 65.650894, 9.032302, 30.000000
917, 43.181820, 3.936479, 30.000000
918, 40.909092, 7.846872, 30.000000
919, 36.541042, 7.766184, 30.000000
920, 39.325329, 11.796079, 30.000000
921, 45.454544, 7.842525, 30.000000
922, 49.625004, 7.923008, 30.000000
923, 47.462894, 11.879164, 30.000000
924, 56.847752, 16.090414, 30.000000
925, 54.962532, 12.133759, 30.000000
926, 52.030785, 3.841220, 30.000000
927, 111.366150, 3.925084, 30.000000
928, 79.578049, 16.071848, 30.000000
929, 114.119888, 8.558887, 30.000000
930, 88.431152, 9.018715, 30.000000
931, 115.909088, 16.063520, 30.000000
932, 118.181816, 12.127042, 30.000000
933, 34.043839, 4.040475, 30.000000
934, 32.519989, 8.141544, 30.000000
935, 29.514053, 16.095570, 30.000000
936, 120.482529, 3.879426, 30.000000
937, 134.016953, 16.549183, 30.000000
938, 15.983070, 3.450757, 30.000000
939, 118.846817, 7.883295, 30.000000
940, 31.115227, 12.094716, 30.000000
941, 129.552399, 11.171085, 30.000000
942, 20.447643, 8.828876, 30.000000
943, 24.923998, 3.445256, 30.000000
944, 125.076004, 16.554745, 30.000000
945, 88.514580, 4.827921, 30.000000
946, 94.762650, 12.053691, 30.000000
947, 102.434982, 15.163685, 30.000000
948, 38.279533, 15.946279, 30.000000
949, 83.683701, 3.933929, 30.000000
950, 43.266735, 11.085632, 30.000000
951, 61.363636, 3.624151, 30.000000
952, 72.727272, 7.716441, 30.000000
953, 47.870052, 16.201801, 30.000000
954, 56.935333, 8.487989, 30.000000
955, 77.627533, 12.007021, 30.000000
956, 65.746880, 4.814290, 30.000000
957, 106.830009, 16.361179, 30.000000
958, 111.291451, 11.526388, 30.000000
959, 145.949768, 13.410450, 30.000000
960, 4.050232, 6.589501, 30.000000
961, 4.034120, 13.430546, 30.000000
962, 145.965881, 6.569405, 30.000000
963, 35.277782, 11.951829, 30.000000
964, 12.383570, 8.903159, 30.000000
965, 137.616547, 11.096541, 30.000000
966, 53.524788, 7.725512, 30.000000
967, 114.437592, 12.809477, 30.000000
968, 98.953133, 11.655858, 30.000000
969, 69.344971, 8.685888, 30.000000
970, 51.040287, 12.378103, 30.000000
971, 80.659332, 7.601341, 30.000000
972, 92.014801, 8.374100, 30.000000
973, 28.823519, 8.988023, 30.000000
974, 121.336777, 11.065042, 30.000000
975, 3.043012, 17.198057, 30.000000
976, 146.956985, 2.801930, 30.000000
977, 146.941559, 17.176765, 30.000000
978, 3.058439, 2.823222, 30.000000
979, 144.207352, 9.992823, 30.000000
980, 5.792657, 10.007106, 30.000000
981, 86.552330, 10.010778, 19.983696
982, 13.875371, 10.069165, 19.151760
983, 136.121994, 9.930592, 19.151802
984, 104.421616, 9.982965, 20.005428
985, 54.488209, 10.017140, 18.636448
986, 122.925896, 10.023792, 19.940128
987, 27.074476, 9.976351, 19.960527
988, 120.114578, 9.938112, 10.111238
989, 29.813885, 10.062205, 10.114956
990, 96.137062, 9.974276, 14.006172
991, 74.977631, 9.994027, 16.917427
992, 45.636898, 10.006932, 13.376369
993, 63.473965, 10.003088, 13.632494
994, 131.329514, 10.065117, 10.140559
995, 18.669312, 9.934862, 10.141224
996, 109.245667, 10.004414, 10.904217
997, 82.884010, 10.011421, 10.451508
998, 37.178905, 10.054011, 18.989605
999, 55.138462, 9.335963, 9.236041
1000, 140.631714, 10.858544, 10.986213
1001, 9.367697, 9.140669, 10.985803
1002, 113.675217, 10.835436, 20.906601
1003, 71.064209, 11.156098, 8.840138
1004, 67.456947, 10.168524, 21.469870
1005, 38.369846, 8.548265, 8.593842
1006, 46.726810, 8.323423, 21.622850
1007, 101.660522, 11.857302, 8.117095
1008, 94.408287, 8.174716, 21.918388
1009, 90.593643, 11.789251, 8.209402
1010, 142.680679, 8.710924, 22.720949
1011, 7.319309, 11.289010, 22.720945
1012, 129.687943, 7.387060, 22.597445
1013, 20.306761, 12.613193, 22.597830
1014, 20.600803, 7.177058, 17.175209
1015, 129.402328, 12.826698, 17.173355
1016, 60.392166, 12.592805, 22.576164
1017, 79.678474, 12.539581, 22.538109
1018, 61.367237, 12.916908, 7.079043
1019, 114.895111, 7.034660, 14.665626
1020, 89.334114, 7.131139, 13.788515
1021, 47.557915, 6.942858, 6.981436
1022, 23.709341, 13.099324, 14.320752
1023, 126.320038, 6.897110, 14.334453
1024, 142.927994, 13.236250, 17.263193
1025, 102.807671, 7.133594, 13.518476
1026, 7.071969, 6.763716, 17.263220
1027, 96.148354, 7.172832, 7.285146
1028, 65.393303, 6.936591, 7.388924
1029, 76.472054, 6.840580, 10.669440
1030, 43.782665, 13.109479, 7.112745
1031, 73.489471, 6.962983, 23.066849
1032, 77.578239, 13.061446, 6.974433
1033, 143.667603, 6.357859, 15.025422
1034, 6.332769, 13.642153, 15.025422
1035, 125.765930, 6.860783, 6.946056
1036, 114.444206, 12.963778, 7.023935
1037, 118.070755, 13.063797, 16.011642
1038, 24.198040, 13.151919, 6.935219
1039, 81.274849, 6.963113, 16.542509
1040, 31.811554, 6.917088, 15.947620
1041, 143.399246, 6.482236, 6.547594
1042, 6.600681, 13.517829, 6.547761
1043, 60.532921, 6.779512, 18.930222
1044, 69.500206, 6.565688, 14.304519
1045, 35.408867, 13.117528, 12.967956
1046, 32.501091, 6.931167, 23.124790
1047, 41.791706, 13.005713, 23.399109
1048, 98.718246, 13.466134, 21.462162
1049, 24.921093, 6.379766, 7.127947
1050, 69.129158, 13.255001, 15.622378
1051, 102.356583, 13.728736, 14.803850
1052, 125.090065, 13.616370, 7.294956
1053, 136.074295, 6.400465, 13.343444
1054, 13.924152, 13.599228, 13.343552
1055, 48.881496, 13.688456, 18.206337
1056, 92.154358, 13.432753, 18.272190
1057, 51.300117, 6.396151, 13.930931
1058, 57.720097, 13.499768, 13.860273
1059, 109.141434, 13.384785, 16.686050
1060, 132.200104, 13.438323, 23.086592
1061, 17.797712, 6.561084, 23.084843
1062, 80.475517, 13.501480, 15.582694
1063, 135.405670, 13.743711, 13.808668
1064, 14.593379, 6.256261, 13.809052
1065, 56.150505, 6.316877, 23.828697
1066, 136.575943, 7.570960, 6.727131
1067, 13.272988, 12.590125, 6.712918
1068, 109.614723, 6.206204, 18.521288
1069, 87.355080, 13.717628, 13.683383
1070, 86.811172, 6.525122, 6.109983
1071, 49.940464, 13.502315, 9.659081
1072, 115.462021, 6.267710, 6.825757
1073, 40.446281, 6.531651, 23.534857
1074, 105.494339, 6.448475, 6.418513
1075, 73.102341, 13.468493, 22.177946
1076, 100.408386, 6.430049, 23.658203
1077, 118.286011, 6.681117, 23.432159
1078, 32.341019, 13.459252, 21.981062
1079, 124.044136, 13.977080, 13.802742
1080, 81.992836, 6.489156, 22.978144
1081, 40.266670, 6.426478, 14.493613
1082, 107.698296, 13.959392, 6.040608
1083, 34.102165, 13.665689, 6.394856
1084, 25.853796, 6.164733, 13.530190
1085, 52.546028, 13.787985, 23.713821
1086, 89.371941, 13.991424, 24.045336
1087, 14.159759, 6.330932, 7.458736
1088, 32.944748, 6.086471, 6.105680
1089, 84.970253, 13.960952, 5.931736
1090, 42.018753, 13.728423, 17.072399
1091, 96.095711, 14.010968, 6.014843
1092, 29.816690, 14.037384, 15.884566
1093, 106.772331, 5.868585, 24.067762
1094, 134.126953, 14.327356, 6.538743
1095, 106.269447, 14.139627, 24.230156
1096, 118.915596, 13.565313, 23.676914
1097, 11.309841, 6.093392, 23.650982
1098, 138.688065, 13.905923, 23.651011
1099, 58.812534, 5.831922, 12.952582
1100, 137.133957, 6.161581, 24.023354
1101, 12.865873, 13.838586, 24.023485
1102, 59.544041, 5.750047, 5.575074
1103, 125.138771, 14.344596, 23.723686
1104, 24.861198, 5.647888, 23.723761
1105, 88.995575, 5.779656, 23.835711
1106, 143.635880, 13.930486, 6.077349
1107, 6.363759, 6.069170, 6.077046
1108, 80.480385, 6.474333, 5.770907
1109, 98.608971, 5.831080, 17.812729
1110, 25.971432, 14.145981, 24.281378
1111, 55.588146, 14.270085, 5.681604
1112, 120.643356, 5.749931, 16.239555
1113, 67.030098, 14.104111, 5.542731
1114, 71.249832, 5.662597, 6.147551
1115, 144.600540, 14.129840, 24.238119
1116, 5.398067, 5.871258, 24.237110
1117, 75.057800, 13.970638, 12.380438
1118, 62.245682, 5.588981, 24.478104
1119, 63.648548, 14.282235, 17.831322
1120, 18.527145, 14.067481, 17.099483
1121, 131.493271, 5.925570, 17.115887
1122, 124.162781, 5.728886, 24.312328
1123, 113.371017, 14.420938, 12.666821
1124, 18.683420, 14.458838, 5.371559
1125, 131.248230, 5.581474, 5.351015
1126, 139.372177, 5.294246, 18.600521
1127, 10.628426, 14.706558, 18.598701
1128, 112.551743, 5.768622, 23.511608
1129, 42.164349, 5.488377, 5.479020
1130, 51.564529, 5.508588, 20.540154
1131, 119.843773, 12.844126, 5.223024
1132, 65.410400, 14.584661, 24.490526
1133, 52.958694, 5.540951, 5.451895
1134, 46.443520, 5.495834, 16.715933
1135, 144.572571, 14.651160, 12.116760
1136, 19.507444, 5.167217, 6.045005
1137, 5.427155, 5.348415, 12.117270
1138, 66.019775, 5.524721, 18.615234
1139, 65.927002, 14.441920, 11.095055
1140, 92.878067, 14.400816, 12.675600
1141, 47.048733, 14.704549, 24.411108
1142, 113.579880, 14.825965, 24.841234
1143, 40.706871, 14.654096, 11.627273
1144, 72.727272, 14.768781, 4.892726
1145, 90.877327, 5.013880, 18.675911
1146, 36.726387, 10.705972, 24.631981
1147, 34.638401, 5.497789, 11.371626
1148, 68.165543, 5.475864, 24.783278
1149, 84.402939, 11.038998, 24.959454
1150, 118.386269, 15.145192, 10.523578
1151, 76.676682, 5.190675, 18.962807
1152, 122.329842, 4.931204, 11.016406
1153, 97.226204, 14.781246, 16.370331
1154, 94.698257, 14.949990, 24.868650
1155, 120.652069, 6.291741, 4.966577
1156, 108.896133, 4.993268, 13.186827
1157, 27.603497, 15.075585, 10.916110
1158, 144.917542, 4.894717, 19.903902
1159, 5.082683, 15.105588, 19.903938
1160, 44.333618, 5.243076, 11.047365
1161, 129.133224, 14.620130, 12.072732
1162, 104.319206, 4.695688, 18.996277
1163, 106.402000, 14.625470, 11.280673
1164, 98.058128, 14.674393, 11.019361
1165, 20.722839, 5.361498, 12.107070
1166, 36.222881, 4.781591, 18.239857
1167, 52.468342, 14.925672, 14.282533
1168, 136.484116, 15.228917, 18.804199
1169, 27.036282, 4.772614, 18.591612
1170, 13.515880, 4.770869, 18.804487
1171, 91.292725, 5.354124, 9.007556
1172, 55.767559, 5.006899, 17.271214
1173, 84.377808, 14.870822, 21.098412
1174, 110.057510, 10.352981, 24.880301
1175, 94.217911, 4.963312, 14.453260
1176, 57.026714, 14.691939, 19.011629
1177, 29.139788, 11.914287, 5.054991
1178, 81.470161, 4.819009, 10.807482
1179, 20.460732, 15.030566, 10.449419
1180, 129.549759, 4.967122, 10.449059
1181, 81.216324, 15.143041, 10.373277
1182, 45.454544, 4.661383, 25.254049
1183, 122.955811, 15.239640, 18.861486
1184, 51.398239, 8.647173, 24.941870
1185, 23.968111, 14.777075, 19.377855
1186, 104.664276, 15.226055, 19.314880
1187, 126.065025, 5.201447, 19.371319
1188, 37.388779, 14.957553, 21.093063
1189, 100.888710, 5.249993, 8.882728
1190, 51.639782, 10.701680, 5.458906
1191, 46.062199, 15.266025, 13.989916
1192, 76.114204, 14.991861, 18.133553
1193, 63.940296, 4.727647, 13.685526
1194, 113.818367, 15.334465, 18.155035
1195, 110.716187, 9.011930, 5.566416
1196, 140.599564, 4.846837, 10.856296
1197, 9.399748, 15.153511, 10.856206
1198, 29.272997, 4.821592, 9.691015
1199, 138.738815, 12.133812, 5.085116
1200, 138.524734, 15.411766, 9.157205
1201, 42.290424, 8.740839, 18.787897
1202, 129.114319, 10.700789, 5.311789
1203, 101.993484, 11.241637, 24.834349
1204, 85.628502, 5.000346, 18.720955
1205, 28.536551, 9.713332, 24.900658
1206, 145.508698, 8.793187, 10.979152
1207, 4.491409, 11.206813, 10.979152
1208, 39.062260, 15.386855, 6.686781
1209, 68.553192, 15.279135, 20.390827
1210, 145.843765, 4.413654, 25.773335
1211, 4.156228, 15.586346, 25.773335
1212, 75.653793, 8.388773, 5.781224
1213, 90.909088, 15.416224, 4.571858
1214, 71.533852, 4.936867, 18.750782
1215, 95.916687, 4.684877, 25.307751
1216, 115.540070, 5.107404, 19.384630
1217, 77.644714, 4.626406, 24.993298
1218, 139.705490, 9.364657, 15.685749
1219, 10.296123, 10.637782, 15.682980
1220, 54.549263, 4.417678, 10.526488
1221, 122.465927, 10.362988, 25.170610
1222, 48.227730, 14.549622, 4.890244
1223, 110.838066, 4.782210, 8.452147
1224, 145.746399, 9.038026, 25.932859
1225, 4.253613, 10.961893, 25.932861
1226, 74.309532, 4.504646, 14.571404
1227, 17.296564, 9.624829, 5.312777
1228, 86.489113, 4.387120, 10.662206
1229, 36.416702, 4.389654, 25.553736
1230, 100.709717, 15.332782, 4.674902
1231, 106.767624, 9.142089, 15.721058
1232, 23.635920, 9.645740, 10.697544
1233, 57.063267, 15.184786, 25.147612
1234, 117.346680, 4.508397, 11.112093
1235, 61.115227, 8.515443, 9.425646
1236, 63.848373, 10.078162, 25.574907
1237, 16.594904, 10.814075, 25.428501
1238, 133.402130, 9.183279, 25.426790
1239, 126.404388, 10.601151, 11.021258
1240, 100.078209, 10.525311, 17.760916
1241, 118.082863, 9.339405, 19.255272
1242, 76.559792, 15.340809, 25.292131
1243, 4.254146, 10.738041, 4.062865
1244, 145.745865, 9.262064, 4.062867
1245, 115.596008, 10.330358, 25.457476
1246, 10.524908, 8.736320, 4.802612
1247, 131.823486, 4.290361, 25.686237
1248, 18.176512, 15.711890, 25.685268
1249, 129.427948, 15.774871, 6.454229
1250, 23.415714, 10.057873, 25.533121
1251, 85.280128, 9.527702, 15.245601
1252, 97.053795, 10.548200, 25.476759
1253, 145.728287, 9.276396, 18.191542
1254, 4.271881, 10.723705, 18.191715
1255, 34.375458, 15.581302, 17.173956
1256, 10.046712, 4.377541, 13.530273
1257, 100.043503, 15.679977, 25.645723
1258, 140.042328, 15.436138, 13.915388
1259, 70.635353, 10.439164, 25.416271
1260, 58.096905, 10.271849, 4.402755
1261, 114.112495, 9.385084, 10.401155
1262, 82.251633, 15.515347, 25.478848
1263, 37.406796, 4.678830, 4.676606
1264, 109.882652, 15.401587, 21.122921
1265, 49.682835, 8.946102, 17.707567
1266, 8.528358, 15.591693, 24.106377
1267, 141.471512, 4.407957, 24.106112
1268, 43.831879, 4.549962, 20.688095
1269, 68.543365, 9.491530, 4.538820
1270, 16.464951, 15.310768, 21.234669
1271, 54.034344, 10.377390, 13.840759
1272, 133.541733, 4.678657, 21.246584
1273, 132.518112, 10.022886, 14.805498
1274, 17.484175, 9.970710, 14.803514
1275, 127.350822, 10.417919, 25.675016
1276, 81.317513, 11.087333, 4.668807
1277, 55.187408, 15.666550, 10.321074
1278, 70.310173, 15.873746, 9.621146
1279, 98.784035, 10.219265, 4.533756
1280, 68.607368, 4.432127, 10.033105
1281, 76.273689, 10.349297, 25.477770
1282, 22.116119, 9.434319, 4.549375
1283, 57.499615, 10.477072, 25.711000
1284, 28.687527, 7.249996, 4.399004
1285, 59.963509, 11.276031, 17.437172
1286, 43.945538, 9.222652, 25.440292
1287, 35.945438, 9.573405, 4.489377
1288, 40.803684, 10.112376, 4.650617
1289, 98.815300, 4.521215, 13.219866
1290, 35.241016, 15.240094, 25.415831
1291, 136.013367, 11.275515, 9.732781
1292, 39.803425, 4.187430, 9.935743
1293, 3.866022, 15.567412, 3.910953
1294, 146.133987, 4.432589, 3.910938
1295, 88.528030, 15.906520, 9.571562
1296, 70.041481, 15.344742, 25.309406
1297, 91.359993, 9.749193, 25.374445
1298, 104.566826, 10.713944, 4.530033
1299, 134.213516, 4.333087, 9.405910
1300, 61.234768, 15.338250, 11.196111
1301, 15.797421, 15.676853, 9.419319
1302, 36.094227, 8.697021, 14.567818
1303, 50.157413, 4.073971, 25.111086
1304, 45.034519, 15.559402, 20.219898
1305, 49.348148, 4.075884, 10.295693
1306, 121.475677, 10.105349, 14.626192
1307, 87.914795, 15.519434, 18.022802
1308, 63.880096, 10.108567, 4.248917
1309, 78.561531, 10.796851, 12.206142
1310, 67.349388, 9.223025, 11.037119
1311, 128.662643, 15.609772, 20.885578
1312, 21.335714, 4.390298, 20.885035
1313, 123.530258, 10.010242, 4.139195
1314, 92.860970, 11.172461, 4.150359
1315, 92.457977, 8.998060, 16.756851
1316, 127.347328, 11.119598, 21.016750
1317, 22.650047, 8.880228, 21.023039
1318, 111.085350, 15.769457, 8.772261
1319, 113.204460, 11.099715, 16.256584
1320, 72.997658, 9.283053, 12.704176
1321, 121.419228, 4.476685, 20.701567
1322, 14.015081, 9.723207, 10.700201
1323, 95.044365, 11.127750, 9.579179
1324, 32.309204, 15.634315, 10.354752
1325, 70.450768, 9.418566, 17.952753
1326, 92.998558, 4.780613, 4.545234
1327, 118.343262, 15.941434, 19.688932
1328, 50.545776, 8.872839, 10.028156
1329, 28.531195, 15.466494, 20.150639
1330, 32.709137, 11.026607, 17.999674
1331, 109.049805, 10.470106, 20.327089
1332, 9.923656, 4.997877, 8.903339
1333, 45.416161, 9.932355, 4.146409
1334, 95.277252, 3.876655, 20.596365
1335, 10.612240, 10.165454, 25.853897
1336, 139.387878, 9.834348, 25.853956
1337, 28.143730, 9.724919, 15.445877
1338, 31.652807, 4.031403, 19.590254
1339, 105.149498, 4.184937, 10.500641
1340, 88.063187, 10.740618, 4.341025
1341, 42.779404, 9.426992, 9.760360
1342, 61.321487, 3.865239, 9.442294

*ELEMENT, TYPE=C3D4, ELSET=ALL_ELEMENTS
1, 935, 446, 1078, 1110
2, 202, 1041, 735, 1066
3, 1009, 1020, 997, 1070
4, 981, 1039, 1017, 1062
5, 685, 1042, 616, 1207
6, 422, 1041, 349, 1206
7, 598, 489, 1007, 1163
8, 1042, 1197, 616, 1207
9, 1041, 1196, 349, 1206
10, 685, 616, 1034, 1207
11, 422, 349, 1033, 1206
12, 537, 598, 489, 1007
13, 792, 1089, 454, 1276
14, 797, 567, 720, 1177
15, 997, 1070, 1020, 1228
16, 446, 935, 1078, 1290
17, 1036, 1072, 795, 1131
18, 466, 1042, 739, 1067
19, 349, 1196, 1033, 1206
20, 616, 1197, 1034, 1207
21, 454, 1089, 1032, 1276
22, 1004, 1138, 1043, 1285
23, 1007, 1025, 990, 1189
24, 737, 1125, 1066, 1202
25, 197, 1046, 375, 1104
26, 669, 616, 1042, 1197
27, 406, 349, 1041, 1196
28, 552, 1024, 632, 1115
29, 369, 290, 1026, 1116
30, 571, 1157, 1177, 1324
31, 192, 353, 1108, 1212
32, 1017, 991, 1039, 1151
33, 1007, 1189, 990, 1323
34, 209, 1087, 210, 1165
35, 489, 537, 1007, 1164
36, 792, 454, 1032, 1276
37, 241, 1039, 1204, 1228
38, 1024, 1098, 542, 1168
39, 935, 1078, 940, 1110
40, 476, 1168, 531, 1311
41, 280, 1026, 1097, 1170
42, 212, 1170, 267, 1312
43, 552, 1098, 1024, 1115
44, 290, 1097, 1026, 1116
45, 996, 1025, 1007, 1074
46, 454, 1032, 1089, 1181
47, 567, 1038, 720, 1177
48, 212, 1014, 1170, 1312
49, 990, 1025, 1007, 1051
50, 476, 1015, 1168, 1311
51, 616, 685, 470, 1042
52, 422, 206, 349, 1041
53, 542, 1024, 552, 1098
54, 280, 1026, 290, 1097
55, 241, 1178, 1039, 1228
56, 192, 1114, 353, 1212
57, 989, 1045, 1005, 1083
58, 489, 1007, 1163, 1164
59, 300, 938, 1061, 1097
60, 565, 937, 1060, 1098
61, 997, 1020, 1009, 1069
62, 1029, 353, 1114, 1212
63, 709, 1018, 444, 1111
64, 1090, 1143, 1081, 1302
65, 241, 1039, 240, 1204
66, 541, 1056, 1048, 1154
67, 210, 1087, 1064, 1165
68, 288, 1041, 1066, 1196
69, 669, 616, 470, 1042
70, 349, 206, 406, 1041
71, 632, 1024, 423, 1115
72, 369, 1026, 686, 1116
73, 571, 1038, 462, 1177
74, 1007, 1025, 996, 1163
75, 991, 1017, 1039, 1062
76, 597, 713, 461, 1036
77, 1017, 1039, 1080, 1151
78, 1012, 1015, 983, 1121
79, 192, 1108, 821, 1212
80, 982, 1013, 1014, 1120
81, 498, 1062, 1069, 1307
82, 206, 422, 411, 1041
83, 470, 685, 676, 1042
84, 571, 1177, 462, 1324
85, 801, 795, 1072, 1131
86, 207, 1246, 1107, 1332
87, 454, 1089, 619, 1181
88, 1017, 1151, 1080, 1281
89, 444, 1018, 709, 1113
90, 981, 1062, 1017, 1173
91, 712, 1189, 817, 1279
92, 375, 1104, 1046, 1338
93, 797, 462, 567, 1177
94, 989, 1005, 1045, 1147
95, 518, 1143, 1090, 1255
96, 1048, 1056, 541, 1153
97, 612, 442, 1052, 1131
98, 940, 1110, 1078, 1205
99, 212, 1014, 1064, 1170
100, 476, 1015, 1063, 1168
101, 827, 795, 1036, 1072
102, 989, 1083, 1005, 1287
103, 989, 1005, 1088, 1287
104, 462, 1038, 567, 1177
105, 1039, 1178, 238, 1226
106, 242, 241, 1204, 1228
107, 498, 1069, 496, 1307
108, 1029, 319, 1226, 1280
109, 949, 336, 1080, 1105
110, 990, 1051, 1007, 1164
111, 992, 1081, 1090, 1143
112, 197, 843, 1046, 1104
113, 538, 1085, 1055, 1176
114, 209, 1136, 1087, 1165
115, 242, 241, 240, 1204
116, 202, 735, 719, 1066
117, 983, 1015, 1012, 1060
118, 817, 317, 1074, 1189
119, 982, 1014, 1013, 1061
120, 721, 187, 749, 1035
121, 993, 1043, 1138, 1285
122, 1004, 1043, 1016, 1285
123, 801, 1131, 1072, 1155
124, 197, 376, 375, 1046
125, 1017, 1039, 981, 1080
126, 992, 1081, 1143, 1341
127, 1004, 993, 1050, 1325
128, 498, 1062, 497, 1069
129, 986, 1015, 1023, 1079
130, 720, 449, 753, 1038
131, 713, 1082, 1036, 1318
132, 817, 1189, 788, 1279
133, 541, 1048, 646, 1154
134, 713, 1036, 597, 1318
135, 1004, 1138, 993, 1325
136, 599, 715, 792, 1032
137, 474, 1094, 1063, 1161
138, 993, 1004, 1050, 1119
139, 990, 1189, 1027, 1323
140, 615, 1052, 1079, 1150
141, 940, 1078, 935, 1290
142, 538, 1055, 1167, 1176
143, 216, 218, 217, 1040
144, 598, 1007, 537, 1230
145, 1091, 1140, 575, 1213
146, 216, 1040, 217, 1084
147, 837, 427, 435, 1106
148, 697, 838, 690, 1107
149, 1007, 1027, 1189, 1323
150, 207, 1087, 1246, 1332
151, 571, 1157, 1038, 1177
152, 239, 238, 1178, 1226
153, 482, 1037, 481, 1079
154, 616, 672, 685, 1034
155, 422, 349, 409, 1033
156, 712, 1027, 1189, 1279
157, 709, 581, 789, 1111
158, 187, 749, 1035, 1125
159, 1029, 1114, 319, 1280
160, 792, 724, 454, 1089
161, 288, 1041, 202, 1066
162, 462, 571, 567, 1038
163, 462, 1177, 1083, 1324
164, 889, 568, 1110, 1248
165, 981, 1039, 1062, 1251
166, 1010, 1024, 983, 1098
167, 1011, 1026, 982, 1097
168, 615, 1079, 481, 1150
169, 616, 441, 672, 1034
170, 409, 349, 178, 1033
171, 376, 375, 1046, 1338
172, 240, 1039, 241, 1178
173, 1060, 1103, 451, 1311
174, 1061, 1104, 189, 1312
175, 627, 1098, 552, 1115
176, 598, 1082, 1007, 1230
177, 290, 364, 1097, 1116
178, 722, 466, 739, 1067
179, 575, 1091, 592, 1140
180, 900, 1174, 1093, 1203
181, 569, 889, 568, 1110
182, 237, 1029, 319, 1226
183, 454, 599, 792, 1032
184, 598, 1007, 1082, 1163
185, 420, 1115, 1024, 1253
186, 986, 1079, 1023, 1306
187, 683, 1116, 1026, 1254
188, 753, 1038, 449, 1124
189, 461, 713, 793, 1036
190, 550, 1042, 1067, 1197
191, 1081, 1302, 1143, 1341
192, 575, 1213, 1140, 1295
193, 1008, 1056, 1240, 1315
194, 1008, 1056, 1048, 1240
195, 481, 1079, 1037, 1150
196, 516, 1090, 518, 1143
197, 735, 1041, 743, 1066
198, 1027, 1175, 293, 1289
199, 709, 444, 581, 1111
200, 202, 719, 295, 1066
201, 889, 569, 858, 1110
202, 610, 1048, 541, 1153
203, 1029, 1108, 353, 1212
204, 1007, 1051, 1025, 1163
205, 1005, 989, 1088, 1147
206, 187, 721, 302, 1035
207, 533, 1017, 1062, 1173
208, 773, 444, 709, 1113
209, 910, 184, 856, 1031
210, 1027, 1171, 293, 1175
211, 713, 597, 1082, 1318
212, 533, 1062, 1017, 1192
213, 179, 1049, 805, 1136
214, 502, 1050, 1192, 1209
215, 1090, 1143, 1045, 1255
216, 418, 1135, 1206, 1253
217, 681, 1137, 1207, 1254
218, 319, 1029, 353, 1114
219, 480, 482, 481, 1079
220, 449, 720, 567, 1038
221, 1151, 1217, 1080, 1281
222, 481, 1037, 482, 1150
223, 706, 806, 442, 1052
224, 480, 1037, 482, 1079
225, 1071, 1167, 992, 1271
226, 498, 1173, 1062, 1307
227, 531, 613, 476, 1311
228, 455, 1132, 848, 1233
229, 759, 1036, 713, 1082
230, 346, 212, 267, 1312
231, 646, 541, 610, 1048
232, 817, 1074, 788, 1189
233, 788, 1189, 1074, 1279
234, 714, 186, 1021, 1129
235, 627, 542, 552, 1098
236, 410, 432, 423, 1024
237, 686, 673, 695, 1026
238, 280, 290, 364, 1097
239, 827, 801, 795, 1072
240, 561, 1036, 461, 1131
241, 497, 1069, 1062, 1181
242, 983, 1024, 1010, 1218
243, 594, 454, 724, 1089
244, 856, 184, 314, 1031
245, 1078, 1146, 940, 1205
246, 982, 1026, 1011, 1219
247, 253, 1223, 1019, 1234
248, 615, 479, 481, 1079
249, 473, 1094, 474, 1161
250, 498, 497, 496, 1069
251, 1054, 1120, 528, 1127
252, 550, 1042, 466, 1067
253, 1016, 1043, 1004, 1236
254, 775, 1018, 709, 1111
255, 1004, 1016, 1119, 1285
256, 1143, 1302, 1005, 1341
257, 982, 1120, 1014, 1274
258, 983, 1121, 1015, 1273
259, 237, 1226, 319, 1280
260, 706, 1052, 442, 1131
261, 1071, 1271, 992, 1328
262, 744, 739, 1042, 1067
263, 1053, 1121, 264, 1126
264, 432, 433, 418, 1135
265, 253, 1156, 1019, 1223
266, 695, 696, 681, 1137
267, 528, 1127, 1120, 1270
268, 466, 722, 558, 1067
269, 805, 1136, 1049, 1282
270, 1032, 1117, 557, 1144
271, 615, 1052, 479, 1079
272, 340, 192, 353, 1108
273, 518, 1045, 1143, 1255
274, 997, 1020, 1069, 1251
275, 264, 1126, 1121, 1272
276, 848, 1132, 1016, 1233
277, 217, 1084, 1040, 1198
278, 938, 189, 300, 1061
279, 885, 303, 1122, 1247
280, 937, 451, 565, 1060
281, 1056, 1153, 1048, 1240
282, 991, 1017, 1075, 1281
283, 712, 194, 317, 1189
284, 797, 1083, 462, 1177
285, 717, 1195, 1074, 1223
286, 773, 595, 444, 1113
287, 557, 1032, 608, 1117
288, 1008, 1056, 981, 1297
289, 1009, 1020, 1070, 1171
290, 712, 1027, 194, 1189
291, 476, 1063, 1015, 1161
292, 489, 1163, 1051, 1164
293, 990, 1189, 1025, 1289
294, 455, 1016, 1132, 1233
295, 1009, 1140, 1091, 1213
296, 1025, 996, 1163, 1231
297, 732, 1107, 207, 1246
298, 612, 706, 442, 1131
299, 843, 1046, 1104, 1205
300, 458, 1086, 893, 1262
301, 296, 1064, 210, 1087
302, 304, 885, 303, 1122
303, 197, 933, 333, 1046
304, 568, 664, 1110, 1248
305, 1036, 1082, 759, 1195
306, 774, 709, 1018, 1113
307, 582, 1111, 1071, 1222
308, 185, 1076, 854, 1093
309, 1153, 1240, 1056, 1315
310, 432, 418, 1024, 1135
311, 695, 681, 1026, 1137
312, 371, 1080, 336, 1105
313, 212, 1064, 1014, 1165
314, 1040, 1084, 216, 1169
315, 502, 1192, 644, 1209
316, 360, 735, 202, 1041
317, 295, 1066, 719, 1125
318, 186, 714, 1021, 1133
319, 179, 805, 299, 1136
320, 1012, 1060, 1015, 1316
321, 504, 1050, 1119, 1139
322, 360, 734, 735, 1041
323, 1013, 1061, 1014, 1317
324, 530, 1030, 1071, 1191
325, 837, 435, 656, 1106
326, 697, 393, 838, 1107
327, 615, 612, 1052, 1131
328, 1045, 1143, 1090, 1302
329, 1037, 1079, 480, 1183
330, 885, 304, 859, 1122
331, 758, 759, 713, 1082
332, 850, 458, 893, 1262
333, 1066, 1094, 738, 1202
334, 712, 317, 817, 1189
335, 1039, 1080, 382, 1204
336, 758, 759, 1082, 1195
337, 504, 1119, 506, 1139
338, 532, 1048, 1153, 1186
339, 1025, 1163, 1051, 1231
340, 1078, 1110, 446, 1329
341, 300, 1061, 367, 1097
342, 565, 1060, 629, 1098
343, 418, 1024, 1135, 1253
344, 681, 1026, 1137, 1254
345, 991, 1075, 1031, 1281
346, 715, 1032, 599, 1144
347, 1009, 1140, 1213, 1295
348, 913, 1016, 848, 1132
349, 502, 1050, 1117, 1192
350, 827, 1072, 1036, 1195
351, 217, 1040, 218, 1147
352, 477, 1079, 1015, 1183
353, 913, 914, 848, 1016
354, 1039, 1204, 1228, 1251
355, 615, 612, 442, 1052
356, 940, 1146, 1078, 1290
357, 987, 1014, 1022, 1337
358, 890, 889, 1110, 1248
359, 1025, 1074, 996, 1339
360, 1055, 1085, 1006, 1265
361, 482, 1037, 480, 1183
362, 737, 1066, 738, 1202
363, 213, 1084, 1014, 1169
364, 444, 1018, 596, 1111
365, 453, 757, 1082, 1230
366, 1085, 1184, 1006, 1265
367, 423, 1024, 420, 1115
368, 502, 1050, 503, 1117
369, 686, 1026, 683, 1116
370, 440, 423, 632, 1024
371, 296, 210, 208, 1087
372, 558, 1067, 722, 1124
373, 296, 1064, 1087, 1332
374, 471, 1199, 1106, 1200
375, 1043, 1118, 1004, 1236
376, 557, 1144, 1117, 1278
377, 471, 747, 467, 1106
378, 207, 745, 204, 1107
379, 1031, 1217, 1151, 1281
380, 556, 1018, 444, 1113
381, 634, 1016, 653, 1119
382, 1072, 1195, 812, 1223
383, 217, 1040, 1147, 1198
384, 269, 1070, 1108, 1178
385, 457, 1111, 582, 1222
386, 775, 709, 789, 1111
387, 1020, 1140, 990, 1323
388, 461, 1036, 793, 1131
389, 996, 1074, 1007, 1298
390, 934, 940, 1146, 1205
391, 498, 642, 1173, 1307
392, 1008, 981, 1056, 1315
393, 532, 1153, 490, 1186
394, 1009, 1140, 1020, 1323
395, 949, 1080, 897, 1105
396, 269, 1070, 341, 1108
397, 732, 207, 1087, 1246
398, 997, 1069, 1009, 1295
399, 488, 1163, 1059, 1186
400, 1110, 1248, 1013, 1250
401, 1040, 1045, 989, 1337
402, 987, 1022, 1014, 1317
403, 797, 727, 462, 1083
404, 1040, 1330, 1045, 1337
405, 319, 353, 192, 1114
406, 569, 568, 664, 1110
407, 997, 1009, 1089, 1295
408, 986, 1023, 1015, 1316
409, 1024, 1206, 1135, 1253
410, 587, 458, 850, 1262
411, 1026, 1207, 1137, 1254
412, 179, 348, 345, 1049
413, 717, 812, 1195, 1223
414, 714, 778, 186, 1129
415, 1022, 1120, 1014, 1317
416, 206, 1041, 411, 1294
417, 320, 1028, 822, 1102
418, 615, 1131, 1052, 1150
419, 470, 1042, 676, 1293
420, 1056, 1086, 981, 1297
421, 1070, 1171, 1020, 1228
422, 1029, 1178, 1039, 1226
423, 1023, 1121, 1015, 1316
424, 254, 1068, 1019, 1156
425, 198, 800, 1087, 1136
426, 1009, 1070, 997, 1340
427, 488, 1051, 1163, 1186
428, 913, 1016, 1132, 1236
429, 934, 1146, 1046, 1205
430, 561, 1036, 1131, 1150
431, 999, 1058, 1018, 1277
432, 1021, 1071, 1030, 1341
433, 1020, 990, 1140, 1315
434, 218, 1040, 216, 1169
435, 1021, 1328, 1071, 1341
436, 990, 1027, 1189, 1289
437, 532, 1048, 610, 1153
438, 192, 821, 1114, 1212
439, 268, 1130, 1268, 1303
440, 517, 518, 1045, 1143
441, 331, 936, 182, 1077
442, 778, 328, 186, 1129
443, 583, 445, 957, 1095
444, 179, 1049, 345, 1284
445, 992, 1055, 1201, 1265
446, 990, 1240, 1153, 1315
447, 486, 1123, 1059, 1163
448, 188, 1072, 812, 1223
449, 320, 822, 183, 1102
450, 527, 1120, 1054, 1179
451, 890, 1248, 1110, 1250
452, 263, 1121, 1053, 1180
453, 269, 1070, 1178, 1228
454, 348, 345, 1049, 1284
455, 1045, 573, 1208, 1324
456, 621, 1034, 616, 1197
457, 358, 1033, 349, 1196
458, 1071, 1111, 582, 1277
459, 1013, 1110, 664, 1248
460, 253, 1019, 255, 1234
461, 503, 1117, 1050, 1278
462, 410, 432, 1024, 1135
463, 673, 695, 1026, 1137
464, 1006, 1085, 1055, 1141
465, 486, 485, 1123, 1163
466, 732, 207, 198, 1087
467, 983, 1098, 1024, 1168
468, 982, 1097, 1026, 1170
469, 382, 1080, 1039, 1151
470, 530, 1143, 1030, 1191
471, 630, 1086, 1056, 1154
472, 1045, 1005, 1143, 1302
473, 477, 1183, 1015, 1311
474, 996, 1007, 1082, 1298
475, 630, 1056, 541, 1154
476, 1173, 1251, 1062, 1307
477, 1025, 250, 1156, 1162
478, 198, 800, 732, 1087
479, 886, 885, 1122, 1247
480, 184, 1031, 910, 1217
481, 538, 655, 1055, 1085
482, 992, 1055, 1090, 1201
483, 994, 1094, 1066, 1202
484, 634, 1016, 1119, 1132
485, 1081, 1005, 1302, 1341
486, 303, 401, 1122, 1247
487, 914, 1016, 913, 1236
488, 815, 183, 822, 1102
489, 1022, 1185, 1120, 1317
490, 381, 226, 1130, 1172
491, 527, 1179, 1054, 1301
492, 1059, 1163, 1051, 1186
493, 455, 1016, 634, 1132
494, 208, 296, 1087, 1332
495, 1018, 1058, 999, 1235
496, 608, 1032, 557, 1144
497, 517, 516, 518, 1143
498, 504, 506, 505, 1139
499, 1009, 997, 1089, 1340
500, 856, 1031, 314, 1148
501, 1023, 1187, 1121, 1316
502, 721, 749, 750, 1035
503, 283, 265, 1126, 1196
504, 998, 1073, 1046, 1166
505, 545, 529, 1127, 1197
506, 320, 1028, 271, 1114
507, 1055, 1167, 992, 1191
508, 537, 1007, 1164, 1230
509, 181, 849, 917, 1073
510, 1090, 1188, 518, 1255
511, 238, 1151, 1039, 1226
512, 714, 1021, 782, 1129
513, 769, 1212, 1144, 1269
514, 1080, 1149, 1017, 1281
515, 1009, 1069, 1020, 1140
516, 250, 1162, 1025, 1289
517, 1016, 1043, 985, 1285
518, 1004, 1118, 1043, 1138
519, 948, 464, 1047, 1290
520, 435, 427, 413, 1106
521, 697, 690, 674, 1107
522, 474, 1063, 1094, 1200
523, 1007, 996, 1082, 1163
524, 1045, 1092, 989, 1337
525, 1055, 1085, 985, 1176
526, 554, 571, 462, 1324
527, 263, 1180, 1053, 1299
528, 375, 1169, 1104, 1338
529, 268, 366, 1130, 1303
530, 409, 417, 422, 1033
531, 685, 672, 680, 1034
532, 854, 1076, 900, 1093
533, 508, 1119, 1058, 1300
534, 792, 724, 1089, 1276
535, 897, 1105, 1080, 1149
536, 554, 462, 1083, 1324
537, 181, 917, 322, 1073
538, 1056, 1008, 1154, 1297
539, 591, 729, 757, 1230
540, 720, 753, 754, 1038
541, 1045, 1330, 1092, 1337
542, 1043, 1065, 384, 1118
543, 1053, 1126, 265, 1196
544, 985, 1176, 1085, 1283
545, 933, 333, 1046, 1229
546, 1054, 1127, 529, 1197
547, 992, 1167, 1071, 1191
548, 446, 1078, 637, 1290
549, 1043, 1118, 270, 1138
550, 250, 248, 1162, 1289
551, 1055, 1085, 655, 1141
552, 533, 1062, 498, 1173
553, 486, 1059, 488, 1163
554, 222, 1134, 1081, 1268
555, 775, 1018, 1111, 1260
556, 992, 1271, 1265, 1328
557, 483, 1037, 482, 1123
558, 314, 184, 368, 1031
559, 490, 1153, 1051, 1186
560, 213, 1169, 1014, 1312
561, 1014, 1084, 987, 1169
562, 985, 1016, 1176, 1283
563, 1025, 1156, 250, 1339
564, 524, 525, 1022, 1120
565, 1029, 1039, 991, 1226
566, 1057, 1130, 226, 1172
567, 261, 1023, 260, 1121
568, 717, 188, 812, 1223
569, 637, 1078, 446, 1329
570, 787, 1082, 757, 1230
571, 444, 596, 581, 1111
572, 283, 1126, 1033, 1196
573, 1048, 1056, 1008, 1154
574, 385, 270, 1118, 1138
575, 545, 1127, 1034, 1197
576, 774, 773, 709, 1113
577, 561, 1131, 615, 1150
578, 542, 1024, 1168, 1258
579, 1005, 1083, 1045, 1208
580, 1113, 1018, 1308, 1310
581, 1051, 1163, 1007, 1164
582, 455, 577, 634, 1016
583, 998, 1090, 1045, 1255
584, 623, 883, 465, 1098
585, 1071, 1328, 992, 1341
586, 987, 1084, 1014, 1337
587, 483, 482, 1037, 1150
588, 201, 359, 881, 1097
589, 288, 1066, 287, 1196
590, 989, 1147, 1045, 1302
591, 453, 591, 757, 1230
592, 1006, 1055, 1201, 1304
593, 1016, 1043, 1118, 1283
594, 334, 949, 1080, 1217
595, 848, 1016, 914, 1233
596, 717, 1074, 356, 1223
597, 1024, 1206, 1033, 1218
598, 334, 949, 336, 1080
599, 1026, 1207, 1034, 1219
600, 1065, 1118, 1043, 1283
601, 1056, 1154, 1086, 1297
602, 971, 1149, 1080, 1281
603, 854, 185, 898, 1076
604, 440, 410, 423, 1024
605, 1044, 993, 1138, 1325
606, 743, 1066, 1041, 1199
607, 998, 1090, 1081, 1302
608, 313, 898, 185, 1076
609, 1014, 1061, 982, 1170
610, 634, 577, 653, 1016
611, 1015, 1060, 983, 1168
612, 1069, 1062, 1251, 1307
613, 1006, 1201, 1055, 1265
614, 1024, 1098, 1010, 1115
615, 1026, 1097, 1011, 1116
616, 561, 461, 612, 1131
617, 269, 342, 1070, 1228
618, 332, 185, 854, 1093
619, 508, 1058, 1119, 1176
620, 197, 333, 376, 1046
621, 750, 1035, 749, 1125
622, 1014, 1084, 1022, 1337
623, 1113, 1139, 1018, 1310
624, 854, 905, 332, 1093
625, 985, 1184, 1085, 1265
626, 1005, 1045, 1147, 1302
627, 432, 420, 1024, 1253
628, 683, 1026, 695, 1254
629, 497, 1062, 498, 1181
630, 482, 1123, 1037, 1194
631, 806, 442, 1052, 1249
632, 1024, 1000, 1206, 1218
633, 1026, 1001, 1207, 1219
634, 254, 1019, 253, 1156
635, 601, 451, 944, 1103
636, 197, 843, 933, 1046
637, 1012, 1122, 401, 1247
638, 729, 787, 757, 1230
639, 247, 293, 1175, 1289
640, 483, 1037, 1123, 1150
641, 189, 943, 330, 1104
642, 805, 1049, 179, 1284
643, 936, 182, 1077, 1122
644, 422, 421, 1041, 1206
645, 453, 1082, 598, 1230
646, 684, 1042, 685, 1207
647, 989, 1045, 1040, 1302
648, 461, 611, 597, 1036
649, 658, 606, 464, 1047
650, 653, 1119, 1016, 1176
651, 847, 1104, 1061, 1250
652, 378, 1166, 1073, 1268
653, 991, 1039, 1029, 1309
654, 822, 1028, 320, 1114
655, 1017, 1149, 896, 1281
656, 269, 342, 341, 1070
657, 905, 200, 332, 1093
658, 1046, 1073, 998, 1146
659, 847, 189, 1061, 1104
660, 846, 451, 1060, 1103
661, 422, 1033, 417, 1206
662, 685, 1034, 680, 1207
663, 220, 218, 1040, 1147
664, 421, 411, 422, 1041
665, 676, 685, 684, 1042
666, 715, 771, 792, 1032
667, 1046, 1166, 1073, 1229
668, 1025, 1007, 1074, 1189
669, 615, 561, 612, 1131
670, 294, 1021, 186, 1129
671, 1094, 1199, 471, 1200
672, 215, 1049, 350, 1165
673, 1014, 1084, 213, 1165
674, 1018, 774, 1113, 1308
675, 1082, 1230, 787, 1298
676, 595, 556, 444, 1113
677, 286, 1026, 280, 1170
678, 215, 1084, 1049, 1165
679, 592, 1140, 1091, 1164
680, 754, 1038, 753, 1124
681, 655, 609, 1055, 1141
682, 998, 1045, 1090, 1302
683, 1048, 1076, 1008, 1240
684, 1099, 1271, 1172, 1285
685, 883, 1098, 623, 1115
686, 1069, 997, 1181, 1295
687, 423, 432, 420, 1024
688, 1015, 1079, 986, 1183
689, 686, 695, 683, 1026
690, 1008, 1145, 981, 1315
691, 293, 1189, 1027, 1289
692, 1055, 985, 1167, 1176
693, 302, 1035, 721, 1155
694, 881, 1097, 359, 1116
695, 476, 474, 1063, 1161
696, 987, 1169, 1084, 1337
697, 287, 1196, 1066, 1299
698, 1089, 1181, 997, 1295
699, 1005, 1045, 1143, 1208
700, 464, 1188, 1047, 1290
701, 538, 1167, 510, 1176
702, 288, 202, 287, 1066
703, 981, 1008, 1105, 1145
704, 500, 499, 1062, 1117
705, 482, 484, 1123, 1194
706, 649, 1017, 533, 1173
707, 1019, 1068, 254, 1216
708, 394, 1076, 185, 1093
709, 988, 1019, 1037, 1261
710, 1172, 1271, 985, 1285
711, 936, 331, 862, 1077
712, 1029, 1032, 1003, 1320
713, 727, 572, 462, 1083
714, 230, 1043, 232, 1193
715, 573, 1045, 519, 1324
716, 981, 1062, 1173, 1251
717, 490, 532, 610, 1153
718, 954, 1118, 1065, 1283
719, 591, 453, 598, 1230
720, 385, 1138, 1118, 1148
721, 242, 1204, 1020, 1228
722, 1022, 1120, 525, 1179
723, 235, 1226, 237, 1280
724, 736, 719, 735, 1066
725, 365, 1073, 378, 1166
726, 717, 356, 188, 1223
727, 461, 793, 612, 1131
728, 555, 582, 1111, 1277
729, 261, 1023, 1121, 1180
730, 573, 517, 519, 1045
731, 440, 410, 1024, 1135
732, 220, 1040, 218, 1166
733, 473, 1094, 1161, 1249
734, 673, 1026, 177, 1137
735, 217, 218, 219, 1147
736, 261, 1121, 263, 1180
737, 304, 303, 401, 1122
738, 609, 538, 655, 1055
739, 900, 1093, 1076, 1203
740, 1081, 1090, 998, 1201
741, 527, 525, 1120, 1179
742, 1008, 981, 1105, 1297
743, 577, 653, 1016, 1176
744, 1017, 1062, 991, 1192
745, 1040, 220, 1147, 1166
746, 341, 1070, 811, 1108
747, 1090, 1201, 1055, 1304
748, 207, 732, 745, 1107
749, 1003, 1032, 1029, 1212
750, 253, 254, 255, 1019
751, 1085, 1141, 1006, 1184
752, 1025, 1051, 990, 1240
753, 631, 533, 649, 1017
754, 578, 1085, 863, 1141
755, 530, 1071, 1030, 1222
756, 618, 471, 1106, 1200
757, 988, 1072, 1036, 1131
758, 982, 1120, 1054, 1127
759, 244, 1020, 242, 1145
760, 878, 1061, 938, 1097
761, 874, 1060, 937, 1098
762, 894, 1086, 1149, 1262
763, 1065, 985, 1184, 1283
764, 1015, 1079, 477, 1161
765, 1033, 1206, 1024, 1253
766, 1034, 1207, 1026, 1254
767, 1014, 1170, 982, 1274
768, 592, 1091, 575, 1213
769, 454, 594, 619, 1089
770, 230, 1099, 1043, 1193
771, 990, 1164, 1007, 1323
772, 1015, 1168, 983, 1273
773, 577, 1016, 455, 1233
774, 476, 1015, 477, 1161
775, 1028, 271, 1114, 1280
776, 1029, 1280, 1226, 1320
777, 515, 1143, 530, 1191
778, 1081, 1201, 1166, 1268
779, 224, 223, 222, 1160
780, 827, 1036, 759, 1195
781, 1024, 1000, 1135, 1206
782, 597, 1036, 611, 1318
783, 1026, 1001, 1137, 1207
784, 242, 1145, 1020, 1204
785, 1104, 1169, 1046, 1338
786, 220, 1081, 221, 1147
787, 432, 1024, 418, 1253
788, 445, 1142, 1095, 1264
789, 681, 695, 1026, 1254
790, 983, 1121, 1053, 1126
791, 329, 186, 1021, 1133
792, 479, 1079, 1052, 1161
793, 822, 1102, 1028, 1308
794, 1050, 1075, 991, 1192
795, 265, 1053, 264, 1126
796, 508, 506, 1119, 1300
797, 380, 1268, 1182, 1303
798, 343, 392, 1076, 1109
799, 531, 1168, 1060, 1311
800, 528, 529, 1054, 1127
801, 1029, 1108, 1032, 1309
802, 267, 1170, 1061, 1312
803, 344, 385, 386, 1138
804, 1029, 1309, 1032, 1320
805, 348, 1198, 345, 1284
806, 503, 1050, 504, 1139
807, 212, 1014, 213, 1165
808, 528, 1054, 527, 1120
809, 858, 890, 889, 1110
810, 759, 827, 795, 1036
811, 382, 240, 1039, 1204
812, 1020, 1140, 1069, 1315
813, 286, 1026, 1170, 1256
814, 1028, 1308, 1018, 1310
815, 533, 1017, 631, 1192
816, 822, 815, 1102, 1308
817, 561, 611, 461, 1036
818, 988, 1037, 1019, 1306
819, 264, 1053, 263, 1121
820, 1032, 1108, 1029, 1212
821, 1046, 1104, 987, 1169
822, 783, 1021, 714, 1133
823, 1029, 1114, 1280, 1320
824, 293, 1171, 245, 1175
825, 385, 386, 1138, 1148
826, 1018, 1277, 1058, 1300
827, 862, 1077, 331, 1128
828, 1046, 1146, 1078, 1205
829, 337, 384, 1065, 1118
830, 1085, 1184, 985, 1283
831, 1020, 1228, 1204, 1251
832, 991, 1075, 1050, 1325
833, 1130, 1006, 1268, 1303
834, 1032, 1108, 997, 1309
835, 999, 1018, 1111, 1277
836, 1063, 1161, 1094, 1291
837, 926, 1065, 190, 1303
838, 371, 1080, 1105, 1204
839, 210, 1064, 212, 1165
840, 1022, 1092, 522, 1185
841, 278, 1012, 401, 1247
842, 540, 1013, 664, 1248
843, 1012, 1015, 1121, 1316
844, 1039, 1228, 1178, 1251
845, 239, 1178, 1029, 1226
846, 1061, 1170, 1014, 1312
847, 1060, 1168, 1015, 1311
848, 1020, 1171, 1009, 1323
849, 1171, 1175, 1027, 1323
850, 261, 262, 263, 1121
851, 1013, 1014, 1120, 1317
852, 188, 307, 812, 1072
853, 1064, 1087, 995, 1165
854, 235, 237, 319, 1280
855, 1075, 1192, 1050, 1209
856, 656, 435, 413, 1106
857, 393, 697, 674, 1107
858, 769, 771, 1144, 1212
859, 542, 548, 1024, 1258
860, 527, 525, 526, 1120
861, 1041, 1000, 1106, 1199
862, 522, 1092, 1022, 1157
863, 226, 1130, 1057, 1134
864, 1081, 1147, 220, 1166
865, 1032, 1117, 1003, 1320
866, 1094, 1161, 994, 1291
867, 1314, 1326, 1171, 1340
868, 274, 1102, 1133, 1220
869, 987, 1104, 1046, 1205
870, 1120, 1127, 982, 1270
871, 1030, 1071, 992, 1341
872, 1032, 1309, 1117, 1320
873, 999, 1058, 1099, 1235
874, 658, 1047, 464, 1188
875, 682, 1137, 691, 1207
876, 988, 1037, 1150, 1261
877, 419, 1135, 428, 1206
878, 353, 1108, 1029, 1178
879, 479, 1052, 617, 1161
880, 862, 1077, 1128, 1245
881, 253, 255, 1223, 1234
882, 740, 722, 739, 1067
883, 222, 374, 1134, 1268
884, 400, 278, 401, 1247
885, 971, 896, 1149, 1281
886, 186, 791, 714, 1133
887, 1006, 1184, 1141, 1286
888, 663, 540, 664, 1248
889, 506, 1139, 1119, 1300
890, 1063, 994, 1161, 1291
891, 296, 1256, 1064, 1332
892, 1030, 1071, 1021, 1333
893, 270, 1043, 384, 1118
894, 1056, 1086, 630, 1307
895, 499, 1062, 1117, 1181
896, 283, 265, 264, 1126
897, 828, 1208, 1083, 1287
898, 222, 378, 374, 1268
899, 528, 545, 529, 1127
900, 382, 273, 240, 1204
901, 237, 353, 319, 1029
902, 1109, 1162, 248, 1289
903, 1121, 1126, 983, 1272
904, 528, 527, 526, 1120
905, 596, 1111, 1018, 1277
906, 810, 572, 1083, 1208
907, 1066, 1125, 295, 1299
908, 596, 1277, 1018, 1300
909, 191, 844, 311, 1105
910, 250, 1025, 249, 1289
911, 274, 1102, 354, 1133
912, 307, 725, 812, 1072
913, 1032, 1144, 771, 1212
914, 616, 621, 441, 1034
915, 178, 349, 358, 1033
916, 644, 1192, 1075, 1209
917, 230, 270, 232, 1043
918, 503, 504, 505, 1139
919, 1008, 1240, 1109, 1315
920, 797, 802, 1083, 1177
921, 714, 782, 778, 1129
922, 1176, 1233, 1085, 1283
923, 178, 409, 1033, 1158
924, 441, 672, 1034, 1159
925, 365, 1073, 1166, 1229
926, 264, 263, 262, 1121
927, 549, 550, 1067, 1197
928, 856, 952, 910, 1031
929, 483, 482, 484, 1123
930, 629, 1098, 1060, 1168
931, 367, 1097, 1061, 1170
932, 994, 1066, 1125, 1202
933, 302, 306, 1035, 1155
934, 1016, 1233, 1176, 1283
935, 985, 1085, 1055, 1265
936, 552, 632, 469, 1115
937, 440, 632, 552, 1024
938, 369, 205, 290, 1116
939, 1070, 1171, 1326, 1340
940, 369, 290, 177, 1026
941, 457, 555, 582, 1111
942, 942, 847, 1061, 1250
943, 244, 243, 242, 1020
944, 418, 1135, 433, 1206
945, 696, 681, 1137, 1207
946, 1044, 1050, 993, 1325
947, 1105, 1149, 930, 1297
948, 343, 275, 392, 1109
949, 738, 1094, 1066, 1199
950, 493, 575, 592, 1140
951, 471, 1094, 731, 1199
952, 645, 1048, 1186, 1257
953, 988, 1079, 1052, 1150
954, 608, 1117, 1032, 1181
955, 845, 1096, 459, 1103
956, 215, 1049, 1084, 1198
957, 382, 1080, 1151, 1217
958, 270, 232, 1043, 1138
959, 226, 381, 228, 1172
960, 965, 1238, 1098, 1336
961, 574, 1188, 1090, 1304
962, 964, 1237, 1097, 1335
963, 378, 365, 323, 1073
964, 983, 1010, 1126, 1218
965, 982, 1011, 1127, 1219
966, 992, 1090, 1081, 1201
967, 645, 1186, 643, 1257
968, 1023, 1079, 1015, 1239
969, 533, 498, 642, 1173
970, 633, 531, 629, 1060
971, 1072, 1131, 988, 1155
972, 1045, 1040, 1302, 1330
973, 1028, 1114, 822, 1269
974, 370, 267, 367, 1061
975, 348, 1049, 1198, 1284
976, 654, 1085, 538, 1176
977, 744, 1067, 1042, 1246
978, 936, 1077, 887, 1122
979, 209, 208, 210, 1087
980, 898, 1076, 313, 1215
981, 1057, 1265, 1271, 1328
982, 945, 191, 336, 1105
983, 691, 1137, 1107, 1207
984, 629, 1060, 531, 1168
985, 757, 713, 453, 1082
986, 428, 1135, 1106, 1206
987, 664, 1013, 540, 1185
988, 846, 1103, 1060, 1275
989, 267, 367, 1061, 1170
990, 459, 1096, 638, 1103
991, 258, 1112, 1023, 1152
992, 389, 1080, 382, 1217
993, 990, 1027, 1175, 1323
994, 897, 930, 1105, 1149
995, 993, 1099, 1058, 1235
996, 664, 1110, 1013, 1185
997, 606, 865, 464, 1047
998, 844, 311, 1105, 1215
999, 994, 1066, 1094, 1291
1000, 725, 1072, 307, 1155
1001, 1009, 1314, 1171, 1340
1002, 401, 1012, 278, 1187
1003, 549, 550, 466, 1067
1004, 992, 1071, 1030, 1191
1005, 643, 1186, 1095, 1257
1006, 373, 331, 1077, 1128
1007, 337, 339, 384, 1118
1008, 530, 1071, 513, 1191
1009, 792, 766, 724, 1276
1010, 606, 1047, 657, 1141
1011, 797, 802, 727, 1083
1012, 743, 1199, 1041, 1244
1013, 334, 866, 949, 1217
1014, 1076, 1109, 1008, 1240
1015, 1008, 1076, 1048, 1252
1016, 498, 496, 642, 1307
1017, 1015, 1183, 986, 1316
1018, 226, 228, 1057, 1172
1019, 503, 1050, 1139, 1278
1020, 775, 774, 709, 1018
1021, 949, 945, 336, 1105
1022, 343, 1109, 1076, 1162
1023, 893, 586, 906, 1086
1024, 981, 1251, 1173, 1307
1025, 368, 314, 1031, 1148
1026, 996, 1231, 1156, 1319
1027, 726, 1111, 457, 1222
1028, 193, 857, 297, 1100
1029, 456, 860, 562, 1101
1030, 244, 243, 1020, 1175
1031, 727, 810, 572, 1083
1032, 1016, 1118, 1043, 1236
1033, 1015, 1063, 1168, 1273
1034, 373, 396, 331, 1128
1035, 523, 522, 1022, 1157
1036, 1014, 1064, 1170, 1274
1037, 931, 602, 459, 1096
1038, 1076, 1093, 394, 1162
1039, 1041, 1066, 1000, 1199
1040, 769, 819, 1212, 1269
1041, 608, 499, 1117, 1181
1042, 1018, 1113, 556, 1139
1043, 268, 1130, 1134, 1268
1044, 300, 367, 201, 1097
1045, 631, 1017, 649, 1262
1046, 565, 629, 465, 1098
1047, 1022, 1084, 1014, 1232
1048, 606, 658, 657, 1047
1049, 793, 713, 759, 1036
1050, 492, 1056, 494, 1140
1051, 524, 1022, 522, 1185
1052, 806, 1052, 752, 1249
1053, 799, 1094, 460, 1249
1054, 350, 1049, 179, 1136
1055, 258, 1023, 259, 1152
1056, 260, 1023, 258, 1187
1057, 713, 597, 453, 1082
1058, 240, 1039, 238, 1151
1059, 1123, 1150, 1037, 1261
1060, 1017, 991, 1075, 1192
1061, 1182, 1268, 1006, 1303
1062, 322, 1073, 917, 1182
1063, 370, 300, 189, 1061
1064, 492, 1056, 1140, 1153
1065, 633, 565, 451, 1060
1066, 900, 902, 1174, 1203
1067, 1019, 996, 1156, 1319
1068, 254, 252, 1068, 1156
1069, 1073, 1166, 1201, 1268
1070, 395, 1068, 1093, 1128
1071, 247, 293, 245, 1175
1072, 593, 724, 761, 1089
1073, 1156, 1231, 1068, 1319
1074, 564, 799, 460, 1249
1075, 1014, 1169, 987, 1317
1076, 549, 1197, 1067, 1301
1077, 1058, 1235, 1018, 1300
1078, 258, 1023, 1112, 1187
1079, 410, 433, 432, 1135
1080, 673, 696, 695, 1137
1081, 650, 1075, 644, 1192
1082, 274, 321, 1102, 1220
1083, 739, 733, 744, 1042
1084, 743, 735, 734, 1041
1085, 631, 1192, 1017, 1242
1086, 1067, 1124, 558, 1301
1087, 1057, 992, 1265, 1328
1088, 345, 1198, 1088, 1284
1089, 325, 791, 186, 1133
1090, 712, 817, 788, 1279
1091, 207, 208, 198, 1087
1092, 586, 893, 458, 1086
1093, 334, 336, 389, 1080
1094, 378, 1073, 323, 1268
1095, 990, 1175, 1027, 1289
1096, 1039, 1151, 991, 1226
1097, 242, 1020, 243, 1228
1098, 618, 471, 467, 1106
1099, 207, 204, 351, 1107
1100, 859, 886, 885, 1122
1101, 857, 871, 297, 1100
1102, 875, 562, 860, 1101
1103, 368, 1151, 1031, 1217
1104, 1073, 1146, 1046, 1229
1105, 1028, 1018, 1235, 1310
1106, 1058, 1099, 993, 1285
1107, 1042, 1107, 1001, 1207
1108, 294, 186, 328, 1129
1109, 1041, 1106, 1000, 1206
1110, 999, 1099, 1058, 1271
1111, 599, 454, 608, 1032
1112, 645, 1048, 532, 1186
1113, 1010, 1224, 425, 1253
1114, 222, 374, 224, 1134
1115, 983, 1060, 1012, 1238
1116, 1011, 1225, 688, 1254
1117, 982, 1061, 1013, 1237
1118, 953, 578, 863, 1141
1119, 508, 1119, 653, 1176
1120, 1022, 1232, 1014, 1274
1121, 1040, 1046, 987, 1338
1122, 1003, 1144, 1212, 1269
1123, 578, 953, 448, 1141
1124, 338, 1130, 1065, 1172
1125, 538, 1055, 512, 1167
1126, 1071, 1190, 1021, 1333
1127, 441, 626, 672, 1159
1128, 720, 1038, 755, 1177
1129, 629, 565, 633, 1060
1130, 178, 363, 409, 1158
1131, 987, 1046, 1040, 1330
1132, 232, 1043, 1138, 1193
1133, 1032, 997, 1108, 1276
1134, 370, 367, 300, 1061
1135, 657, 1141, 1047, 1304
1136, 737, 736, 1066, 1125
1137, 607, 935, 446, 1290
1138, 1087, 1136, 995, 1165
1139, 1019, 1156, 1068, 1319
1140, 207, 1107, 351, 1332
1141, 401, 1122, 1012, 1187
1142, 386, 1138, 1148, 1214
1143, 998, 1188, 1090, 1255
1144, 737, 736, 738, 1066
1145, 827, 812, 1072, 1195
1146, 1025, 1162, 1109, 1289
1147, 485, 1123, 1163, 1318
1148, 473, 474, 475, 1161
1149, 230, 377, 270, 1172
1150, 715, 771, 1032, 1144
1151, 1024, 983, 1168, 1218
1152, 657, 1047, 658, 1304
1153, 678, 672, 626, 1159
1154, 415, 409, 363, 1158
1155, 373, 1128, 1077, 1216
1156, 987, 1185, 1022, 1317
1157, 1026, 982, 1170, 1219
1158, 187, 1035, 289, 1125
1159, 844, 1215, 1105, 1297
1160, 548, 552, 542, 1024
1161, 290, 280, 286, 1026
1162, 805, 708, 1136, 1282
1163, 1047, 1188, 658, 1304
1164, 377, 338, 1065, 1172
1165, 395, 1068, 281, 1093
1166, 707, 1202, 1094, 1249
1167, 486, 487, 485, 1163
1168, 1017, 1080, 981, 1149
1169, 1007, 1074, 1189, 1279
1170, 837, 823, 427, 1106
1171, 922, 1184, 1182, 1286
1172, 690, 838, 824, 1107
1173, 847, 189, 938, 1061
1174, 611, 1036, 561, 1150
1175, 1024, 1115, 1010, 1253
1176, 846, 451, 937, 1060
1177, 608, 499, 501, 1117
1178, 1006, 1201, 1047, 1304
1179, 1139, 1235, 1018, 1310
1180, 1026, 1116, 1011, 1254
1181, 500, 1117, 1062, 1192
1182, 230, 270, 1043, 1172
1183, 501, 557, 608, 1117
1184, 828, 810, 1083, 1208
1185, 541, 1056, 630, 1307
1186, 990, 1109, 1240, 1315
1187, 1037, 1183, 482, 1327
1188, 983, 1098, 1238, 1336
1189, 982, 1097, 1237, 1335
1190, 396, 1128, 373, 1216
1191, 986, 1187, 1023, 1316
1192, 449, 1038, 551, 1124
1193, 782, 1129, 1021, 1333
1194, 1007, 1074, 1279, 1298
1195, 1058, 1271, 1099, 1285
1196, 215, 348, 1049, 1198
1197, 1070, 1171, 180, 1326
1198, 585, 583, 957, 1095
1199, 726, 1190, 1111, 1222
1200, 260, 259, 258, 1023
1201, 486, 488, 1059, 1186
1202, 252, 1156, 250, 1162
1203, 302, 721, 798, 1155
1204, 524, 523, 522, 1022
1205, 1051, 1153, 1048, 1186
1206, 443, 723, 785, 1091
1207, 748, 743, 839, 1244
1208, 1127, 1219, 1011, 1254
1209, 1152, 1155, 292, 1234
1210, 1126, 1218, 1010, 1253
1211, 490, 489, 1051, 1164
1212, 1050, 991, 1117, 1192
1213, 776, 1102, 815, 1308
1214, 256, 255, 254, 1019
1215, 989, 1049, 1038, 1177
1216, 274, 321, 354, 1102
1217, 1042, 1001, 1107, 1246
1218, 368, 335, 1151, 1217
1219, 594, 724, 593, 1089
1220, 1013, 540, 1185, 1270
1221, 936, 939, 887, 1077
1222, 389, 336, 371, 1080
1223, 1106, 1135, 618, 1200
1224, 705, 805, 179, 1284
1225, 935, 940, 891, 1110
1226, 1071, 1222, 1190, 1333
1227, 631, 1242, 1017, 1262
1228, 240, 382, 1039, 1151
1229, 588, 1173, 1086, 1262
1230, 719, 1066, 736, 1125
1231, 982, 1013, 1120, 1270
1232, 307, 1072, 292, 1155
1233, 623, 1098, 627, 1115
1234, 359, 1097, 364, 1116
1235, 497, 1069, 1181, 1295
1236, 445, 1095, 584, 1264
1237, 983, 1012, 1121, 1272
1238, 1045, 1208, 1083, 1324
1239, 368, 1148, 1031, 1214
1240, 306, 1152, 1035, 1155
1241, 250, 249, 248, 1289
1242, 948, 464, 865, 1047
1243, 371, 389, 1080, 1204
1244, 308, 1223, 255, 1234
1245, 181, 849, 1073, 1229
1246, 771, 792, 1032, 1276
1247, 1052, 1202, 752, 1249
1248, 1010, 1098, 983, 1336
1249, 220, 219, 218, 1147
1250, 983, 1098, 1060, 1238
1251, 982, 1097, 1061, 1237
1252, 887, 1122, 1077, 1221
1253, 622, 1030, 530, 1143
1254, 262, 261, 260, 1121
1255, 472, 1094, 471, 1200
1256, 1011, 1097, 982, 1335
1257, 278, 1187, 1012, 1272
1258, 952, 910, 1031, 1217
1259, 1059, 1123, 486, 1194
1260, 740, 722, 1067, 1124
1261, 389, 382, 335, 1217
1262, 244, 245, 243, 1175
1263, 927, 200, 1093, 1128
1264, 256, 1019, 1112, 1234
1265, 179, 345, 705, 1284
1266, 345, 326, 794, 1088
1267, 736, 735, 743, 1066
1268, 1120, 1185, 540, 1270
1269, 988, 1019, 1234, 1306
1270, 623, 465, 627, 1098
1271, 524, 1120, 1022, 1185
1272, 1048, 1203, 1186, 1257
1273, 564, 442, 806, 1249
1274, 1186, 1203, 1095, 1257
1275, 201, 364, 359, 1097
1276, 983, 1010, 1100, 1126
1277, 425, 1210, 439, 1224
1278, 702, 688, 1211, 1225
1279, 249, 1025, 250, 1339
1280, 982, 1011, 1101, 1127
1281, 200, 905, 927, 1093
1282, 182, 1077, 1122, 1321
1283, 599, 1032, 608, 1144
1284, 1013, 1248, 877, 1250
1285, 302, 289, 187, 1035
1286, 1030, 1222, 1071, 1333
1287, 1026, 1219, 1170, 1256
1288, 1073, 1146, 918, 1286
1289, 504, 503, 502, 1050
1290, 430, 425, 1224, 1253
1291, 693, 688, 1225, 1254
1292, 416, 1033, 409, 1158
1293, 672, 679, 1034, 1159
1294, 940, 891, 1110, 1205
1295, 312, 1105, 1215, 1334
1296, 524, 526, 525, 1120
1297, 260, 1121, 1023, 1187
1298, 963, 1146, 940, 1290
1299, 856, 952, 1031, 1148
1300, 1004, 1119, 1016, 1132
1301, 215, 348, 350, 1049
1302, 1011, 1159, 688, 1225
1303, 425, 1010, 1158, 1224
1304, 531, 1060, 633, 1311
1305, 430, 1115, 420, 1253
1306, 992, 1030, 1143, 1191
1307, 386, 1148, 368, 1214
1308, 1074, 996, 1195, 1298
1309, 267, 1061, 370, 1312
1310, 683, 693, 1116, 1254
1311, 253, 255, 308, 1223
1312, 820, 1133, 1102, 1260
1313, 208, 1087, 207, 1332
1314, 1026, 1011, 1219, 1254
1315, 708, 299, 805, 1136
1316, 1024, 1010, 1218, 1253
1317, 311, 312, 1105, 1215
1318, 477, 535, 1183, 1311
1319, 487, 486, 488, 1163
1320, 811, 341, 180, 1070
1321, 647, 541, 630, 1307
1322, 1026, 286, 1137, 1256
1323, 256, 1019, 254, 1216
1324, 309, 1068, 395, 1128
1325, 700, 692, 978, 1116
1326, 306, 292, 1152, 1155
1327, 437, 429, 977, 1115
1328, 221, 1147, 1081, 1292
1329, 921, 922, 1182, 1286
1330, 1049, 1136, 350, 1165
1331, 278, 1121, 1187, 1272
1332, 252, 1068, 1156, 1162
1333, 631, 1075, 650, 1192
1334, 632, 423, 469, 1115
1335, 385, 344, 270, 1138
1336, 864, 935, 607, 1290
1337, 590, 443, 785, 1091
1338, 906, 1086, 586, 1154
1339, 638, 1103, 1096, 1183
1340, 476, 1063, 478, 1168
1341, 212, 1064, 214, 1170
1342, 567, 551, 449, 1038
1343, 1043, 1099, 230, 1172
1344, 417, 418, 1206, 1253
1345, 680, 681, 1207, 1254
1346, 331, 200, 862, 1128
1347, 988, 1036, 1072, 1261
1348, 742, 1087, 800, 1136
1349, 199, 798, 725, 1155
1350, 1082, 1195, 996, 1298
1351, 283, 1033, 358, 1196
1352, 180, 1070, 352, 1171
1353, 1112, 1234, 1019, 1306
1354, 545, 1034, 621, 1197
1355, 251, 250, 1156, 1339
1356, 1038, 1049, 989, 1232
1357, 808, 1070, 1326, 1340
1358, 318, 320, 271, 1114
1359, 209, 210, 211, 1165
1360, 700, 978, 403, 1116
1361, 437, 977, 666, 1115
1362, 240, 238, 382, 1151
1363, 293, 1027, 194, 1326
1364, 343, 1076, 394, 1162
1365, 1041, 1199, 1106, 1244
1366, 584, 445, 583, 1095
1367, 811, 340, 341, 1108
1368, 299, 350, 179, 1136
1369, 882, 1116, 980, 1225
1370, 979, 884, 1115, 1224
1371, 890, 877, 1248, 1250
1372, 474, 1094, 472, 1200
1373, 883, 867, 465, 1098
1374, 881, 868, 201, 1097
1375, 365, 1229, 1166, 1338
1376, 899, 900, 854, 1076
1377, 1062, 1069, 997, 1181
1378, 1099, 1172, 1043, 1285
1379, 256, 1112, 1019, 1216
1380, 999, 1102, 1099, 1220
1381, 318, 718, 320, 1114
1382, 1010, 983, 1100, 1336
1383, 993, 1050, 1044, 1310
1384, 999, 1099, 1102, 1235
1385, 1029, 997, 1108, 1309
1386, 1033, 1196, 1126, 1218
1387, 1011, 982, 1101, 1335
1388, 1035, 1052, 988, 1239
1389, 669, 621, 616, 1197
1390, 358, 349, 406, 1196
1391, 988, 1052, 1035, 1313
1392, 596, 444, 556, 1018
1393, 1034, 1197, 1127, 1219
1394, 1015, 1121, 1023, 1273
1395, 1170, 1219, 1064, 1256
1396, 504, 1119, 1050, 1209
1397, 1014, 1120, 1022, 1274
1398, 1054, 1179, 1120, 1274
1399, 1053, 1180, 1121, 1273
1400, 578, 655, 1085, 1141
1401, 1118, 1138, 1004, 1148
1402, 797, 720, 755, 1177
1403, 1023, 1239, 1015, 1273
1404, 519, 517, 518, 1045
1405, 360, 202, 288, 1041
1406, 466, 550, 624, 1042
1407, 728, 1030, 1208, 1288
1408, 440, 1135, 1024, 1258
1409, 1009, 1171, 1070, 1340
1410, 277, 1088, 345, 1198
1411, 894, 930, 1149, 1297
1412, 1126, 1196, 1053, 1218
1413, 1018, 1139, 556, 1300
1414, 386, 279, 1138, 1214
1415, 272, 1169, 213, 1312
1416, 884, 1224, 979, 1336
1417, 882, 1225, 980, 1335
1418, 198, 1087, 209, 1136
1419, 1127, 1197, 1054, 1219
1420, 268, 1130, 226, 1134
1421, 199, 725, 307, 1155
1422, 963, 934, 940, 1146
1423, 899, 900, 1076, 1203
1424, 256, 255, 1019, 1234
1425, 281, 1093, 1068, 1162
1426, 983, 1238, 1100, 1336
1427, 919, 1046, 1146, 1229
1428, 935, 858, 446, 1110
1429, 982, 1237, 1101, 1335
1430, 1003, 1117, 1032, 1144
1431, 546, 1127, 528, 1270
1432, 983, 1238, 1012, 1272
1433, 821, 1108, 730, 1212
1434, 774, 1018, 775, 1308
1435, 264, 284, 1126, 1272
1436, 1035, 1152, 289, 1180
1437, 982, 1237, 1013, 1270
1438, 331, 182, 373, 1077
1439, 208, 209, 198, 1087
1440, 877, 1237, 1013, 1250
1441, 225, 1134, 226, 1305
1442, 446, 1110, 570, 1329
1443, 649, 1017, 1173, 1262
1444, 810, 450, 572, 1208
1445, 714, 783, 782, 1021
1446, 446, 858, 569, 1110
1447, 226, 1134, 1057, 1305
1448, 1080, 1217, 971, 1281
1449, 1107, 1207, 1042, 1243
1450, 1106, 1206, 1041, 1244
1451, 490, 1051, 1153, 1164
1452, 1014, 1232, 1165, 1274
1453, 479, 615, 617, 1052
1454, 524, 525, 523, 1022
1455, 993, 1235, 1139, 1310
1456, 382, 1151, 335, 1217
1457, 294, 329, 186, 1021
1458, 484, 486, 1123, 1194
1459, 1040, 1169, 218, 1338
1460, 1166, 1229, 1046, 1338
1461, 191, 371, 336, 1105
1462, 259, 1152, 1023, 1180
1463, 1074, 1025, 1189, 1339
1464, 177, 1026, 286, 1137
1465, 259, 260, 261, 1023
1466, 234, 1044, 233, 1193
1467, 645, 532, 643, 1186
1468, 1013, 1185, 1120, 1270
1469, 551, 1124, 1038, 1179
1470, 1012, 1121, 1187, 1316
1471, 289, 1125, 1035, 1180
1472, 638, 1183, 1096, 1327
1473, 1013, 1120, 1185, 1317
1474, 1107, 1137, 357, 1332
1475, 563, 528, 526, 1270
1476, 744, 740, 739, 1067
1477, 1048, 1203, 1076, 1240
1478, 989, 1040, 1147, 1302
1479, 1069, 1251, 1020, 1315
1480, 1061, 1097, 878, 1237
1481, 793, 1036, 795, 1131
1482, 1060, 1098, 874, 1238
1483, 1013, 1237, 877, 1248
1484, 310, 271, 320, 1028
1485, 233, 1044, 234, 1280
1486, 942, 1061, 1237, 1250
1487, 337, 1065, 855, 1118
1488, 1041, 1000, 1066, 1196
1489, 180, 1171, 352, 1326
1490, 620, 1106, 424, 1135
1491, 357, 1107, 687, 1137
1492, 992, 1143, 1030, 1341
1493, 368, 1031, 1151, 1214
1494, 900, 903, 1093, 1174
1495, 493, 1140, 592, 1164
1496, 1159, 1211, 688, 1225
1497, 425, 1158, 1210, 1224
1498, 1055, 1141, 609, 1304
1499, 793, 706, 612, 1131
1500, 418, 433, 419, 1206
1501, 1006, 1047, 1141, 1304
1502, 696, 682, 681, 1207
1503, 755, 1177, 1038, 1282
1504, 751, 721, 1035, 1155
1505, 1090, 1143, 516, 1191
1506, 635, 451, 1103, 1311
1507, 534, 1181, 1089, 1295
1508, 1044, 1226, 1280, 1320
1509, 808, 1326, 1314, 1340
1510, 923, 1141, 1184, 1286
1511, 523, 1157, 1022, 1179
1512, 631, 1075, 1192, 1242
1513, 476, 475, 474, 1161
1514, 372, 189, 1104, 1312
1515, 1045, 1083, 989, 1324
1516, 445, 851, 1095, 1142
1517, 761, 593, 1089, 1213
1518, 371, 273, 389, 1204
1519, 302, 798, 199, 1155
1520, 494, 1069, 495, 1140
1521, 541, 494, 492, 1056
1522, 1031, 1148, 952, 1259
1523, 508, 507, 506, 1300
1524, 490, 491, 489, 1164
1525, 1019, 1234, 1223, 1261
1526, 1003, 1117, 1144, 1278
1527, 983, 1168, 1063, 1273
1528, 233, 1193, 1044, 1280
1529, 1019, 1037, 1261, 1319
1530, 530, 1030, 580, 1222
1531, 631, 604, 650, 1075
1532, 505, 1139, 506, 1300
1533, 329, 1133, 1021, 1305
1534, 796, 1177, 1284, 1287
1535, 982, 1170, 1064, 1274
1536, 1006, 1134, 1130, 1268
1537, 494, 1069, 1140, 1307
1538, 216, 1084, 213, 1169
1539, 353, 237, 239, 1029
1540, 182, 859, 304, 1122
1541, 1005, 1208, 1143, 1341
1542, 1012, 1187, 1121, 1272
1543, 395, 1093, 200, 1128
1544, 199, 307, 292, 1155
1545, 1088, 1284, 1177, 1287
1546, 936, 859, 182, 1122
1547, 1020, 997, 1228, 1251
1548, 1029, 1003, 1114, 1320
1549, 1091, 1140, 1009, 1323
1550, 1024, 1218, 1168, 1258
1551, 1069, 1140, 1056, 1315
1552, 368, 335, 387, 1151
1553, 1042, 1067, 1001, 1246
1554, 768, 595, 773, 1113
1555, 353, 1029, 239, 1178
1556, 939, 887, 1077, 1221
1557, 194, 316, 317, 1189
1558, 1072, 292, 1155, 1234
1559, 194, 1027, 712, 1326
1560, 239, 1029, 237, 1226
1561, 329, 325, 186, 1133
1562, 611, 1036, 1150, 1318
1563, 862, 1128, 929, 1245
1564, 523, 1022, 525, 1179
1565, 1038, 1157, 551, 1179
1566, 788, 1279, 1074, 1298
1567, 1006, 1141, 1055, 1304
1568, 1003, 1280, 1114, 1320
1569, 1050, 1117, 1003, 1278
1570, 1075, 1259, 1242, 1296
1571, 259, 1023, 261, 1180
1572, 1043, 1065, 985, 1172
1573, 530, 582, 1071, 1222
1574, 377, 338, 384, 1065
1575, 1016, 1236, 914, 1283
1576, 518, 519, 1045, 1255
1577, 1130, 1184, 985, 1265
1578, 376, 1046, 333, 1229
1579, 428, 1206, 1106, 1244
1580, 254, 1068, 309, 1216
1581, 691, 1207, 1107, 1243
1582, 801, 1072, 725, 1155
1583, 1114, 1212, 819, 1269
1584, 528, 1120, 526, 1270
1585, 477, 480, 1079, 1183
1586, 1046, 1229, 376, 1338
1587, 541, 1056, 492, 1153
1588, 1076, 1203, 984, 1240
1589, 644, 650, 604, 1075
1590, 1031, 1075, 991, 1325
1591, 500, 501, 499, 1117
1592, 365, 376, 1229, 1338
1593, 970, 1141, 1085, 1184
1594, 508, 510, 1058, 1176
1595, 931, 602, 1096, 1142
1596, 1057, 1134, 992, 1160
1597, 313, 185, 392, 1076
1598, 997, 1069, 1062, 1251
1599, 989, 1092, 1045, 1324
1600, 997, 1070, 1108, 1276
1601, 578, 448, 655, 1141
1602, 1052, 617, 1161, 1249
1603, 1053, 1066, 1000, 1196
1604, 522, 1185, 1092, 1329
1605, 417, 1206, 1033, 1253
1606, 742, 1087, 1136, 1227
1607, 680, 1207, 1034, 1254
1608, 180, 342, 352, 1070
1609, 740, 1124, 1067, 1227
1610, 209, 211, 350, 1165
1611, 736, 1066, 743, 1199
1612, 259, 289, 1152, 1180
1613, 905, 854, 900, 1093
1614, 981, 1149, 1105, 1297
1615, 934, 919, 1046, 1146
1616, 864, 940, 935, 1290
1617, 546, 1101, 662, 1266
1618, 399, 284, 1100, 1267
1619, 1052, 1131, 988, 1150
1620, 945, 949, 897, 1105
1621, 914, 1233, 1016, 1283
1622, 1085, 1176, 654, 1233
1623, 191, 945, 844, 1105
1624, 502, 1117, 500, 1192
1625, 939, 1077, 862, 1245
1626, 497, 1181, 534, 1295
1627, 840, 1243, 1107, 1246
1628, 1042, 1001, 1067, 1197
1629, 1080, 1105, 981, 1149
1630, 991, 1062, 1039, 1309
1631, 902, 1095, 1174, 1203
1632, 993, 1285, 1119, 1300
1633, 332, 394, 185, 1093
1634, 386, 368, 279, 1214
1635, 805, 1049, 756, 1282
1636, 502, 650, 644, 1192
1637, 934, 1046, 919, 1229
1638, 370, 1061, 189, 1312
1639, 515, 516, 1143, 1191
1640, 633, 1060, 451, 1311
1641, 855, 1065, 954, 1118
1642, 368, 1151, 387, 1214
1643, 394, 343, 392, 1076
1644, 1047, 1141, 950, 1286
1645, 610, 532, 645, 1048
1646, 459, 845, 931, 1096
1647, 957, 445, 851, 1095
1648, 894, 1149, 1086, 1297
1649, 1004, 1031, 1148, 1214
1650, 987, 1078, 1046, 1330
1651, 193, 857, 1100, 1247
1652, 456, 860, 1101, 1248
1653, 595, 768, 463, 1113
1654, 1003, 1117, 1050, 1320
1655, 886, 873, 1247, 1275
1656, 1027, 1171, 1009, 1314
1657, 209, 350, 1136, 1165
1658, 1003, 1029, 1114, 1212
1659, 989, 1157, 1232, 1337
1660, 530, 582, 513, 1071
1661, 1119, 1176, 1058, 1285
1662, 1046, 1166, 1040, 1330
1663, 474, 473, 472, 1094
1664, 884, 1098, 883, 1115
1665, 1168, 1218, 1063, 1258
1666, 881, 882, 1097, 1116
1667, 489, 488, 1051, 1163
1668, 751, 721, 750, 1035
1669, 992, 1201, 1134, 1265
1670, 1000, 1066, 1053, 1291
1671, 1011, 1159, 1127, 1254
1672, 1019, 1223, 1156, 1261
1673, 353, 269, 1108, 1178
1674, 995, 1179, 1054, 1274
1675, 220, 222, 221, 1081
1676, 1010, 1158, 1126, 1253
1677, 563, 546, 528, 1270
1678, 460, 471, 472, 1094
1679, 1057, 1160, 992, 1305
1680, 520, 1255, 1092, 1324
1681, 1025, 1162, 1156, 1231
1682, 754, 755, 720, 1038
1683, 1005, 1030, 1208, 1341
1684, 1048, 1154, 1008, 1252
1685, 264, 298, 284, 1272
1686, 849, 918, 917, 1073
1687, 395, 309, 281, 1068
1688, 1053, 994, 1180, 1273
1689, 548, 440, 1024, 1258
1690, 294, 1021, 1129, 1160
1691, 337, 338, 190, 1065
1692, 740, 1227, 1067, 1246
1693, 308, 1072, 188, 1223
1694, 494, 1140, 1056, 1307
1695, 213, 1084, 215, 1165
1696, 1010, 1267, 1224, 1336
1697, 1011, 1266, 1225, 1335
1698, 1022, 1232, 1157, 1337
1699, 1119, 1285, 1058, 1300
1700, 998, 1078, 1046, 1146
1701, 323, 1073, 365, 1229
1702, 486, 1059, 636, 1186
1703, 1123, 1261, 1037, 1319
1704, 1040, 1166, 1046, 1338
1705, 989, 1084, 1040, 1337
1706, 984, 1174, 1093, 1331
1707, 342, 352, 1070, 1171
1708, 1040, 1084, 989, 1198
1709, 1047, 1073, 998, 1201
1710, 998, 1166, 1046, 1330
1711, 993, 1018, 1139, 1235
1712, 329, 1021, 294, 1305
1713, 455, 605, 848, 1132
1714, 783, 1021, 1133, 1190
1715, 828, 781, 1208, 1287
1716, 225, 1160, 1134, 1305
1717, 1238, 1247, 873, 1275
1718, 812, 725, 827, 1072
1719, 510, 1167, 1058, 1176
1720, 433, 1135, 419, 1206
1721, 299, 800, 198, 1136
1722, 377, 381, 338, 1172
1723, 696, 1137, 682, 1207
1724, 1038, 1177, 1049, 1282
1725, 993, 1235, 1058, 1300
1726, 1099, 1220, 1102, 1342
1727, 998, 1073, 1047, 1146
1728, 656, 747, 837, 1106
1729, 577, 1176, 1016, 1233
1730, 1242, 1259, 1075, 1281
1731, 745, 838, 393, 1107
1732, 1120, 1179, 1022, 1274
1733, 997, 1108, 1070, 1178
1734, 1143, 1208, 1030, 1341
1735, 523, 551, 1157, 1179
1736, 896, 1149, 1017, 1262
1737, 992, 1090, 1055, 1191
1738, 486, 636, 488, 1186
1739, 1046, 1078, 987, 1205
1740, 706, 752, 806, 1052
1741, 791, 783, 714, 1133
1742, 200, 395, 332, 1093
1743, 572, 554, 462, 1083
1744, 381, 1130, 338, 1172
1745, 430, 423, 420, 1115
1746, 345, 794, 705, 1088
1747, 184, 368, 1031, 1217
1748, 513, 1071, 1167, 1191
1749, 1121, 1180, 1023, 1273
1750, 601, 459, 638, 1103
1751, 686, 683, 693, 1116
1752, 920, 1047, 1146, 1290
1753, 1012, 1247, 1238, 1275
1754, 916, 1148, 1236, 1259
1755, 1101, 1127, 546, 1270
1756, 734, 1041, 360, 1294
1757, 733, 1042, 624, 1293
1758, 556, 596, 1018, 1300
1759, 984, 1025, 1162, 1240
1760, 1049, 1282, 1177, 1284
1761, 217, 1147, 219, 1198
1762, 330, 197, 375, 1104
1763, 192, 821, 318, 1114
1764, 1100, 1126, 284, 1272
1765, 934, 1046, 843, 1205
1766, 994, 1202, 1239, 1249
1767, 424, 620, 413, 1106
1768, 687, 357, 674, 1107
1769, 944, 451, 846, 1103
1770, 1004, 1148, 1138, 1214
1771, 993, 1058, 1285, 1300
1772, 1046, 1078, 998, 1330
1773, 389, 334, 1080, 1217
1774, 918, 1073, 919, 1146
1775, 306, 289, 1035, 1152
1776, 994, 1239, 1161, 1249
1777, 189, 847, 943, 1104
1778, 1051, 1048, 1153, 1240
1779, 878, 938, 868, 1097
1780, 190, 1065, 338, 1303
1781, 867, 874, 937, 1098
1782, 750, 1035, 1125, 1202
1783, 829, 1227, 740, 1246
1784, 1046, 1169, 987, 1338
1785, 1034, 1219, 1127, 1254
1786, 1088, 1147, 327, 1263
1787, 1033, 1218, 1126, 1253
1788, 1102, 1220, 321, 1342
1789, 728, 1030, 580, 1208
1790, 604, 1075, 631, 1242
1791, 955, 1017, 896, 1281
1792, 1025, 996, 1156, 1339
1793, 1021, 1190, 1071, 1328
1794, 1095, 1174, 984, 1331
1795, 602, 639, 459, 1096
1796, 896, 1017, 955, 1262
1797, 1051, 1186, 1048, 1240
1798, 327, 1088, 277, 1147
1799, 754, 1038, 1124, 1282
1800, 210, 212, 211, 1165
1801, 687, 1107, 691, 1137
1802, 424, 1106, 428, 1135
1803, 1076, 1093, 984, 1203
1804, 848, 605, 912, 1132
1805, 998, 1073, 1166, 1201
1806, 618, 1135, 553, 1200
1807, 513, 1071, 511, 1167
1808, 479, 477, 1079, 1161
1809, 546, 661, 662, 1101
1810, 796, 1284, 1088, 1287
1811, 284, 398, 399, 1100
1812, 995, 1232, 1136, 1282
1813, 337, 190, 855, 1065
1814, 751, 1035, 750, 1313
1815, 1178, 1228, 997, 1251
1816, 524, 540, 1120, 1185
1817, 266, 1074, 317, 1189
1818, 500, 502, 501, 1117
1819, 981, 1020, 1145, 1204
1820, 1035, 751, 1155, 1313
1821, 619, 1089, 534, 1181
1822, 1171, 1314, 1027, 1326
1823, 1182, 1184, 1006, 1286
1824, 995, 1022, 1179, 1274
1825, 345, 1088, 705, 1284
1826, 1083, 1208, 573, 1324
1827, 863, 1085, 970, 1141
1828, 1096, 1103, 845, 1221
1829, 1020, 981, 1145, 1315
1830, 178, 1033, 404, 1158
1831, 667, 441, 1034, 1159
1832, 515, 622, 530, 1143
1833, 243, 1020, 1171, 1228
1834, 306, 289, 302, 1035
1835, 1089, 1181, 1032, 1276
1836, 323, 181, 322, 1073
1837, 672, 678, 679, 1159
1838, 415, 416, 409, 1158
1839, 228, 1057, 1172, 1220
1840, 1134, 1160, 1057, 1305
1841, 748, 1199, 743, 1244
1842, 404, 1033, 1126, 1158
1843, 1034, 1127, 667, 1159
1844, 571, 551, 567, 1038
1845, 278, 1121, 260, 1187
1846, 220, 222, 1081, 1166
1847, 732, 746, 1107, 1246
1848, 851, 958, 1095, 1174
1849, 755, 1038, 754, 1282
1850, 1032, 1212, 771, 1276
1851, 981, 1086, 1149, 1297
1852, 994, 1023, 1180, 1273
1853, 1031, 1259, 1075, 1325
1854, 851, 1095, 1142, 1174
1855, 571, 551, 1038, 1157
1856, 680, 672, 679, 1034
1857, 417, 409, 416, 1033
1858, 1005, 1208, 1030, 1288
1859, 291, 357, 1137, 1332
1860, 502, 503, 501, 1117
1861, 1002, 1216, 1068, 1319
1862, 717, 813, 1074, 1195
1863, 224, 1134, 225, 1160
1864, 1057, 1172, 1099, 1271
1865, 987, 1185, 1092, 1337
1866, 185, 394, 392, 1076
1867, 1017, 1149, 981, 1173
1868, 404, 1033, 283, 1126
1869, 438, 411, 1041, 1294
1870, 545, 667, 1034, 1127
1871, 676, 1042, 701, 1293
1872, 748, 1106, 747, 1199
1873, 1092, 1185, 1022, 1337
1874, 1018, 999, 1111, 1260
1875, 509, 1058, 510, 1167
1876, 1049, 1136, 1232, 1282
1877, 1052, 1079, 988, 1239
1878, 778, 711, 328, 1129
1879, 995, 1165, 1136, 1232
1880, 726, 832, 1190, 1222
1881, 995, 1124, 1038, 1282
1882, 783, 782, 1021, 1333
1883, 499, 498, 1062, 1181
1884, 882, 1116, 1225, 1335
1885, 1115, 1224, 884, 1336
1886, 639, 638, 1096, 1327
1887, 342, 1171, 1070, 1228
1888, 585, 957, 947, 1095
1889, 607, 446, 637, 1290
1890, 1096, 1142, 639, 1327
1891, 327, 1263, 1147, 1292
1892, 628, 1142, 1194, 1327
1893, 196, 339, 951, 1118
1894, 1109, 1162, 1025, 1240
1895, 1043, 993, 1138, 1193
1896, 639, 1096, 602, 1142
1897, 728, 580, 1030, 1222
1898, 1039, 1178, 1029, 1309
1899, 504, 536, 1119, 1209
1900, 1083, 1177, 802, 1287
1901, 328, 711, 195, 1129
1902, 580, 1030, 622, 1208
1903, 1090, 1188, 1047, 1304
1904, 1111, 1190, 1071, 1222
1905, 438, 411, 421, 1041
1906, 676, 684, 701, 1042
1907, 985, 1265, 1055, 1271
1908, 920, 948, 1047, 1290
1909, 1040, 987, 1169, 1338
1910, 417, 1033, 416, 1253
1911, 679, 680, 1034, 1254
1912, 1107, 1137, 1001, 1207
1913, 996, 1025, 1156, 1231
1914, 1106, 1135, 1000, 1206
1915, 972, 1215, 844, 1297
1916, 1052, 1239, 1202, 1249
1917, 425, 1158, 1010, 1253
1918, 688, 1159, 1011, 1254
1919, 546, 1127, 1101, 1266
1920, 284, 1126, 1100, 1267
1921, 308, 307, 188, 1072
1922, 1064, 1170, 982, 1219
1923, 759, 795, 793, 1036
1924, 1063, 1168, 983, 1218
1925, 628, 639, 1142, 1327
1926, 748, 1106, 1199, 1244
1927, 1119, 1139, 993, 1300
1928, 488, 490, 1051, 1186
1929, 1057, 1305, 992, 1328
1930, 1059, 1123, 996, 1163
1931, 1037, 986, 1183, 1327
1932, 1065, 1130, 338, 1303
1933, 899, 854, 898, 1076
1934, 190, 926, 855, 1065
1935, 1037, 1241, 986, 1327
1936, 927, 862, 200, 1128
1937, 1049, 1136, 1165, 1232
1938, 373, 1077, 182, 1321
1939, 537, 1164, 1091, 1230
1940, 606, 865, 1047, 1141
1941, 459, 639, 638, 1096
1942, 827, 725, 801, 1072
1943, 560, 1063, 474, 1200
1944, 1017, 1242, 955, 1262
1945, 593, 1089, 1213, 1295
1946, 302, 199, 306, 1155
1947, 1182, 1184, 922, 1303
1948, 234, 1044, 235, 1280
1949, 796, 802, 1177, 1287
1950, 981, 1105, 1080, 1204
1951, 903, 1128, 1093, 1174
1952, 538, 512, 510, 1167
1953, 981, 1080, 1039, 1204
1954, 268, 381, 226, 1130
1955, 500, 1062, 533, 1192
1956, 846, 1060, 941, 1275
1957, 637, 446, 570, 1329
1958, 509, 508, 510, 1058
1959, 1068, 1128, 309, 1216
1960, 1040, 989, 1147, 1198
1961, 996, 1036, 1195, 1318
1962, 1063, 1218, 1053, 1291
1963, 1075, 1209, 1050, 1325
1964, 521, 520, 1092, 1324
1965, 354, 183, 815, 1102
1966, 740, 741, 1124, 1227
1967, 641, 620, 424, 1135
1968, 379, 357, 687, 1137
1969, 1127, 1159, 1034, 1254
1970, 1126, 1158, 1033, 1253
1971, 1044, 1138, 993, 1193
1972, 985, 1055, 1167, 1271
1973, 999, 1133, 1102, 1220
1974, 1102, 1235, 1099, 1342
1975, 1002, 1194, 1142, 1327
1976, 1015, 1239, 1161, 1273
1977, 1099, 1220, 1057, 1271
1978, 995, 1087, 1064, 1322
1979, 635, 451, 601, 1103
1980, 995, 1232, 1022, 1274
1981, 592, 1091, 537, 1164
1982, 1025, 990, 1109, 1240
1983, 726, 832, 1111, 1190
1984, 500, 498, 533, 1062
1985, 1002, 1142, 1096, 1327
1986, 1031, 1214, 1004, 1325
1987, 254, 252, 309, 1068
1988, 996, 1195, 1082, 1318
1989, 985, 1043, 1172, 1285
1990, 630, 541, 646, 1154
1991, 189, 330, 372, 1104
1992, 600, 556, 1113, 1139
1993, 1084, 1165, 1014, 1232
1994, 229, 1172, 1099, 1220
1995, 495, 1069, 494, 1307
1996, 340, 269, 341, 1108
1997, 902, 1095, 958, 1174
1998, 234, 1138, 1044, 1193
1999, 789, 581, 726, 1111
2000, 934, 933, 843, 1046
2001, 340, 353, 269, 1108
2002, 915, 1118, 954, 1283
2003, 1020, 1145, 244, 1175
2004, 1075, 1259, 1004, 1325
2005, 987, 1022, 1185, 1337
2006, 530, 622, 580, 1030
2007, 474, 478, 476, 1063
2008, 210, 214, 212, 1064
2009, 218, 1166, 1040, 1338
2010, 500, 499, 498, 1062
2011, 988, 1155, 1152, 1234
2012, 490, 1153, 491, 1164
2013, 679, 681, 680, 1254
2014, 965, 874, 1098, 1238
2015, 418, 417, 416, 1253
2016, 964, 878, 1097, 1237
2017, 988, 1072, 1155, 1234
2018, 643, 1095, 585, 1257
2019, 800, 742, 732, 1087
2020, 1018, 1260, 775, 1308
2021, 1078, 1188, 544, 1290
2022, 1051, 1163, 1059, 1231
2023, 903, 927, 1093, 1128
2024, 1016, 1118, 1236, 1283
2025, 593, 534, 1089, 1295
2026, 1050, 1003, 1139, 1278
2027, 588, 1086, 1173, 1307
2028, 1105, 1008, 1215, 1334
2029, 599, 608, 557, 1144
2030, 1029, 1108, 997, 1178
2031, 988, 1152, 1035, 1239
2032, 1016, 985, 1176, 1285
2033, 1031, 1004, 1259, 1325
2034, 1052, 1161, 1239, 1249
2035, 879, 1224, 1267, 1336
2036, 925, 1184, 1085, 1283
2037, 880, 1225, 1266, 1335
2038, 496, 1069, 495, 1307
2039, 828, 781, 810, 1208
2040, 557, 1117, 501, 1278
2041, 989, 1049, 1177, 1284
2042, 474, 560, 478, 1063
2043, 271, 1028, 310, 1280
2044, 503, 1139, 505, 1278
2045, 646, 1048, 645, 1257
2046, 296, 214, 210, 1064
2047, 1099, 1172, 1057, 1220
2048, 941, 1060, 1238, 1275
2049, 723, 1091, 443, 1213
2050, 1047, 998, 1090, 1201
2051, 1025, 1109, 990, 1289
2052, 1096, 986, 1241, 1327
2053, 945, 897, 930, 1105
2054, 1118, 1148, 1004, 1236
2055, 371, 1105, 390, 1204
2056, 228, 1172, 229, 1220
2057, 981, 1086, 1056, 1307
2058, 727, 828, 810, 1083
2059, 997, 1178, 1070, 1228
2060, 995, 1054, 1179, 1301
2061, 984, 1093, 1076, 1162
2062, 544, 1255, 1078, 1329
2063, 1021, 1190, 783, 1333
2064, 1028, 310, 1280, 1342
2065, 966, 1065, 926, 1303
2066, 758, 1195, 1082, 1298
2067, 519, 1255, 520, 1324
2068, 996, 1019, 1156, 1261
2069, 768, 463, 1113, 1144
2070, 986, 1112, 1023, 1187
2071, 981, 1020, 1204, 1251
2072, 496, 495, 494, 1307
2073, 809, 1027, 712, 1279
2074, 999, 1111, 1071, 1277
2075, 1050, 1139, 1003, 1310
2076, 1068, 1216, 1019, 1319
2077, 1043, 993, 1099, 1285
2078, 233, 1280, 310, 1342
2079, 1047, 1090, 998, 1188
2080, 1112, 1216, 256, 1321
2081, 994, 1053, 1180, 1299
2082, 863, 1085, 578, 1233
2083, 1019, 1037, 1241, 1306
2084, 548, 440, 552, 1024
2085, 286, 177, 290, 1026
2086, 281, 1068, 252, 1162
2087, 682, 687, 691, 1137
2088, 419, 424, 428, 1135
2089, 1018, 993, 1139, 1300
2090, 397, 256, 1216, 1321
2091, 236, 1044, 234, 1214
2092, 728, 1222, 1030, 1333
2093, 598, 1082, 559, 1163
2094, 312, 1145, 1105, 1334
2095, 227, 1057, 228, 1220
2096, 545, 621, 529, 1197
2097, 265, 283, 358, 1196
2098, 513, 582, 511, 1071
2099, 740, 1067, 744, 1246
2100, 992, 1305, 1160, 1328
2101, 1053, 1218, 1063, 1273
2102, 646, 1154, 1048, 1257
2103, 919, 1146, 1073, 1229
2104, 707, 1094, 799, 1249
2105, 1030, 1005, 1288, 1341
2106, 1005, 1083, 1208, 1287
2107, 993, 1119, 1050, 1139
2108, 1006, 1141, 1047, 1286
2109, 981, 1020, 1251, 1315
2110, 505, 506, 507, 1300
2111, 512, 538, 609, 1055
2112, 233, 234, 235, 1280
2113, 654, 538, 648, 1176
2114, 546, 661, 1101, 1270
2115, 895, 1086, 906, 1154
2116, 234, 236, 235, 1044
2117, 1113, 1144, 463, 1278
2118, 1105, 1145, 390, 1204
2119, 994, 1161, 1094, 1249
2120, 622, 1030, 1143, 1208
2121, 966, 1184, 1065, 1303
2122, 746, 840, 1107, 1246
2123, 748, 839, 1106, 1244
2124, 996, 1074, 1223, 1339
2125, 1048, 984, 1186, 1203
2126, 398, 1100, 284, 1272
2127, 306, 199, 292, 1155
2128, 894, 1086, 895, 1297
2129, 1043, 1099, 993, 1193
2130, 831, 1190, 1133, 1260
2131, 862, 939, 936, 1077
2132, 1065, 985, 1130, 1184
2133, 484, 486, 485, 1123
2134, 582, 511, 1071, 1277
2135, 995, 1165, 1232, 1274
2136, 994, 1239, 1023, 1273
2137, 1062, 1251, 1039, 1309
2138, 769, 1144, 770, 1269
2139, 920, 918, 1146, 1286
2140, 894, 895, 930, 1297
2141, 196, 385, 1118, 1148
2142, 955, 1242, 1017, 1281
2143, 486, 636, 1059, 1264
2144, 233, 1193, 1280, 1342
2145, 1076, 1215, 899, 1252
2146, 990, 1020, 1175, 1315
2147, 1071, 1111, 999, 1190
2148, 581, 457, 726, 1111
2149, 637, 1078, 544, 1290
2150, 1060, 1098, 983, 1168
2151, 1061, 1097, 982, 1170
2152, 1016, 1004, 1132, 1236
2153, 1038, 1124, 995, 1179
2154, 270, 344, 232, 1138
2155, 761, 1213, 1089, 1340
2156, 830, 736, 743, 1199
2157, 712, 1027, 809, 1326
2158, 646, 610, 645, 1048
2159, 1035, 1125, 994, 1180
2160, 248, 1109, 343, 1162
2161, 770, 1144, 1113, 1269
2162, 438, 1041, 421, 1244
2163, 701, 1042, 684, 1243
2164, 994, 1125, 1035, 1202
2165, 386, 279, 344, 1138
2166, 818, 579, 580, 1222
2167, 973, 934, 843, 1205
2168, 215, 213, 216, 1084
2169, 585, 1095, 947, 1257
2170, 1059, 1186, 1051, 1231
2171, 443, 1091, 592, 1213
2172, 986, 1023, 1112, 1306
2173, 1208, 1287, 781, 1288
2174, 1003, 1310, 1280, 1320
2175, 765, 761, 1089, 1340
2176, 707, 738, 1094, 1202
2177, 863, 970, 953, 1141
2178, 230, 1099, 229, 1172
2179, 1102, 1133, 999, 1260
2180, 919, 1073, 918, 1229
2181, 984, 1051, 1186, 1231
2182, 293, 1171, 1027, 1326
2183, 348, 277, 345, 1198
2184, 1147, 1166, 1081, 1302
2185, 278, 262, 260, 1121
2186, 1047, 1201, 1090, 1304
2187, 514, 512, 609, 1055
2188, 634, 653, 536, 1119
2189, 322, 323, 1073, 1182
2190, 785, 763, 786, 1091
2191, 403, 675, 700, 1116
2192, 806, 752, 707, 1249
2193, 666, 414, 437, 1115
2194, 1061, 1250, 1104, 1317
2195, 1094, 1200, 1063, 1291
2196, 1007, 1189, 1027, 1279
2197, 1050, 1117, 991, 1320
2198, 526, 524, 540, 1120
2199, 295, 719, 749, 1125
2200, 296, 214, 1064, 1256
2201, 1107, 1243, 1042, 1246
2202, 488, 532, 490, 1186
2203, 294, 1129, 355, 1160
2204, 1167, 1176, 985, 1271
2205, 732, 746, 745, 1107
2206, 577, 654, 648, 1176
2207, 228, 227, 226, 1057
2208, 640, 1059, 486, 1194
2209, 1044, 1138, 234, 1214
2210, 1058, 1167, 509, 1277
2211, 988, 1152, 1239, 1306
2212, 341, 342, 180, 1070
2213, 577, 654, 1176, 1233
2214, 753, 558, 722, 1124
2215, 442, 617, 615, 1052
2216, 362, 1074, 266, 1339
2217, 989, 1049, 1198, 1232
2218, 254, 253, 252, 1156
2219, 989, 1198, 1084, 1232
2220, 1023, 1152, 1035, 1180
2221, 1177, 1282, 756, 1284
2222, 1123, 1150, 1036, 1318
2223, 392, 1215, 1076, 1334
2224, 1011, 1211, 1159, 1225
2225, 1010, 1210, 1158, 1224
2226, 1019, 988, 1234, 1261
2227, 1063, 1218, 983, 1273
2228, 1019, 1261, 996, 1319
2229, 482, 1194, 1037, 1327
2230, 1064, 1219, 982, 1274
2231, 785, 1091, 786, 1230
2232, 1028, 1235, 1018, 1308
2233, 311, 312, 191, 1105
2234, 351, 1107, 357, 1332
2235, 1076, 1203, 1048, 1252
2236, 350, 348, 179, 1049
2237, 600, 1113, 463, 1278
2238, 193, 297, 398, 1100
2239, 456, 562, 661, 1101
2240, 1009, 1171, 1027, 1323
2241, 909, 1236, 1132, 1259
2242, 923, 1184, 922, 1286
2243, 215, 216, 217, 1084
2244, 1039, 1178, 997, 1251
2245, 811, 1070, 767, 1108
2246, 988, 1035, 1152, 1155
2247, 737, 719, 736, 1125
2248, 653, 508, 506, 1119
2249, 613, 531, 633, 1311
2250, 656, 467, 747, 1106
2251, 757, 758, 713, 1082
2252, 478, 1063, 560, 1258
2253, 499, 497, 498, 1181
2254, 1219, 1274, 1064, 1322
2255, 204, 745, 393, 1107
2256, 1035, 1155, 988, 1313
2257, 313, 1076, 392, 1215
2258, 346, 267, 370, 1312
2259, 1058, 985, 1176, 1271
2260, 1050, 1119, 1004, 1209
2261, 895, 893, 906, 1086
2262, 879, 1224, 1210, 1267
2263, 880, 1225, 1211, 1266
2264, 990, 1153, 1051, 1164
2265, 1096, 1183, 986, 1327
2266, 1134, 1201, 1081, 1268
2267, 355, 1160, 1129, 1292
2268, 997, 1039, 1251, 1309
2269, 997, 1178, 1039, 1309
2270, 1025, 1231, 1051, 1240
2271, 1091, 1164, 1140, 1323
2272, 999, 1071, 1271, 1277
2273, 659, 544, 1188, 1290
2274, 667, 626, 441, 1159
2275, 178, 404, 363, 1158
2276, 728, 814, 1030, 1288
2277, 1134, 1201, 1006, 1265
2278, 1084, 1198, 1049, 1232
2279, 447, 907, 603, 1296
2280, 732, 1087, 742, 1246
2281, 816, 771, 1212, 1276
2282, 989, 1177, 1157, 1324
2283, 512, 1167, 1055, 1191
2284, 743, 1244, 1041, 1294
2285, 744, 1243, 1042, 1293
2286, 1096, 1221, 1077, 1241
2287, 1110, 1205, 987, 1329
2288, 1022, 1157, 1038, 1179
2289, 740, 741, 722, 1124
2290, 1025, 984, 1162, 1231
2291, 995, 1124, 1067, 1301
2292, 952, 1031, 911, 1217
2293, 1097, 1116, 882, 1335
2294, 537, 1091, 590, 1230
2295, 1098, 1115, 884, 1336
2296, 362, 1223, 1074, 1339
2297, 1023, 1079, 1239, 1306
2298, 544, 1078, 637, 1329
2299, 270, 384, 385, 1118
2300, 1156, 1162, 1068, 1231
2301, 1003, 1144, 1032, 1212
2302, 442, 617, 1052, 1249
2303, 514, 512, 1055, 1191
2304, 235, 1044, 236, 1226
2305, 485, 1163, 487, 1318
2306, 1058, 1176, 1167, 1271
2307, 469, 423, 414, 1115
2308, 707, 799, 564, 1249
2309, 644, 1075, 604, 1209
2310, 728, 1208, 781, 1288
2311, 822, 320, 718, 1114
2312, 1037, 1150, 1079, 1306
2313, 1023, 1239, 1152, 1306
2314, 770, 768, 1113, 1144
2315, 537, 592, 590, 1091
2316, 899, 1076, 898, 1215
2317, 252, 251, 250, 1156
2318, 999, 1018, 1235, 1260
2319, 1119, 1132, 1004, 1209
2320, 995, 1067, 1124, 1227
2321, 729, 146, 591, 757
2322, 1113, 1269, 1003, 1310
2323, 277, 1147, 1088, 1198
2324, 575, 1140, 493, 1295
2325, 939, 1221, 1077, 1245
2326, 486, 1059, 640, 1264
2327, 1041, 1206, 421, 1244
2328, 1042, 1207, 684, 1243
2329, 225, 224, 226, 1134
2330, 489, 487, 488, 1163
2331, 495, 1140, 1069, 1295
2332, 1078, 987, 1205, 1329
2333, 506, 504, 536, 1119
2334, 1054, 1274, 1219, 1322
2335, 497, 619, 534, 1181
2336, 356, 1074, 362, 1223
2337, 822, 776, 815, 1308
2338, 1019, 1241, 1112, 1306
2339, 1109, 1315, 1175, 1334
2340, 609, 514, 1055, 1304
2341, 711, 328, 61, 778
2342, 904, 1252, 1215, 1297
2343, 723, 148, 443, 785
2344, 983, 1100, 1238, 1272
2345, 778, 186, 62, 714
2346, 763, 786, 1091, 1279
2347, 982, 1101, 1237, 1270
2348, 993, 1018, 1235, 1300
2349, 1068, 1093, 984, 1162
2350, 1036, 988, 1150, 1261
2351, 707, 752, 1202, 1249
2352, 920, 1146, 1047, 1286
2353, 345, 277, 326, 1088
2354, 211, 215, 350, 1165
2355, 1006, 1184, 1130, 1265
2356, 997, 1251, 1062, 1309
2357, 849, 918, 1073, 1229
2358, 494, 1056, 541, 1307
2359, 1024, 1218, 1033, 1253
2360, 664, 570, 1110, 1185
2361, 1087, 1227, 742, 1246
2362, 1026, 1219, 1034, 1254
2363, 544, 660, 1255, 1329
2364, 215, 1084, 217, 1198
2365, 813, 1074, 1195, 1298
2366, 182, 1122, 305, 1321
2367, 1021, 1160, 294, 1305
2368, 456, 562, 860, 128
2369, 44, 297, 193, 857
2370, 1000, 1135, 1106, 1200
2371, 1007, 1230, 1082, 1298
2372, 514, 1090, 516, 1191
2373, 982, 1054, 1120, 1274
2374, 62, 328, 186, 778
2375, 730, 1108, 816, 1212
2376, 755, 756, 1177, 1282
2377, 61, 195, 328, 711
2378, 1005, 1287, 1208, 1288
2379, 404, 358, 283, 1033
2380, 425, 412, 439, 1210
2381, 677, 702, 688, 1211
2382, 1082, 1195, 1036, 1318
2383, 1027, 1007, 1279, 1323
2384, 545, 667, 621, 1034
2385, 989, 1157, 1092, 1324
2386, 453, 145, 713, 757
2387, 1050, 1310, 1003, 1320
2388, 717, 812, 760, 1195
2389, 989, 1157, 1038, 1232
2390, 977, 883, 666, 1115
2391, 538, 654, 655, 1085
2392, 1035, 1152, 1023, 1239
2393, 983, 1053, 1121, 1273
2394, 1042, 1243, 744, 1246
2395, 480, 481, 479, 1079
2396, 950, 1047, 865, 1141
2397, 256, 1112, 257, 1234
2398, 929, 939, 862, 1245
2399, 823, 427, 1106, 1244
2400, 824, 690, 1107, 1243
2401, 1008, 1315, 1109, 1334
2402, 952, 911, 910, 1217
2403, 1037, 1002, 1241, 1327
2404, 1078, 1205, 1110, 1329
2405, 1242, 1259, 908, 1296
2406, 636, 1186, 1059, 1264
2407, 476, 477, 475, 1161
2408, 1013, 1237, 1061, 1250
2409, 235, 1044, 1226, 1280
2410, 212, 214, 267, 1170
2411, 476, 478, 531, 1168
2412, 1133, 1190, 999, 1260
2413, 390, 1145, 242, 1204
2414, 1079, 1150, 988, 1306
2415, 228, 230, 229, 1172
2416, 508, 1058, 509, 1300
2417, 986, 1221, 1096, 1241
2418, 146, 453, 591, 757
2419, 996, 1223, 1156, 1339
2420, 724, 765, 761, 1089
2421, 1053, 994, 1291, 1299
2422, 416, 1033, 1158, 1253
2423, 679, 1034, 1159, 1254
2424, 477, 480, 479, 1079
2425, 297, 1100, 871, 1267
2426, 562, 1101, 875, 1266
2427, 513, 1167, 512, 1191
2428, 579, 530, 580, 1222
2429, 995, 1227, 1124, 1282
2430, 1030, 1288, 814, 1333
2431, 629, 542, 1098, 1168
2432, 280, 1097, 367, 1170
2433, 559, 453, 597, 1082
2434, 521, 1092, 522, 1157
2435, 640, 1059, 1194, 1264
2436, 1054, 1197, 529, 1301
2437, 715, 152, 599, 792
2438, 1053, 1196, 265, 1299
2439, 576, 863, 578, 1233
2440, 860, 562, 875, 128
2441, 44, 297, 857, 871
2442, 258, 1187, 1112, 1321
2443, 586, 458, 630, 1086
2444, 724, 454, 151, 792
2445, 1105, 1215, 1008, 1297
2446, 867, 883, 884, 1098
2447, 903, 929, 1128, 1174
2448, 868, 881, 882, 1097
2449, 195, 1129, 711, 1263
2450, 597, 559, 1082, 1318
2451, 421, 1206, 428, 1244
2452, 684, 1207, 691, 1243
2453, 1063, 1200, 560, 1258
2454, 37, 854, 905, 332
2455, 391, 312, 1215, 1334
2456, 156, 789, 709, 581
2457, 773, 768, 154, 595
2458, 501, 1117, 503, 1278
2459, 424, 413, 428, 1106
2460, 687, 674, 691, 1107
2461, 231, 1099, 230, 1193
2462, 1065, 1130, 985, 1172
2463, 659, 637, 544, 1290
2464, 820, 831, 1133, 1260
2465, 786, 1230, 1091, 1279
2466, 447, 853, 907, 1296
2467, 933, 1046, 934, 1229
2468, 291, 351, 357, 1332
2469, 528, 529, 527, 1054
2470, 898, 854, 36, 185
2471, 473, 1161, 475, 1249
2472, 264, 265, 263, 1053
2473, 274, 1133, 329, 1220
2474, 329, 1220, 1133, 1305
2475, 630, 586, 1086, 1154
2476, 447, 1242, 853, 1296
2477, 244, 242, 390, 1145
2478, 731, 748, 747, 1199
2479, 761, 593, 150, 724
2480, 854, 37, 185, 332
2481, 758, 813, 1195, 1298
2482, 994, 1125, 1066, 1299
2483, 1096, 1103, 986, 1183
2484, 1086, 1154, 895, 1297
2485, 145, 597, 453, 713
2486, 1010, 1224, 1115, 1336
2487, 1011, 1225, 1116, 1335
2488, 301, 1125, 289, 1180
2489, 155, 709, 773, 444
2490, 1015, 1161, 1063, 1273
2491, 148, 590, 443, 785
2492, 916, 969, 1148, 1259
2493, 455, 848, 924, 1233
2494, 313, 898, 36, 185
2495, 992, 1081, 1134, 1201
2496, 1096, 1241, 1002, 1327
2497, 281, 309, 252, 1068
2498, 1008, 1252, 1154, 1297
2499, 455, 924, 576, 1233
2500, 1003, 1139, 1113, 1310
2501, 342, 352, 1171, 1228
2502, 1002, 1037, 1194, 1327
2503, 196, 386, 385, 1148
2504, 551, 566, 1124, 1179
2505, 295, 749, 187, 1125
2506, 662, 1101, 562, 1266
2507, 297, 399, 1100, 1267
2508, 904, 899, 1215, 1252
2509, 744, 1243, 840, 1246
2510, 643, 583, 585, 1095
2511, 909, 916, 1236, 1259
2512, 811, 180, 710, 1070
2513, 475, 479, 617, 1161
2514, 924, 863, 576, 1233
2515, 707, 803, 738, 1202
2516, 716, 1102, 820, 1133
2517, 516, 1090, 514, 1304
2518, 511, 1167, 1071, 1277
2519, 200, 38, 905, 332
2520, 1108, 1212, 1032, 1276
2521, 558, 753, 449, 1124
2522, 908, 1259, 1242, 1281
2523, 488, 490, 489, 1051
2524, 564, 806, 707, 1249
2525, 1086, 1173, 1149, 1262
2526, 986, 1183, 1079, 1306
2527, 620, 656, 413, 1106
2528, 286, 1170, 214, 1256
2529, 674, 357, 393, 1107
2530, 849, 23, 181, 917
2531, 893, 850, 112, 458
2532, 1048, 984, 1203, 1240
2533, 1038, 1157, 1022, 1232
2534, 1067, 1197, 1001, 1322
2535, 562, 662, 661, 1101
2536, 809, 1027, 764, 1326
2537, 401, 305, 1122, 1187
2538, 821, 772, 1114, 1212
2539, 871, 1100, 879, 1267
2540, 569, 568, 889, 126
2541, 992, 1143, 1090, 1191
2542, 1073, 1182, 323, 1268
2543, 303, 304, 42, 885
2544, 875, 1101, 880, 1266
2545, 297, 399, 398, 1100
2546, 986, 1077, 1221, 1241
2547, 331, 396, 200, 1128
2548, 597, 144, 461, 713
2549, 390, 1105, 312, 1145
2550, 1079, 1161, 1015, 1239
2551, 212, 213, 211, 1165
2552, 1003, 1269, 1114, 1310
2553, 1051, 1231, 984, 1240
2554, 614, 482, 480, 1183
2555, 664, 651, 570, 1185
2556, 876, 1101, 860, 1248
2557, 858, 569, 889, 126
2558, 885, 304, 42, 859
2559, 1023, 1180, 1035, 1239
2560, 163, 720, 797, 567
2561, 872, 1100, 857, 1247
2562, 721, 79, 302, 798
2563, 1003, 1212, 1114, 1269
2564, 497, 495, 496, 1069
2565, 811, 730, 340, 1108
2566, 1028, 1114, 1269, 1310
2567, 401, 388, 305, 1187
2568, 406, 360, 288, 1041
2569, 1025, 984, 1231, 1240
2570, 550, 669, 624, 1042
2571, 610, 541, 492, 1153
2572, 165, 722, 753, 558
2573, 322, 181, 23, 917
2574, 1054, 982, 1219, 1274
2575, 719, 81, 295, 749
2576, 829, 732, 742, 1246
2577, 1053, 983, 1218, 1273
2578, 495, 1069, 497, 1295
2579, 677, 688, 1159, 1211
2580, 425, 1158, 412, 1210
2581, 164, 753, 720, 449
2582, 1044, 1214, 236, 1226
2583, 443, 592, 575, 1213
2584, 984, 1093, 1068, 1331
2585, 721, 187, 80, 749
2586, 454, 599, 152, 792
2587, 747, 823, 837, 1106
2588, 814, 728, 1030, 1333
2589, 196, 951, 956, 1118
2590, 1009, 1027, 1314, 1323
2591, 745, 824, 838, 1107
2592, 1028, 1235, 1193, 1310
2593, 648, 538, 510, 1176
2594, 1053, 1273, 1063, 1291
2595, 983, 1126, 1053, 1218
2596, 1005, 1147, 1263, 1292
2597, 982, 1127, 1054, 1219
2598, 996, 1156, 1223, 1261
2599, 573, 1083, 572, 1208
2600, 1000, 1218, 1063, 1291
2601, 901, 947, 1095, 1203
2602, 728, 580, 450, 1208
2603, 989, 1083, 1177, 1324
2604, 1022, 1179, 1038, 1232
2605, 455, 118, 576, 924
2606, 756, 1049, 805, 1284
2607, 942, 1237, 877, 1250
2608, 660, 544, 637, 1329
2609, 595, 768, 154, 463
2610, 277, 327, 326, 1088
2611, 858, 935, 446, 125
2612, 986, 1122, 1187, 1316
2613, 446, 569, 858, 125
2614, 304, 182, 41, 859
2615, 990, 1051, 1153, 1240
2616, 828, 1083, 802, 1287
2617, 1142, 1174, 1095, 1264
2618, 477, 535, 480, 1183
2619, 493, 592, 491, 1164
2620, 429, 437, 414, 1115
2621, 700, 675, 692, 1116
2622, 221, 1081, 222, 1292
2623, 996, 1059, 1231, 1319
2624, 924, 455, 118, 848
2625, 1002, 1128, 1068, 1216
2626, 1047, 1146, 1073, 1286
2627, 1123, 1261, 996, 1318
2628, 1036, 996, 1261, 1318
2629, 365, 1166, 276, 1338
2630, 288, 406, 1041, 1196
2631, 669, 1042, 550, 1197
2632, 347, 1169, 375, 1338
2633, 988, 1131, 1036, 1150
2634, 595, 155, 773, 444
2635, 587, 112, 850, 458
2636, 989, 1038, 1157, 1177
2637, 996, 1123, 1059, 1319
2638, 1014, 1165, 1064, 1274
2639, 932, 1142, 1096, 1245
2640, 308, 1072, 1223, 1234
2641, 1035, 1202, 750, 1313
2642, 851, 1142, 958, 1174
2643, 219, 220, 221, 1147
2644, 936, 41, 182, 859
2645, 1021, 1030, 1333, 1341
2646, 992, 1134, 1081, 1160
2647, 994, 1161, 1239, 1273
2648, 996, 1163, 1123, 1318
2649, 594, 454, 151, 724
2650, 658, 464, 659, 1188
2651, 1028, 1280, 1193, 1342
2652, 1092, 1185, 987, 1329
2653, 444, 156, 709, 581
2654, 578, 1085, 654, 1233
2655, 743, 1041, 734, 1294
2656, 733, 744, 1042, 1293
2657, 984, 1186, 1059, 1231
2658, 1057, 1134, 1130, 1265
2659, 1038, 1232, 995, 1282
2660, 277, 219, 1147, 1198
2661, 1000, 1053, 1218, 1291
2662, 970, 923, 1141, 1184
2663, 989, 1177, 1088, 1284
2664, 1062, 1117, 991, 1192
2665, 439, 430, 425, 1224
2666, 702, 693, 688, 1225
2667, 998, 1166, 1081, 1201
2668, 1059, 1163, 996, 1231
2669, 1068, 1093, 1128, 1331
2670, 603, 447, 115, 907
2671, 842, 959, 407, 1224
2672, 643, 1095, 1186, 1264
2673, 750, 1125, 737, 1202
2674, 286, 280, 214, 1170
2675, 594, 593, 534, 1089
2676, 764, 1027, 1314, 1326
2677, 952, 1031, 1259, 1281
2678, 593, 594, 150, 724
2679, 984, 1048, 1186, 1240
2680, 1056, 1140, 1069, 1307
2681, 659, 1188, 464, 1290
2682, 249, 250, 251, 1339
2683, 925, 1085, 863, 1233
2684, 987, 1110, 1185, 1317
2685, 311, 391, 312, 1215
2686, 710, 808, 1070, 1326
2687, 1005, 1147, 1088, 1263
2688, 438, 421, 428, 1244
2689, 701, 684, 691, 1243
2690, 758, 757, 787, 1082
2691, 718, 822, 1114, 1269
2692, 876, 1237, 1101, 1248
2693, 1100, 983, 1126, 1272
2694, 614, 482, 1183, 1327
2695, 872, 1238, 1100, 1247
2696, 1057, 1172, 985, 1265
2697, 833, 1177, 755, 1284
2698, 790, 1190, 831, 1260
2699, 906, 893, 111, 586
2700, 1082, 559, 1163, 1318
2701, 1101, 982, 1127, 1270
2702, 1223, 1234, 1072, 1261
2703, 356, 266, 362, 1074
2704, 519, 1045, 1255, 1324
2705, 219, 327, 277, 1147
2706, 985, 1172, 1130, 1265
2707, 710, 1070, 180, 1326
2708, 428, 1106, 427, 1244
2709, 690, 691, 1107, 1243
2710, 364, 290, 205, 1116
2711, 988, 1131, 1052, 1313
2712, 627, 552, 469, 1115
2713, 755, 1177, 756, 1284
2714, 1004, 1214, 1138, 1325
2715, 728, 450, 810, 1208
2716, 997, 1032, 1181, 1276
2717, 586, 893, 111, 458
2718, 27, 339, 337, 951
2719, 899, 901, 900, 1203
2720, 765, 1089, 1276, 1340
2721, 1070, 767, 1108, 1276
2722, 248, 275, 343, 1109
2723, 604, 1075, 1242, 1296
2724, 643, 1186, 636, 1264
2725, 903, 927, 905, 1093
2726, 604, 1242, 447, 1296
2727, 65, 354, 183, 815
2728, 577, 648, 653, 1176
2729, 723, 763, 785, 1091
2730, 1012, 1187, 1122, 1316
2731, 716, 354, 1102, 1133
2732, 771, 766, 792, 1276
2733, 326, 1088, 327, 1263
2734, 1013, 1185, 1110, 1317
2735, 483, 1123, 485, 1318
2736, 996, 1074, 1195, 1223
2737, 1031, 991, 1151, 1214
2738, 652, 1132, 634, 1209
2739, 1057, 1130, 1172, 1265
2740, 1055, 514, 1191, 1304
2741, 986, 1037, 1183, 1306
2742, 266, 1074, 1189, 1339
2743, 991, 1214, 1031, 1325
2744, 628, 1194, 539, 1327
2745, 952, 911, 1031, 1281
2746, 1105, 1145, 1008, 1334
2747, 932, 967, 1142, 1245
2748, 611, 483, 485, 1318
2749, 281, 394, 1093, 1162
2750, 181, 1073, 323, 1229
2751, 972, 904, 1215, 1297
2752, 246, 1175, 383, 1334
2753, 754, 1124, 741, 1282
2754, 871, 870, 297, 1267
2755, 562, 875, 869, 1266
2756, 993, 1193, 1235, 1310
2757, 1008, 1109, 1076, 1334
2758, 196, 1118, 956, 1148
2759, 997, 1181, 1089, 1276
2760, 356, 317, 266, 1074
2761, 1066, 1291, 994, 1299
2762, 110, 906, 586, 1154
2763, 986, 1221, 1122, 1316
2764, 257, 1112, 258, 1152
2765, 707, 738, 799, 1094
2766, 739, 722, 166, 466
2767, 666, 883, 623, 1115
2768, 383, 1175, 1145, 1334
2769, 726, 457, 818, 1222
2770, 719, 202, 82, 735
2771, 1017, 1192, 1075, 1242
2772, 396, 309, 1128, 1216
2773, 279, 234, 1138, 1214
2774, 1095, 1186, 984, 1203
2775, 521, 519, 520, 1324
2776, 208, 207, 351, 1332
2777, 717, 760, 813, 1195
2778, 692, 960, 978, 1116
2779, 312, 390, 371, 1105
2780, 959, 977, 429, 1115
2781, 600, 1139, 1113, 1278
2782, 631, 649, 589, 1262
2783, 986, 1077, 1122, 1221
2784, 396, 373, 282, 1216
2785, 117, 455, 605, 848
2786, 373, 1216, 1077, 1321
2787, 743, 826, 1244, 1294
2788, 744, 825, 1243, 1293
2789, 1061, 1013, 1250, 1317
2790, 823, 1106, 839, 1244
2791, 824, 1107, 840, 1243
2792, 553, 1200, 1135, 1258
2793, 368, 386, 314, 1148
2794, 991, 1029, 1226, 1320
2795, 229, 321, 1220, 1342
2796, 301, 187, 289, 1125
2797, 848, 605, 117, 912
2798, 1090, 1191, 514, 1304
2799, 879, 1267, 1100, 1336
2800, 649, 533, 642, 1173
2801, 827, 760, 812, 1195
2802, 880, 1266, 1101, 1335
2803, 1003, 1114, 1280, 1310
2804, 110, 586, 452, 1154
2805, 629, 542, 627, 1098
2806, 935, 607, 446, 124
2807, 367, 280, 364, 1097
2808, 892, 1104, 847, 1250
2809, 889, 890, 877, 1248
2810, 566, 449, 551, 1124
2811, 404, 178, 358, 1033
2812, 621, 667, 441, 1034
2813, 226, 1057, 227, 1305
2814, 631, 589, 1242, 1262
2815, 885, 886, 873, 1247
2816, 486, 640, 636, 1264
2817, 1006, 1047, 1201, 1286
2818, 1054, 1197, 1067, 1322
2819, 991, 1117, 1062, 1309
2820, 1001, 1026, 1137, 1256
2821, 449, 720, 164, 567
2822, 187, 80, 302, 721
2823, 492, 494, 493, 1140
2824, 1036, 1261, 1123, 1318
2825, 1077, 986, 1122, 1321
2826, 107, 957, 583, 445
2827, 767, 1276, 1070, 1340
2828, 925, 970, 1085, 1184
2829, 1022, 1084, 1232, 1337
2830, 1221, 1275, 1122, 1316
2831, 556, 595, 600, 1113
2832, 1088, 1147, 989, 1198
2833, 949, 971, 897, 1080
2834, 1037, 988, 1150, 1306
2835, 1002, 1241, 1216, 1319
2836, 959, 1115, 429, 1224
2837, 960, 1116, 692, 1225
2838, 899, 1203, 1076, 1252
2839, 647, 494, 541, 1307
2840, 246, 244, 383, 1175
2841, 1078, 544, 1188, 1255
2842, 805, 57, 179, 299
2843, 1004, 1236, 1148, 1259
2844, 853, 115, 447, 907
2845, 453, 559, 598, 1082
2846, 540, 526, 1120, 1270
2847, 806, 442, 564, 141
2848, 999, 1220, 1099, 1271
2849, 549, 529, 1197, 1301
2850, 440, 641, 410, 1135
2851, 772, 769, 819, 1212
2852, 177, 379, 673, 1137
2853, 221, 222, 223, 1292
2854, 287, 265, 1196, 1299
2855, 785, 590, 1091, 1230
2856, 1128, 1174, 929, 1245
2857, 278, 262, 1121, 1272
2858, 628, 1194, 1142, 1264
2859, 1015, 1311, 1183, 1316
2860, 1064, 1219, 1001, 1256
2861, 144, 793, 461, 713
2862, 457, 579, 818, 1222
2863, 1000, 1024, 1135, 1258
2864, 373, 397, 1216, 1321
2865, 211, 213, 215, 1165
2866, 40, 182, 331, 936
2867, 1022, 995, 1179, 1232
2868, 1036, 1150, 1123, 1261
2869, 805, 756, 708, 1282
2870, 1092, 1157, 989, 1337
2871, 337, 384, 338, 1065
2872, 626, 625, 678, 1159
2873, 988, 1155, 1131, 1313
2874, 986, 1103, 1096, 1221
2875, 415, 363, 361, 1158
2876, 1014, 1312, 1169, 1317
2877, 558, 753, 165, 449
2878, 994, 1094, 1202, 1249
2879, 347, 218, 216, 1169
2880, 1035, 1180, 994, 1239
2881, 971, 897, 1080, 1149
2882, 244, 1145, 383, 1175
2883, 265, 263, 1053, 1299
2884, 187, 295, 81, 749
2885, 1006, 1184, 1182, 1303
2886, 527, 1054, 529, 1301
2887, 232, 1138, 234, 1193
2888, 1060, 1275, 1103, 1316
2889, 763, 1091, 723, 1314
2890, 652, 634, 536, 1209
2891, 643, 636, 584, 1264
2892, 895, 894, 893, 1086
2893, 930, 945, 1105, 1297
2894, 1044, 1310, 1050, 1320
2895, 1023, 994, 1180, 1239
2896, 895, 1154, 946, 1297
2897, 1092, 1255, 1045, 1324
2898, 249, 1289, 1025, 1339
2899, 955, 896, 971, 1281
2900, 567, 797, 163, 462
2901, 728, 810, 781, 1208
2902, 981, 1173, 1086, 1307
2903, 373, 397, 282, 1216
2904, 199, 302, 79, 798
2905, 1028, 1280, 1114, 1310
2906, 932, 931, 1096, 1142
2907, 223, 224, 225, 1160
2908, 1063, 1161, 994, 1273
2909, 1092, 1255, 520, 1329
2910, 1132, 1236, 1004, 1259
2911, 272, 216, 213, 1169
2912, 921, 923, 922, 1286
2913, 795, 801, 834, 1131
2914, 916, 1148, 956, 1236
2915, 1093, 1174, 1128, 1331
2916, 787, 758, 1082, 1298
2917, 229, 1220, 1099, 1342
2918, 214, 1170, 1064, 1256
2919, 1167, 1271, 1071, 1277
2920, 554, 572, 573, 1083
2921, 483, 481, 482, 1150
2922, 752, 1202, 1052, 1313
2923, 964, 878, 868, 1097
2924, 909, 1259, 1132, 1296
2925, 1061, 1104, 1312, 1317
2926, 965, 874, 867, 1098
2927, 1004, 1075, 1209, 1296
2928, 238, 239, 237, 1226
2929, 942, 1061, 878, 1237
2930, 911, 1217, 1031, 1281
2931, 847, 938, 878, 1061
2932, 980, 1116, 960, 1225
2933, 979, 1115, 959, 1224
2934, 846, 937, 874, 1060
2935, 1004, 1148, 1031, 1259
2936, 941, 1060, 874, 1238
2937, 1111, 1190, 790, 1260
2938, 189, 943, 19, 330
2939, 103, 944, 601, 451
2940, 1060, 1103, 1311, 1316
2941, 479, 475, 477, 1161
2942, 788, 809, 712, 1279
2943, 959, 429, 407, 1224
2944, 998, 1255, 1045, 1330
2945, 852, 1182, 922, 1303
2946, 614, 1183, 638, 1327
2947, 956, 1148, 1118, 1236
2948, 1047, 998, 1146, 1188
2949, 816, 1212, 1108, 1276
2950, 981, 1145, 1105, 1204
2951, 770, 769, 768, 1144
2952, 1073, 1201, 1047, 1286
2953, 596, 555, 1111, 1277
2954, 1036, 996, 1195, 1261
2955, 764, 1314, 808, 1326
2956, 643, 584, 1095, 1264
2957, 1026, 1001, 1219, 1256
2958, 639, 602, 628, 1142
2959, 912, 605, 116, 1296
2960, 660, 520, 1255, 1329
2961, 594, 534, 619, 1089
2962, 748, 839, 823, 1106
2963, 746, 840, 824, 1107
2964, 1021, 1160, 1305, 1328
2965, 715, 769, 771, 1144
2966, 347, 218, 1169, 1338
2967, 779, 780, 1263, 1288
2968, 29, 314, 196, 1148
2969, 1175, 1315, 1145, 1334
2970, 900, 902, 903, 1174
2971, 802, 828, 727, 1083
2972, 789, 726, 581, 157
2973, 564, 460, 799, 140
2974, 299, 800, 56, 198
2975, 573, 554, 1083, 1324
2976, 1029, 991, 1309, 1320
2977, 843, 1104, 892, 1205
2978, 834, 706, 1131, 1313
2979, 1035, 994, 1202, 1239
2980, 1112, 1152, 257, 1234
2981, 1001, 1197, 1042, 1207
2982, 1000, 1196, 1041, 1206
2983, 272, 1104, 375, 1169
2984, 935, 864, 607, 124
2985, 915, 855, 954, 1118
2986, 871, 857, 872, 1100
2987, 860, 876, 875, 1101
2988, 796, 1177, 833, 1284
2989, 578, 655, 654, 1085
2990, 1053, 1291, 1066, 1299
2991, 1000, 1053, 1196, 1218
2992, 1004, 1209, 1075, 1325
2993, 1066, 1199, 1094, 1291
2994, 1063, 1218, 1000, 1258
2995, 1001, 1054, 1197, 1219
2996, 413, 427, 428, 1106
2997, 521, 1092, 1157, 1324
2998, 690, 691, 674, 1107
2999, 1019, 1216, 1241, 1319
3000, 969, 952, 1148, 1259
3001, 790, 1111, 832, 1190
3002, 1010, 1115, 1098, 1336
3003, 799, 460, 471, 139
3004, 1011, 1116, 1097, 1335
3005, 438, 1041, 1244, 1294
3006, 1042, 1243, 701, 1293
3007, 443, 590, 592, 1091
3008, 478, 1168, 1063, 1258
3009, 466, 722, 166, 558
3010, 678, 625, 677, 1159
3011, 415, 361, 412, 1158
3012, 388, 1187, 258, 1321
3013, 82, 295, 202, 719
3014, 1066, 1196, 1053, 1299
3015, 1001, 1322, 1064, 1332
3016, 425, 430, 420, 1253
3017, 693, 683, 688, 1254
3018, 1091, 1213, 723, 1314
3019, 912, 116, 907, 1296
3020, 912, 913, 848, 1132
3021, 1004, 1259, 1075, 1296
3022, 415, 50, 363, 409
3023, 1005, 1147, 1081, 1302
3024, 678, 672, 134, 626
3025, 1002, 1077, 1128, 1216
3026, 1022, 1157, 1092, 1337
3027, 1088, 1263, 780, 1287
3028, 606, 448, 865, 1141
3029, 1054, 1001, 1197, 1322
3030, 882, 960, 980, 1116
3031, 726, 832, 790, 1111
3032, 1072, 1234, 988, 1261
3033, 849, 919, 918, 1229
3034, 959, 979, 884, 1115
3035, 993, 1139, 1050, 1310
3036, 246, 1109, 1175, 1334
3037, 515, 514, 516, 1191
3038, 1280, 1310, 1044, 1320
3039, 641, 553, 620, 1135
3040, 379, 291, 357, 1137
3041, 617, 475, 1161, 1249
3042, 1101, 1127, 1011, 1266
3043, 997, 1029, 1178, 1309
3044, 991, 1044, 1226, 1325
3045, 1038, 1179, 995, 1232
3046, 1100, 1126, 1010, 1267
3047, 772, 819, 1114, 1212
3048, 463, 600, 595, 1113
3049, 797, 727, 162, 462
3050, 221, 327, 1147, 1292
3051, 299, 708, 800, 1136
3052, 1067, 1001, 1246, 1322
3053, 565, 937, 102, 451
3054, 300, 938, 18, 189
3055, 768, 715, 153, 1144
3056, 955, 1242, 928, 1262
3057, 1047, 1188, 1146, 1290
3058, 604, 1209, 1075, 1296
3059, 829, 742, 1227, 1246
3060, 110, 861, 906, 1154
3061, 1068, 1319, 1231, 1331
3062, 278, 298, 262, 1272
3063, 932, 967, 931, 1142
3064, 718, 318, 821, 1114
3065, 786, 787, 1230, 1298
3066, 598, 559, 487, 1163
3067, 611, 561, 483, 1150
3068, 924, 119, 576, 863
3069, 516, 514, 543, 1304
3070, 494, 495, 493, 1140
3071, 540, 563, 526, 1270
3072, 925, 1085, 1233, 1283
3073, 1064, 1165, 995, 1274
3074, 515, 530, 513, 1191
3075, 272, 1104, 1169, 1312
3076, 780, 1287, 1263, 1288
3077, 991, 1226, 1044, 1320
3078, 739, 167, 733, 466
3079, 231, 230, 232, 1193
3080, 1081, 1147, 1005, 1292
3081, 782, 779, 1129, 1333
3082, 1000, 1106, 1199, 1200
3083, 119, 578, 576, 863
3084, 248, 246, 1109, 1289
3085, 555, 581, 596, 1111
3086, 1096, 1241, 1077, 1245
3087, 191, 844, 34, 311
3088, 1215, 1252, 1008, 1297
3089, 804, 1227, 1136, 1282
3090, 110, 452, 861, 1154
3091, 1001, 1064, 1256, 1332
3092, 786, 1230, 1279, 1298
3093, 1110, 1185, 570, 1329
3094, 246, 1175, 1109, 1289
3095, 995, 1301, 1067, 1322
3096, 517, 622, 1143, 1208
3097, 990, 1175, 1109, 1315
3098, 1087, 1064, 1322, 1332
3099, 1124, 1227, 741, 1282
3100, 903, 929, 927, 1128
3101, 50, 178, 363, 409
3102, 672, 441, 134, 626
3103, 344, 279, 234, 1138
3104, 1067, 1197, 1054, 1301
3105, 1024, 1000, 1218, 1258
3106, 1049, 989, 1198, 1284
3107, 987, 1040, 1169, 1337
3108, 779, 1263, 1129, 1288
3109, 791, 63, 186, 714
3110, 818, 580, 728, 1222
3111, 725, 199, 78, 798
3112, 599, 153, 715, 1144
3113, 49, 409, 422, 349
3114, 685, 616, 133, 672
3115, 843, 892, 973, 1205
3116, 939, 932, 1221, 1245
3117, 887, 1122, 1221, 1275
3118, 1040, 1166, 1147, 1302
3119, 996, 1261, 1123, 1319
3120, 822, 1028, 777, 1308
3121, 489, 491, 537, 1164
3122, 326, 794, 1088, 1263
3123, 772, 771, 769, 1212
3124, 879, 1210, 870, 1267
3125, 880, 1211, 869, 1266
3126, 887, 886, 1122, 1275
3127, 991, 1320, 1044, 1325
3128, 397, 256, 282, 1216
3129, 457, 581, 726, 157
3130, 429, 430, 407, 1224
3131, 671, 692, 693, 1225
3132, 768, 153, 463, 1144
3133, 507, 508, 509, 1300
3134, 862, 927, 929, 1128
3135, 625, 1211, 1159, 1266
3136, 330, 943, 20, 197
3137, 601, 944, 104, 459
3138, 989, 1232, 1084, 1337
3139, 361, 1210, 1158, 1267
3140, 958, 1174, 1142, 1245
3141, 535, 1103, 638, 1183
3142, 306, 259, 289, 1152
3143, 958, 902, 851, 1095
3144, 300, 17, 938, 201
3145, 565, 101, 937, 465
3146, 942, 892, 847, 1250
3147, 376, 347, 375, 1338
3148, 508, 653, 648, 1176
3149, 1122, 1187, 305, 1321
3150, 921, 922, 852, 1182
3151, 374, 378, 323, 1268
3152, 651, 524, 522, 1185
3153, 991, 1226, 1214, 1325
3154, 917, 918, 921, 1286
3155, 292, 307, 308, 1072
3156, 294, 355, 223, 1160
3157, 467, 656, 620, 1106
3158, 603, 116, 605, 1296
3159, 204, 393, 357, 1107
3160, 441, 133, 616, 672
3161, 409, 49, 178, 349
3162, 1087, 1246, 1001, 1322
3163, 308, 292, 1072, 1234
3164, 1012, 1122, 1275, 1316
3165, 878, 942, 847, 1061
3166, 1049, 1165, 1084, 1232
3167, 874, 941, 846, 1060
3168, 796, 802, 833, 1177
3169, 1091, 1279, 1007, 1323
3170, 974, 939, 932, 1221
3171, 220, 378, 222, 1166
3172, 1066, 1000, 1199, 1291
3173, 221, 327, 219, 1147
3174, 799, 738, 731, 1094
3175, 260, 258, 388, 1187
3176, 120, 448, 578, 953
3177, 194, 807, 315, 1326
3178, 186, 325, 63, 791
3179, 1096, 1221, 932, 1245
3180, 738, 731, 1094, 1199
3181, 890, 942, 877, 1250
3182, 999, 1271, 1071, 1328
3183, 1019, 1241, 1037, 1319
3184, 446, 569, 570, 1110
3185, 777, 1028, 822, 1269
3186, 338, 1130, 366, 1303
3187, 535, 1103, 1183, 1311
3188, 547, 1159, 1127, 1266
3189, 999, 1235, 1102, 1260
3190, 794, 780, 1088, 1263
3191, 285, 1158, 1126, 1267
3192, 1044, 1193, 993, 1310
3193, 473, 460, 1094, 1249
3194, 997, 1181, 1032, 1309
3195, 1077, 1221, 1096, 1245
3196, 716, 325, 354, 1133
3197, 445, 628, 1142, 1264
3198, 930, 972, 945, 1297
3199, 796, 1088, 780, 1287
3200, 871, 45, 297, 870
3201, 132, 470, 616, 685
3202, 523, 521, 522, 1157
3203, 869, 875, 562, 129
3204, 404, 1126, 285, 1158
3205, 987, 1250, 1110, 1317
3206, 349, 422, 48, 206
3207, 547, 667, 1127, 1159
3208, 1068, 1128, 1002, 1331
3209, 1193, 1235, 1028, 1342
3210, 191, 33, 945, 336
3211, 1079, 1183, 1037, 1306
3212, 218, 276, 1166, 1338
3213, 871, 872, 879, 1100
3214, 875, 876, 880, 1101
3215, 1013, 1110, 1250, 1317
3216, 29, 856, 314, 1148
3217, 936, 331, 40, 862
3218, 599, 463, 153, 1144
3219, 1058, 999, 1271, 1277
3220, 958, 1142, 967, 1245
3221, 992, 1134, 1057, 1265
3222, 598, 487, 489, 1163
3223, 192, 318, 319, 1114
3224, 1117, 1181, 1062, 1309
3225, 580, 579, 818, 159
3226, 561, 615, 481, 1150
3227, 1001, 1219, 1064, 1322
3228, 645, 643, 585, 1257
3229, 1052, 1161, 1079, 1239
3230, 281, 252, 250, 1162
3231, 429, 1115, 430, 1224
3232, 865, 920, 948, 1047
3233, 995, 1054, 1301, 1322
3234, 692, 1116, 693, 1225
3235, 184, 335, 368, 1217
3236, 741, 754, 753, 1124
3237, 861, 1252, 1154, 1257
3238, 900, 901, 902, 1203
3239, 935, 891, 858, 1110
3240, 493, 1140, 495, 1295
3241, 966, 1184, 925, 1283
3242, 905, 927, 38, 200
3243, 275, 248, 246, 1109
3244, 630, 458, 588, 1086
3245, 1057, 985, 1172, 1271
3246, 966, 1065, 1184, 1283
3247, 912, 1132, 605, 1296
3248, 316, 266, 317, 1189
3249, 988, 1239, 1079, 1306
3250, 370, 189, 372, 1312
3251, 1016, 1176, 1119, 1285
3252, 633, 451, 635, 1311
3253, 1028, 1193, 1280, 1310
3254, 796, 705, 1088, 1284
3255, 206, 422, 48, 411
3256, 272, 213, 346, 1312
3257, 676, 470, 132, 685
3258, 1002, 1128, 1077, 1245
3259, 535, 477, 613, 1311
3260, 291, 1137, 286, 1256
3261, 917, 921, 1182, 1286
3262, 981, 1149, 1086, 1173
3263, 1214, 1226, 1044, 1325
3264, 1002, 1241, 1096, 1245
3265, 994, 1180, 1125, 1299
3266, 1078, 1146, 998, 1188
3267, 223, 1160, 355, 1292
3268, 979, 1224, 879, 1336
3269, 980, 1225, 880, 1335
3270, 985, 1271, 1058, 1285
3271, 936, 887, 859, 1122
3272, 943, 847, 892, 1104
3273, 944, 846, 888, 1103
3274, 572, 162, 727, 462
3275, 394, 395, 281, 1093
3276, 804, 742, 1136, 1227
3277, 790, 775, 789, 1111
3278, 246, 275, 1109, 1334
3279, 995, 1179, 1124, 1301
3280, 354, 815, 716, 1102
3281, 998, 1045, 1302, 1330
3282, 1007, 1164, 1091, 1323
3283, 249, 1189, 1289, 1339
3284, 635, 638, 535, 1103
3285, 639, 614, 638, 1327
3286, 220, 218, 276, 1166
3287, 505, 556, 1139, 1300
3288, 1078, 987, 1329, 1330
3289, 365, 276, 376, 1338
3290, 872, 879, 1100, 1336
3291, 876, 880, 1101, 1335
3292, 277, 217, 219, 1198
3293, 557, 463, 1144, 1278
3294, 517, 573, 622, 1208
3295, 517, 515, 516, 1143
3296, 509, 1277, 596, 1300
3297, 726, 818, 457, 158
3298, 177, 286, 291, 1137
3299, 424, 410, 641, 1135
3300, 687, 673, 379, 1137
3301, 375, 272, 372, 1104
3302, 901, 1095, 902, 1203
3303, 846, 888, 1103, 1275
3304, 356, 362, 188, 1223
3305, 888, 845, 1103, 1221
3306, 571, 523, 551, 1157
3307, 250, 248, 343, 1162
3308, 987, 1330, 1040, 1337
3309, 635, 1103, 535, 1311
3310, 651, 1185, 522, 1329
3311, 239, 240, 241, 1178
3312, 297, 870, 203, 1267
3313, 562, 869, 468, 1266
3314, 372, 1104, 272, 1312
3315, 853, 1242, 908, 1296
3316, 803, 707, 752, 1202
3317, 768, 773, 770, 1113
3318, 603, 907, 116, 1296
3319, 1113, 1144, 1003, 1269
3320, 373, 182, 305, 1321
3321, 995, 1136, 1087, 1227
3322, 513, 511, 512, 1167
3323, 521, 520, 522, 1092
3324, 779, 778, 782, 1129
3325, 953, 865, 448, 1141
3326, 274, 354, 325, 1133
3327, 821, 730, 772, 1212
3328, 579, 457, 818, 158
3329, 774, 770, 773, 1113
3330, 1053, 994, 1273, 1291
3331, 1004, 1209, 1132, 1296
3332, 388, 305, 1187, 1321
3333, 309, 395, 396, 1128
3334, 779, 1288, 1129, 1333
3335, 224, 374, 268, 1134
3336, 1091, 1164, 1007, 1230
3337, 182, 304, 305, 1122
3338, 716, 791, 325, 1133
3339, 1095, 1203, 947, 1257
3340, 794, 59, 326, 345
3341, 1035, 1202, 1052, 1239
3342, 257, 258, 259, 1152
3343, 1127, 1159, 1011, 1266
3344, 951, 855, 915, 1118
3345, 953, 578, 120, 863
3346, 1004, 1132, 1259, 1296
3347, 1126, 1158, 1010, 1267
3348, 1058, 1277, 509, 1300
3349, 484, 640, 486, 1194
3350, 981, 1204, 1039, 1251
3351, 445, 584, 628, 1264
3352, 750, 749, 737, 1125
3353, 1088, 1198, 989, 1284
3354, 307, 199, 78, 725
3355, 1092, 1329, 987, 1330
3356, 547, 625, 1159, 1266
3357, 285, 361, 1158, 1267
3358, 779, 711, 1129, 1263
3359, 1001, 1137, 1107, 1332
3360, 392, 391, 1215, 1334
3361, 352, 1171, 293, 1326
3362, 770, 1113, 774, 1308
3363, 1136, 1227, 995, 1282
3364, 946, 895, 906, 1154
3365, 624, 733, 167, 466
3366, 1002, 1194, 1037, 1319
3367, 900, 903, 905, 1093
3368, 896, 955, 928, 1262
3369, 962, 1210, 879, 1224
3370, 880, 961, 1211, 1225
3371, 820, 790, 831, 1260
3372, 651, 570, 1185, 1329
3373, 323, 1182, 380, 1268
3374, 780, 796, 794, 1088
3375, 1036, 1195, 1072, 1261
3376, 923, 950, 1141, 1286
3377, 991, 1050, 1320, 1325
3378, 511, 509, 510, 1167
3379, 268, 1134, 374, 1268
3380, 355, 1129, 195, 1263
3381, 1102, 1260, 1235, 1308
3382, 1154, 1252, 946, 1297
3383, 1077, 1216, 1002, 1241
3384, 646, 452, 1154, 1257
3385, 833, 755, 756, 1284
3386, 455, 634, 605, 1132
3387, 801, 725, 798, 1155
3388, 1006, 1201, 1073, 1286
3389, 600, 505, 556, 1139
3390, 365, 376, 333, 1229
3391, 894, 896, 850, 1262
3392, 1021, 1333, 1129, 1341
3393, 762, 1213, 761, 1340
3394, 181, 323, 365, 1229
3395, 1044, 1320, 1050, 1325
3396, 1279, 1314, 1027, 1323
3397, 108, 957, 585, 583
3398, 28, 196, 339, 951
3399, 1002, 1319, 1068, 1331
3400, 1032, 1181, 1117, 1309
3401, 894, 1149, 896, 1262
3402, 1012, 1238, 1060, 1275
3403, 628, 539, 639, 1327
3404, 1231, 1319, 1059, 1331
3405, 1091, 1314, 1279, 1323
3406, 904, 899, 898, 1215
3407, 508, 648, 510, 1176
3408, 996, 1082, 1163, 1318
3409, 457, 582, 579, 1222
3410, 1113, 1139, 1003, 1278
3411, 482, 539, 1194, 1327
3412, 650, 533, 631, 1192
3413, 490, 492, 491, 1153
3414, 793, 461, 612, 143
3415, 957, 851, 902, 1095
3416, 259, 261, 289, 1180
3417, 984, 1186, 1051, 1240
3418, 913, 1132, 909, 1236
3419, 984, 1186, 1095, 1331
3420, 1028, 1269, 777, 1308
3421, 892, 843, 943, 1104
3422, 888, 845, 944, 1103
3423, 794, 796, 705, 1088
3424, 987, 1104, 1205, 1250
3425, 329, 274, 325, 1133
3426, 677, 1159, 625, 1211
3427, 412, 1158, 361, 1210
3428, 271, 310, 233, 1280
3429, 523, 525, 551, 1179
3430, 784, 1222, 728, 1333
3431, 986, 1112, 1187, 1321
3432, 986, 1241, 1037, 1306
3433, 1055, 1191, 1090, 1304
3434, 205, 675, 403, 1116
3435, 414, 666, 469, 1115
3436, 618, 467, 620, 1106
3437, 204, 357, 351, 1107
3438, 400, 401, 303, 1247
3439, 663, 664, 568, 1248
3440, 487, 1163, 559, 1318
3441, 328, 355, 294, 1129
3442, 1087, 1001, 1246, 1332
3443, 229, 230, 231, 1099
3444, 408, 427, 97, 704
3445, 175, 670, 690, 703
3446, 1002, 1174, 1142, 1264
3447, 1135, 1200, 1000, 1258
3448, 1009, 1213, 1089, 1295
3449, 775, 1111, 790, 1260
3450, 783, 1133, 831, 1190
3451, 530, 579, 582, 1222
3452, 315, 293, 194, 1326
3453, 1058, 1176, 985, 1285
3454, 987, 1205, 1110, 1250
3455, 509, 1167, 511, 1277
3456, 1023, 1152, 1112, 1306
3457, 322, 380, 323, 1182
3458, 1037, 1241, 1002, 1319
3459, 333, 21, 933, 197
3460, 1104, 1250, 987, 1317
3461, 387, 1214, 1151, 1226
3462, 33, 949, 945, 336
3463, 1008, 1145, 1315, 1334
3464, 576, 578, 654, 1233
3465, 258, 257, 256, 1112
3466, 738, 803, 737, 1202
3467, 396, 282, 309, 1216
3468, 778, 779, 711, 1129
3469, 861, 946, 1154, 1252
3470, 581, 555, 457, 1111
3471, 841, 171, 671, 692
3472, 765, 762, 761, 1340
3473, 856, 969, 952, 1148
3474, 180, 315, 807, 1326
3475, 465, 629, 627, 1098
3476, 544, 660, 520, 1255
3477, 657, 658, 543, 1304
3478, 201, 367, 364, 1097
3479, 295, 1125, 301, 1299
3480, 1068, 1162, 984, 1231
3481, 545, 547, 667, 1127
3482, 404, 283, 285, 1126
3483, 1129, 1263, 355, 1292
3484, 339, 196, 385, 1118
3485, 340, 70, 811, 341
3486, 743, 734, 826, 1294
3487, 733, 825, 744, 1293
3488, 1133, 1305, 1220, 1328
3489, 336, 32, 949, 334
3490, 751, 798, 721, 1155
3491, 328, 195, 355, 1129
3492, 546, 563, 661, 1270
3493, 1107, 1246, 1001, 1332
3494, 31, 184, 910, 1217
3495, 687, 682, 696, 1137
3496, 433, 424, 419, 1135
3497, 924, 925, 863, 1233
3498, 821, 192, 69, 340
3499, 999, 1190, 1111, 1260
3500, 926, 966, 855, 1065
3501, 1186, 1264, 1095, 1331
3502, 729, 786, 787, 1230
3503, 77, 812, 307, 725
3504, 232, 344, 234, 1138
3505, 728, 781, 814, 1288
3506, 1142, 1194, 1002, 1264
3507, 1069, 1140, 1009, 1295
3508, 1012, 1275, 1060, 1316
3509, 591, 598, 537, 1230
3510, 362, 1156, 1223, 1339
3511, 593, 1213, 575, 1295
3512, 966, 954, 1065, 1283
3513, 366, 381, 268, 1130
3514, 1073, 1201, 1006, 1268
3515, 183, 354, 321, 1102
3516, 646, 645, 452, 1257
3517, 652, 1209, 604, 1296
3518, 366, 338, 381, 1130
3519, 484, 482, 539, 1194
3520, 194, 807, 73, 315
3521, 398, 284, 298, 1272
3522, 602, 105, 931, 459
3523, 460, 472, 473, 1094
3524, 192, 68, 318, 821
3525, 763, 809, 1279, 1314
3526, 491, 592, 537, 1164
3527, 1063, 1000, 1200, 1258
3528, 196, 956, 29, 1148
3529, 450, 573, 572, 1208
3530, 909, 1132, 912, 1296
3531, 730, 816, 772, 1212
3532, 950, 920, 1047, 1286
3533, 282, 254, 309, 1216
3534, 582, 555, 511, 1277
3535, 395, 200, 396, 1128
3536, 970, 863, 925, 1085
3537, 934, 973, 940, 1205
3538, 566, 558, 1124, 1301
3539, 353, 239, 269, 1178
3540, 664, 570, 569, 1110
3541, 1059, 1002, 1194, 1264
3542, 934, 963, 919, 1146
3543, 1067, 1227, 1087, 1246
3544, 243, 245, 352, 1171
3545, 215, 217, 348, 1198
3546, 1006, 1130, 1134, 1265
3547, 317, 75, 817, 356
3548, 560, 474, 472, 1200
3549, 341, 71, 811, 180
3550, 422, 417, 421, 1206
3551, 684, 685, 680, 1207
3552, 799, 471, 731, 139
3553, 1004, 1050, 1209, 1325
3554, 183, 1102, 321, 1342
3555, 359, 364, 205, 1116
3556, 871, 879, 870, 1267
3557, 1129, 1160, 1021, 1341
3558, 327, 355, 1263, 1292
3559, 875, 880, 869, 1266
3560, 858, 891, 890, 1110
3561, 623, 627, 469, 1115
3562, 765, 1276, 767, 1340
3563, 77, 812, 188, 307
3564, 1008, 1076, 1215, 1334
3565, 789, 726, 790, 1111
3566, 72, 807, 180, 315
3567, 1089, 1213, 1009, 1340
3568, 861, 968, 1252, 1257
3569, 845, 932, 931, 1096
3570, 995, 1067, 1227, 1322
3571, 505, 507, 556, 1300
3572, 1078, 1188, 998, 1330
3573, 945, 844, 34, 191
3574, 618, 472, 471, 1200
3575, 359, 205, 403, 1116
3576, 269, 1178, 241, 1228
3577, 623, 469, 666, 1115
3578, 566, 1179, 527, 1301
3579, 229, 1099, 231, 1342
3580, 1052, 1202, 1035, 1313
3581, 1067, 1246, 1087, 1322
3582, 245, 293, 352, 1171
3583, 1000, 1063, 1200, 1291
3584, 655, 657, 609, 1141
3585, 263, 301, 1180, 1299
3586, 694, 841, 671, 1225
3587, 431, 842, 407, 1224
3588, 1084, 1169, 1040, 1337
3589, 992, 1160, 1081, 1341
3590, 383, 1145, 312, 1334
3591, 1002, 1264, 1059, 1331
3592, 243, 1171, 352, 1228
3593, 810, 450, 161, 572
3594, 664, 540, 651, 1185
3595, 560, 1200, 553, 1258
3596, 1019, 1216, 1112, 1241
3597, 984, 1059, 1186, 1331
3598, 584, 583, 643, 1095
3599, 965, 1098, 867, 1336
3600, 868, 964, 1097, 1335
3601, 999, 1057, 1220, 1271
3602, 784, 783, 1190, 1333
3603, 1235, 1260, 1018, 1308
3604, 915, 1236, 1118, 1283
3605, 227, 1220, 329, 1305
3606, 941, 1238, 873, 1275
3607, 227, 274, 329, 1220
3608, 249, 1189, 316, 1289
3609, 318, 271, 319, 1114
3610, 387, 236, 1214, 1226
3611, 395, 394, 332, 1093
3612, 1005, 1081, 1292, 1341
3613, 292, 257, 1152, 1234
3614, 909, 969, 916, 1259
3615, 1006, 1130, 1184, 1303
3616, 456, 661, 663, 1270
3617, 557, 600, 463, 1278
3618, 362, 251, 1156, 1339
3619, 339, 385, 384, 1118
3620, 1025, 1289, 1189, 1339
3621, 859, 887, 886, 1122
3622, 606, 657, 448, 1141
3623, 727, 810, 161, 572
3624, 1028, 1102, 1235, 1308
3625, 319, 1114, 271, 1280
3626, 920, 918, 919, 1146
3627, 426, 408, 704, 1244
3628, 703, 689, 670, 1243
3629, 45, 203, 297, 870
3630, 617, 473, 475, 1249
3631, 562, 468, 869, 129
3632, 527, 566, 525, 1179
3633, 456, 663, 1248, 1270
3634, 690, 670, 691, 1243
3635, 428, 427, 408, 1244
3636, 991, 1151, 1214, 1226
3637, 135, 678, 626, 625
3638, 242, 240, 273, 1204
3639, 415, 363, 51, 361
3640, 891, 890, 1110, 1250
3641, 1188, 1255, 998, 1330
3642, 401, 278, 388, 1187
3643, 990, 1140, 1153, 1164
3644, 868, 938, 17, 201
3645, 867, 937, 101, 465
3646, 398, 400, 193, 1272
3647, 518, 1188, 544, 1255
3648, 261, 263, 301, 1180
3649, 943, 843, 20, 197
3650, 944, 845, 104, 459
3651, 909, 913, 912, 1132
3652, 1096, 1142, 1002, 1245
3653, 986, 1077, 1241, 1321
3654, 225, 226, 227, 1305
3655, 920, 865, 950, 1047
3656, 848, 914, 924, 1233
3657, 998, 1081, 1166, 1302
3658, 225, 294, 1160, 1305
3659, 414, 423, 430, 1115
3660, 31, 334, 184, 1217
3661, 473, 564, 460, 1249
3662, 544, 518, 574, 1188
3663, 693, 675, 686, 1116
3664, 400, 1247, 193, 1272
3665, 1001, 1054, 1219, 1322
3666, 814, 784, 728, 1333
3667, 1002, 1059, 1194, 1319
3668, 593, 575, 534, 1295
3669, 325, 354, 64, 716
3670, 628, 640, 1194, 1264
3671, 604, 447, 603, 1296
3672, 997, 1062, 1181, 1309
3673, 788, 1074, 813, 1298
3674, 770, 1269, 1113, 1308
3675, 717, 788, 817, 1074
3676, 198, 209, 299, 1136
3677, 1065, 1184, 1130, 1303
3678, 1038, 1049, 1232, 1282
3679, 1078, 1255, 1188, 1330
3680, 891, 1110, 1205, 1250
3681, 362, 1156, 253, 1223
3682, 996, 1223, 1195, 1261
3683, 284, 283, 264, 1126
3684, 678, 677, 688, 1159
3685, 425, 415, 412, 1158
3686, 999, 1133, 1220, 1328
3687, 828, 802, 796, 1287
3688, 545, 528, 546, 1127
3689, 521, 1157, 571, 1324
3690, 1002, 1077, 1241, 1245
3691, 605, 1132, 652, 1296
3692, 590, 785, 147, 1230
3693, 1078, 1255, 1092, 1329
3694, 866, 949, 32, 334
3695, 1129, 1333, 1288, 1341
3696, 716, 820, 831, 1133
3697, 1169, 1312, 1104, 1317
3698, 292, 257, 306, 1152
3699, 242, 243, 241, 1228
3700, 471, 467, 747, 138
3701, 207, 745, 54, 204
3702, 29, 956, 856, 1148
3703, 708, 804, 1136, 1282
3704, 1128, 1174, 1002, 1331
3705, 947, 902, 901, 1095
3706, 505, 1139, 600, 1278
3707, 649, 1173, 588, 1262
3708, 1008, 1215, 1076, 1252
3709, 59, 794, 705, 345
3710, 256, 257, 255, 1234
3711, 227, 1057, 1220, 1305
3712, 866, 31, 910, 1217
3713, 191, 312, 371, 1105
3714, 67, 320, 318, 718
3715, 1003, 1144, 1113, 1278
3716, 1109, 1175, 990, 1289
3717, 911, 971, 1217, 1281
3718, 708, 742, 800, 1136
3719, 60, 326, 195, 1263
3720, 841, 170, 694, 671
3721, 842, 86, 431, 407
3722, 484, 485, 483, 1123
3723, 968, 1203, 899, 1252
3724, 657, 609, 1141, 1304
3725, 987, 1169, 1104, 1317
3726, 387, 1151, 238, 1226
3727, 1071, 1190, 999, 1328
3728, 269, 241, 342, 1228
3729, 706, 793, 612, 143
3730, 174, 670, 703, 689
3731, 96, 408, 704, 426
3732, 1049, 756, 1282, 1284
3733, 791, 325, 64, 716
3734, 249, 316, 247, 1289
3735, 1054, 995, 1274, 1322
3736, 985, 1057, 1265, 1271
3737, 763, 1279, 1091, 1314
3738, 993, 1193, 1099, 1235
3739, 1031, 1075, 1259, 1281
3740, 746, 744, 840, 1246
3741, 1021, 1305, 1133, 1328
3742, 986, 1187, 1122, 1321
3743, 750, 737, 803, 1202
3744, 869, 880, 961, 1211
3745, 870, 879, 962, 1210
3746, 729, 147, 785, 1230
3747, 506, 536, 653, 1119
3748, 678, 688, 679, 1159
3749, 416, 415, 425, 1158
3750, 24, 917, 852, 1182
3751, 227, 228, 229, 1220
3752, 401, 305, 304, 1122
3753, 256, 254, 282, 1216
3754, 829, 742, 740, 1227
3755, 337, 190, 26, 855
3756, 424, 433, 410, 1135
3757, 588, 1173, 642, 1307
3758, 1002, 1174, 1264, 1331
3759, 696, 673, 687, 1137
3760, 1044, 1280, 1193, 1310
3761, 1112, 1241, 1216, 1321
3762, 888, 974, 845, 1221
3763, 819, 718, 1114, 1269
3764, 326, 60, 794, 1263
3765, 557, 501, 503, 1278
3766, 606, 122, 464, 865
3767, 740, 744, 829, 1246
3768, 1017, 1242, 1075, 1281
3769, 861, 968, 946, 1252
3770, 688, 679, 1159, 1254
3771, 425, 416, 1158, 1253
3772, 978, 960, 881, 1116
3773, 977, 959, 883, 1115
3774, 253, 362, 251, 1156
3775, 972, 904, 844, 1215
3776, 266, 1189, 249, 1339
3777, 588, 642, 647, 1307
3778, 1073, 1268, 1006, 1286
3779, 65, 354, 815, 716
3780, 821, 772, 718, 1114
3781, 1092, 1255, 1078, 1330
3782, 843, 933, 21, 197
3783, 322, 917, 24, 1182
3784, 100, 623, 883, 465
3785, 881, 16, 359, 201
3786, 24, 852, 324, 1182
3787, 999, 1220, 1057, 1328
3788, 380, 1182, 324, 1303
3789, 675, 205, 13, 369
3790, 315, 180, 352, 1326
3791, 784, 1190, 1222, 1333
3792, 1059, 1264, 1186, 1331
3793, 1125, 1180, 301, 1299
3794, 575, 493, 495, 1295
3795, 928, 114, 589, 1242
3796, 755, 754, 756, 1282
3797, 327, 355, 195, 1263
3798, 987, 1185, 1110, 1329
3799, 845, 931, 105, 459
3800, 464, 123, 607, 1290
3801, 986, 1241, 1112, 1321
3802, 57, 805, 708, 299
3803, 707, 806, 564, 141
3804, 35, 313, 311, 1215
3805, 892, 1205, 1104, 1250
3806, 1132, 1209, 652, 1296
3807, 834, 752, 706, 1313
3808, 106, 851, 445, 602
3809, 635, 601, 638, 1103
3810, 897, 894, 930, 1149
3811, 823, 747, 748, 1106
3812, 793, 795, 706, 1131
3813, 824, 745, 746, 1107
3814, 274, 229, 321, 1220
3815, 625, 135, 678, 677
3816, 412, 415, 51, 361
3817, 236, 234, 279, 1214
3818, 372, 330, 375, 1104
3819, 224, 268, 226, 1134
3820, 316, 249, 266, 1189
3821, 28, 196, 951, 956
3822, 1183, 1311, 1103, 1316
3823, 1059, 984, 1231, 1331
3824, 855, 27, 337, 951
3825, 868, 1097, 882, 1335
3826, 884, 867, 1098, 1336
3827, 957, 947, 108, 585
3828, 1124, 1179, 566, 1301
3829, 417, 418, 419, 1206
3830, 680, 681, 682, 1207
3831, 681, 683, 695, 1254
3832, 432, 418, 420, 1253
3833, 1158, 1210, 1010, 1267
3834, 1159, 1211, 1011, 1266
3835, 31, 866, 334, 1217
3836, 1100, 1238, 872, 1336
3837, 447, 589, 114, 1242
3838, 1101, 1237, 876, 1335
3839, 851, 445, 602, 1142
3840, 839, 743, 826, 1244
3841, 840, 744, 825, 1243
3842, 776, 822, 777, 1308
3843, 1045, 1255, 1092, 1330
3844, 1067, 1301, 1054, 1322
3845, 591, 590, 147, 1230
3846, 1002, 1174, 1128, 1245
3847, 741, 1227, 804, 1282
3848, 986, 1183, 1103, 1316
3849, 232, 234, 233, 1193
3850, 1057, 1271, 999, 1328
3851, 926, 26, 190, 855
3852, 485, 487, 559, 1318
3853, 1021, 1133, 1190, 1328
3854, 19, 847, 943, 189
3855, 881, 960, 882, 1116
3856, 944, 103, 846, 451
3857, 554, 521, 571, 1324
3858, 959, 884, 883, 1115
3859, 769, 770, 819, 1269
3860, 231, 1099, 1193, 1342
3861, 324, 322, 24, 1182
3862, 1060, 1311, 1015, 1316
3863, 1002, 1059, 1319, 1331
3864, 1061, 1312, 1014, 1317
3865, 818, 728, 580, 159
3866, 800, 56, 708, 299
3867, 799, 707, 564, 140
3868, 758, 760, 759, 1195
3869, 708, 804, 742, 1136
3870, 591, 147, 729, 1230
3871, 225, 294, 223, 1160
3872, 35, 898, 313, 1215
3873, 60, 195, 711, 1263
3874, 933, 934, 919, 1229
3875, 1195, 1223, 1072, 1261
3876, 987, 1092, 1330, 1337
3877, 452, 861, 1154, 1257
3878, 923, 950, 865, 1141
3879, 1160, 1292, 1081, 1341
3880, 753, 722, 741, 1124
3881, 686, 675, 13, 369
3882, 265, 287, 263, 1299
3883, 288, 287, 265, 1196
3884, 549, 529, 550, 1197
3885, 737, 749, 719, 1125
3886, 717, 813, 788, 1074
3887, 524, 651, 540, 1185
3888, 760, 827, 759, 1195
3889, 965, 872, 1238, 1336
3890, 527, 529, 549, 1301
3891, 380, 324, 366, 1303
3892, 464, 948, 123, 1290
3893, 864, 963, 940, 1290
3894, 964, 876, 1237, 1335
3895, 1129, 1292, 1160, 1341
3896, 60, 711, 794, 1263
3897, 1129, 1263, 1005, 1288
3898, 884, 965, 867, 1336
3899, 868, 882, 964, 1335
3900, 847, 18, 938, 189
3901, 846, 102, 937, 451
3902, 844, 35, 311, 1215
3903, 183, 66, 815, 822
3904, 514, 513, 512, 1191
3905, 957, 107, 851, 445
3906, 1137, 1256, 291, 1332
3907, 352, 293, 315, 1326
3908, 958, 929, 1174, 1245
3909, 194, 712, 807, 1326
3910, 899, 968, 901, 1203
3911, 299, 209, 350, 1136
3912, 428, 421, 419, 1206
3913, 691, 684, 682, 1207
3914, 1087, 1227, 1067, 1322
3915, 853, 908, 907, 1296
3916, 658, 659, 574, 1188
3917, 604, 631, 447, 1242
3918, 295, 187, 301, 1125
3919, 728, 810, 450, 160
3920, 652, 644, 604, 1209
3921, 589, 928, 1242, 1262
3922, 630, 646, 586, 1154
3923, 948, 464, 122, 865
3924, 745, 54, 732, 207
3925, 747, 731, 471, 138
3926, 1006, 1268, 1182, 1286
3927, 962, 879, 979, 1224
3928, 880, 980, 961, 1225
3929, 1068, 1231, 984, 1331
3930, 278, 260, 388, 1187
3931, 183, 321, 310, 1342
3932, 1005, 1292, 1129, 1341
3933, 1005, 1263, 1088, 1287
3934, 1073, 1182, 1268, 1286
3935, 450, 580, 728, 160
3936, 1203, 1252, 968, 1257
3937, 1000, 1200, 1199, 1291
3938, 1007, 1279, 1230, 1298
3939, 442, 564, 617, 1249
3940, 819, 718, 772, 1114
3941, 66, 183, 320, 822
3942, 999, 1190, 1133, 1328
3943, 1117, 1309, 991, 1320
3944, 779, 780, 711, 1263
3945, 986, 1112, 1241, 1306
3946, 1263, 1287, 1005, 1288
3947, 177, 12, 369, 673
3948, 649, 588, 587, 1262
3949, 247, 1175, 246, 1289
3950, 228, 381, 377, 1172
3951, 1103, 1221, 986, 1316
3952, 886, 941, 873, 1275
3953, 1063, 1273, 994, 1291
3954, 816, 771, 772, 1212
3955, 634, 652, 605, 1132
3956, 546, 547, 545, 1127
3957, 285, 283, 284, 1126
3958, 1216, 1241, 1077, 1321
3959, 752, 750, 1202, 1313
3960, 392, 275, 391, 1334
3961, 1095, 1264, 1174, 1331
3962, 928, 853, 114, 1242
3963, 971, 896, 897, 1149
3964, 449, 566, 558, 1124
3965, 608, 619, 499, 1181
3966, 502, 500, 650, 1192
3967, 950, 918, 920, 1286
3968, 1210, 1224, 1010, 1267
3969, 748, 830, 743, 1199
3970, 1211, 1225, 1011, 1266
3971, 517, 622, 515, 1143
3972, 389, 335, 334, 1217
3973, 853, 447, 114, 1242
3974, 149, 723, 443, 1213
3975, 391, 313, 392, 1215
3976, 368, 387, 279, 1214
3977, 738, 830, 731, 1199
3978, 751, 834, 801, 1313
3979, 925, 966, 970, 1184
3980, 1009, 1213, 1091, 1314
3981, 427, 823, 97, 704
3982, 175, 690, 824, 703
3983, 765, 766, 767, 1276
3984, 383, 390, 312, 1145
3985, 196, 314, 386, 1148
3986, 492, 490, 610, 1153
3987, 560, 618, 553, 1200
3988, 915, 914, 1236, 1283
3989, 342, 243, 352, 1228
3990, 35, 844, 898, 1215
3991, 1064, 1274, 995, 1322
3992, 920, 1146, 963, 1290
3993, 16, 881, 868, 201
3994, 867, 100, 883, 465
3995, 434, 402, 206, 1294
3996, 665, 470, 698, 1293
3997, 387, 238, 236, 1226
3998, 273, 371, 390, 1204
3999, 952, 1259, 908, 1281
4000, 641, 90, 424, 620
4001, 379, 357, 10, 687
4002, 507, 509, 596, 1300
4003, 907, 909, 912, 1296
4004, 231, 1193, 233, 1342
4005, 761, 723, 149, 1213
4006, 1078, 1329, 1092, 1330
4007, 123, 864, 607, 1290
4008, 397, 388, 258, 1321
4009, 995, 1227, 1087, 1322
4010, 171, 841, 960, 692
4011, 851, 106, 931, 602
4012, 580, 622, 450, 1208
4013, 710, 767, 811, 1070
4014, 791, 831, 783, 1133
4015, 1002, 1142, 1174, 1245
4016, 717, 76, 812, 188
4017, 761, 149, 593, 1213
4018, 767, 1070, 808, 1340
4019, 990, 1140, 1164, 1323
4020, 657, 655, 448, 1141
4021, 758, 813, 760, 1195
4022, 903, 958, 929, 1174
4023, 602, 931, 851, 1142
4024, 901, 968, 947, 1203
4025, 1001, 1087, 1322, 1332
4026, 852, 25, 324, 1303
4027, 335, 382, 387, 1151
4028, 577, 455, 576, 1233
4029, 751, 801, 1155, 1313
4030, 1037, 1194, 1123, 1319
4031, 296, 291, 1256, 1332
4032, 730, 811, 767, 1108
4033, 694, 961, 841, 1225
4034, 431, 962, 842, 1224
4035, 426, 704, 826, 1244
4036, 825, 689, 703, 1243
4037, 754, 741, 804, 1282
4038, 468, 1211, 625, 1266
4039, 365, 378, 276, 1166
4040, 203, 1210, 361, 1267
4041, 762, 723, 1213, 1314
4042, 1099, 1235, 1193, 1342
4043, 1048, 1154, 1252, 1257
4044, 1005, 1263, 1129, 1292
4045, 797, 755, 802, 1177
4046, 557, 463, 599, 1144
4047, 816, 1108, 767, 1276
4048, 712, 809, 764, 1326
4049, 180, 807, 710, 1326
4050, 245, 246, 247, 1175
4051, 1138, 1214, 1044, 1325
4052, 846, 941, 888, 1275
4053, 1101, 1248, 1237, 1270
4054, 190, 338, 366, 1303
4055, 708, 756, 804, 1282
4056, 913, 909, 916, 1236
4057, 1100, 1247, 1238, 1272
4058, 966, 954, 855, 1065
4059, 149, 443, 593, 1213
4060, 1058, 1271, 1167, 1277
4061, 123, 948, 864, 1290
4062, 928, 589, 113, 1262
4063, 925, 1233, 914, 1283
4064, 12, 686, 369, 673
4065, 776, 1260, 1102, 1308
4066, 628, 640, 539, 1194
4067, 1091, 1230, 1007, 1279
4068, 208, 351, 296, 1332
4069, 248, 247, 246, 1289
4070, 762, 763, 723, 1314
4071, 1103, 1275, 1221, 1316
4072, 717, 817, 75, 356
4073, 852, 926, 25, 1303
4074, 229, 231, 321, 1342
4075, 188, 717, 76, 356
4076, 70, 811, 730, 340
4077, 718, 777, 822, 1269
4078, 440, 553, 641, 1135
4079, 379, 177, 291, 1137
4080, 603, 605, 652, 1296
4081, 1123, 1194, 1059, 1319
4082, 1028, 1235, 1102, 1342
4083, 665, 835, 733, 1293
4084, 734, 402, 836, 1294
4085, 1129, 1288, 1005, 1341
4086, 347, 272, 375, 1169
4087, 547, 468, 625, 1266
4088, 712, 807, 73, 194
4089, 831, 790, 832, 1190
4090, 939, 974, 887, 1221
4091, 285, 203, 361, 1267
4092, 434, 206, 411, 1294
4093, 698, 470, 676, 1293
4094, 235, 236, 237, 1226
4095, 47, 206, 434, 402
4096, 665, 698, 470, 131
4097, 710, 808, 767, 1070
4098, 902, 947, 957, 1095
4099, 979, 959, 842, 1224
4100, 980, 960, 841, 1225
4101, 968, 947, 1203, 1257
4102, 620, 90, 424, 413
4103, 357, 674, 10, 687
4104, 52, 412, 405, 436
4105, 699, 677, 136, 668
4106, 966, 925, 954, 1283
4107, 730, 821, 69, 340
4108, 787, 813, 758, 1298
4109, 914, 925, 924, 1233
4110, 113, 850, 928, 1262
4111, 1006, 1201, 1134, 1268
4112, 113, 587, 850, 1262
4113, 566, 549, 558, 1301
4114, 287, 295, 301, 1299
4115, 710, 811, 71, 180
4116, 587, 113, 589, 1262
4117, 970, 923, 953, 1141
4118, 825, 174, 703, 689
4119, 426, 704, 96, 826
4120, 1146, 1188, 1078, 1290
4121, 438, 1244, 426, 1294
4122, 689, 701, 1243, 1293
4123, 694, 961, 170, 841
4124, 431, 962, 86, 842
4125, 752, 750, 803, 1202
4126, 807, 710, 72, 180
4127, 718, 318, 68, 821
4128, 1237, 1248, 1013, 1270
4129, 955, 908, 1242, 1281
4130, 699, 677, 668, 1211
4131, 436, 412, 405, 1210
4132, 1238, 1247, 1012, 1272
4133, 956, 916, 969, 1148
4134, 776, 820, 1102, 1260
4135, 597, 611, 559, 1318
4136, 832, 784, 783, 1190
4137, 819, 777, 718, 1269
4138, 786, 1279, 788, 1298
4139, 504, 644, 536, 1209
4140, 228, 377, 230, 1172
4141, 629, 531, 542, 1168
4142, 267, 280, 367, 1170
4143, 430, 429, 414, 1115
4144, 818, 728, 784, 1222
4145, 693, 692, 675, 1116
4146, 923, 970, 922, 1184
4147, 660, 637, 570, 1329
4148, 495, 497, 534, 1295
4149, 440, 91, 410, 641
4150, 379, 11, 177, 673
4151, 503, 505, 600, 1278
4152, 563, 540, 663, 1270
4153, 298, 278, 400, 1272
4154, 940, 973, 891, 1205
4155, 1288, 1333, 1030, 1341
4156, 25, 926, 190, 1303
4157, 783, 831, 832, 1190
4158, 387, 382, 238, 1151
4159, 814, 1288, 779, 1333
4160, 741, 740, 742, 1227
4161, 891, 973, 892, 1205
4162, 510, 512, 511, 1167
4163, 25, 190, 324, 1303
4164, 231, 233, 310, 1342
4165, 181, 22, 849, 1229
4166, 1100, 1267, 1010, 1336
4167, 1101, 1266, 1011, 1335
4168, 324, 1182, 852, 1303
4169, 556, 507, 596, 1300
4170, 782, 814, 779, 1333
4171, 246, 245, 244, 1175
4172, 637, 659, 607, 1290
4173, 1048, 1252, 1203, 1257
4174, 1009, 1314, 1091, 1323
4175, 1149, 1173, 1017, 1262
4176, 852, 922, 926, 1303
4177, 885, 43, 303, 1247
4178, 889, 127, 568, 1248
4179, 320, 67, 822, 718
4180, 953, 923, 865, 1141
4181, 193, 43, 857, 1247
4182, 920, 963, 948, 1290
4183, 456, 127, 860, 1248
4184, 362, 308, 188, 1223
4185, 888, 1221, 1103, 1275
4186, 891, 1205, 892, 1250
4187, 726, 818, 832, 1222
4188, 251, 252, 253, 1156
4189, 308, 255, 292, 1234
4190, 668, 869, 975, 1211
4191, 405, 870, 976, 1210
4192, 775, 1260, 776, 1308
4193, 762, 1314, 1213, 1340
4194, 650, 500, 533, 1192
4195, 518, 520, 519, 1255
4196, 285, 361, 363, 1158
4197, 626, 547, 625, 1159
4198, 445, 628, 602, 1142
4199, 710, 764, 808, 1326
4200, 403, 978, 15, 359
4201, 784, 1190, 832, 1222
4202, 47, 206, 411, 434
4203, 906, 861, 946, 1154
4204, 698, 676, 470, 131
4205, 769, 715, 768, 1144
4206, 1220, 1305, 1057, 1328
4207, 281, 343, 394, 1162
4208, 497, 499, 619, 1181
4209, 614, 535, 638, 1183
4210, 767, 816, 730, 1108
4211, 573, 519, 554, 1324
4212, 586, 646, 452, 1154
4213, 908, 1259, 909, 1296
4214, 296, 351, 291, 1332
4215, 279, 387, 236, 1214
4216, 11, 379, 687, 673
4217, 424, 410, 91, 641
4218, 660, 651, 522, 1329
4219, 914, 913, 915, 1236
4220, 563, 663, 661, 1270
4221, 1001, 1256, 1137, 1332
4222, 649, 642, 588, 1173
4223, 976, 431, 436, 1210
4224, 699, 975, 694, 1211
4225, 326, 327, 195, 1263
4226, 181, 333, 22, 1229
4227, 887, 1221, 888, 1275
4228, 1145, 1175, 1020, 1315
4229, 734, 360, 402, 1294
4230, 665, 733, 624, 1293
4231, 400, 398, 298, 1272
4232, 621, 669, 550, 1197
4233, 288, 358, 406, 1196
4234, 362, 253, 308, 1223
4235, 235, 319, 271, 1280
4236, 193, 303, 43, 1247
4237, 568, 127, 456, 1248
4238, 636, 532, 488, 1186
4239, 885, 857, 43, 1247
4240, 860, 127, 889, 1248
4241, 531, 478, 542, 1168
4242, 267, 214, 280, 1170
4243, 277, 348, 217, 1198
4244, 917, 921, 852, 1182
4245, 268, 374, 380, 1268
4246, 780, 779, 781, 1288
4247, 780, 781, 1287, 1288
4248, 481, 483, 561, 1150
4249, 596, 509, 555, 1277
4250, 785, 786, 729, 1230
4251, 1199, 1200, 1094, 1291
4252, 955, 908, 853, 1242
4253, 705, 756, 805, 1284
4254, 244, 390, 383, 1145
4255, 257, 259, 306, 1152
4256, 820, 716, 776, 1102
4257, 763, 764, 809, 1314
4258, 523, 571, 521, 1157
4259, 659, 544, 574, 1188
4260, 431, 439, 1210, 1224
4261, 694, 702, 1211, 1225
4262, 273, 390, 242, 1204
4263, 808, 1314, 762, 1340
4264, 614, 480, 535, 1183
4265, 908, 909, 907, 1296
4266, 333, 933, 22, 1229
4267, 835, 168, 665, 733
4268, 84, 836, 734, 402
4269, 548, 478, 560, 1258
4270, 815, 776, 716, 1102
4271, 956, 951, 915, 1118
4272, 677, 625, 136, 668
4273, 361, 52, 412, 405
4274, 603, 652, 604, 1296
4275, 537, 590, 591, 1230
4276, 643, 532, 636, 1186
4277, 609, 543, 514, 1304
4278, 272, 347, 216, 1169
4279, 551, 525, 566, 1179
4280, 434, 426, 836, 1294
4281, 774, 775, 776, 1308
4282, 835, 698, 689, 1293
4283, 677, 625, 668, 1211
4284, 584, 640, 628, 1264
4285, 361, 405, 412, 1210
4286, 301, 289, 261, 1180
4287, 203, 870, 1210, 1267
4288, 468, 869, 1211, 1266
4289, 933, 849, 22, 1229
4290, 771, 816, 766, 1276
4291, 130, 869, 975, 668
4292, 46, 405, 870, 976
4293, 703, 824, 840, 1243
4294, 704, 823, 839, 1244
4295, 716, 831, 791, 1133
4296, 250, 343, 281, 1162
4297, 225, 329, 294, 1305
4298, 967, 958, 851, 1142
4299, 887, 888, 886, 1275
4300, 956, 969, 856, 1148
4301, 834, 706, 795, 1131
4302, 577, 576, 654, 1233
4303, 231, 232, 233, 1193
4304, 786, 788, 787, 1298
4305, 247, 248, 249, 1289
4306, 391, 383, 312, 1334
4307, 882, 980, 880, 1335
4308, 884, 979, 879, 1336
4309, 239, 241, 269, 1178
4310, 826, 426, 1244, 1294
4311, 825, 689, 1243, 1293
4312, 958, 967, 929, 1245
4313, 966, 922, 970, 1184
4314, 723, 761, 762, 1213
4315, 547, 662, 468, 1266
4316, 203, 285, 399, 1267
4317, 296, 286, 214, 1256
4318, 575, 593, 443, 1213
4319, 647, 496, 494, 1307
4320, 514, 515, 513, 1191
4321, 895, 946, 972, 1297
4322, 896, 894, 897, 1149
4323, 978, 881, 15, 359
4324, 397, 373, 305, 1321
4325, 870, 405, 203, 1210
4326, 468, 869, 668, 1211
4327, 911, 955, 971, 1281
4328, 276, 378, 220, 1166
4329, 928, 850, 896, 1262
4330, 439, 407, 430, 1224
4331, 702, 671, 693, 1225
4332, 358, 288, 265, 1196
4333, 621, 550, 529, 1197
4334, 642, 496, 647, 1307
4335, 838, 176, 697, 690
4336, 435, 837, 98, 427
4337, 801, 798, 751, 1155
4338, 438, 426, 411, 1294
4339, 689, 676, 701, 1293
4340, 635, 613, 633, 1311
4341, 372, 346, 370, 1312
4342, 607, 659, 464, 1290
4343, 978, 172, 692, 700
4344, 429, 88, 437, 977
4345, 763, 809, 786, 1279
4346, 426, 95, 434, 836
4347, 689, 698, 835, 173
4348, 426, 438, 408, 1244
4349, 689, 701, 670, 1243
4350, 412, 431, 439, 1210
4351, 694, 702, 677, 1211
4352, 636, 640, 584, 1264
4353, 976, 85, 436, 431
4354, 699, 975, 169, 694
4355, 733, 168, 665, 624
4356, 734, 360, 84, 402
4357, 963, 920, 919, 1146
4358, 679, 683, 681, 1254
4359, 416, 420, 418, 1253
4360, 962, 431, 976, 1210
4361, 694, 975, 961, 1211
4362, 833, 802, 755, 1177
4363, 324, 380, 322, 1182
4364, 652, 536, 644, 1209
4365, 898, 844, 904, 1215
4366, 221, 355, 327, 1292
4367, 904, 968, 899, 1252
4368, 947, 109, 585, 1257
4369, 1213, 1314, 1009, 1340
4370, 794, 711, 780, 1263
4371, 694, 671, 702, 1225
4372, 431, 407, 439, 1224
4373, 712, 764, 807, 1326
4374, 362, 266, 251, 1339
4375, 889, 877, 860, 1248
4376, 885, 873, 857, 1247
4377, 539, 640, 484, 1194
4378, 137, 747, 837, 656
4379, 838, 393, 53, 745
4380, 962, 431, 1210, 1224
4381, 961, 694, 1211, 1225
4382, 237, 236, 238, 1226
4383, 770, 777, 1269, 1308
4384, 804, 741, 742, 1227
4385, 391, 311, 313, 1215
4386, 662, 562, 468, 1266
4387, 297, 203, 399, 1267
4388, 374, 323, 380, 1268
4389, 560, 553, 548, 1258
4390, 246, 383, 275, 1334
4391, 826, 836, 426, 1294
4392, 689, 825, 835, 1293
4393, 573, 450, 622, 1208
4394, 408, 438, 428, 1244
4395, 670, 701, 691, 1243
4396, 233, 235, 271, 1280
4397, 447, 631, 589, 1242
4398, 221, 223, 355, 1292
4399, 910, 911, 866, 1217
4400, 866, 911, 971, 1217
4401, 452, 109, 861, 1257
4402, 952, 908, 911, 1281
4403, 452, 585, 109, 1257
4404, 928, 955, 853, 1242
4405, 372, 272, 346, 1312
4406, 274, 227, 229, 1220
4407, 635, 535, 613, 1311
4408, 732, 829, 746, 1246
4409, 651, 660, 570, 1329
4410, 292, 255, 257, 1234
4411, 472, 618, 560, 1200
4412, 130, 468, 869, 668
4413, 405, 203, 46, 870
4414, 796, 833, 705, 1284
4415, 948, 963, 864, 1290
4416, 874, 965, 872, 1238
4417, 43, 44, 193, 857
4418, 128, 860, 456, 127
4419, 770, 774, 777, 1308
4420, 878, 964, 876, 1237
4421, 303, 42, 43, 885
4422, 127, 889, 568, 126
4423, 62, 61, 328, 778
4424, 388, 397, 305, 1321
4425, 591, 147, 146, 729
4426, 137, 467, 747, 656
4427, 745, 393, 53, 204
4428, 148, 443, 149, 723
4429, 589, 649, 587, 1262
4430, 555, 509, 511, 1277
4431, 764, 710, 807, 1326
4432, 146, 145, 453, 757
4433, 241, 243, 342, 1228
4434, 63, 62, 186, 714
4435, 112, 111, 893, 458
4436, 910, 31, 30, 184
4437, 455, 117, 118, 848
4438, 744, 746, 829, 1246
4439, 594, 151, 150, 724
4440, 152, 599, 153, 715
4441, 902, 958, 903, 1174
4442, 154, 155, 773, 595
4443, 37, 36, 854, 185
4444, 148, 147, 590, 785
4445, 473, 617, 564, 1249
4446, 775, 790, 820, 1260
4447, 699, 668, 975, 1211
4448, 436, 405, 976, 1210
4449, 125, 935, 446, 124
4450, 611, 485, 559, 1318
4451, 61, 60, 195, 711
4452, 709, 155, 156, 444
4453, 152, 151, 454, 792
4454, 206, 402, 360, 1294
4455, 470, 665, 624, 1293
4456, 768, 153, 154, 463
4457, 972, 930, 895, 1297
4458, 302, 80, 79, 721
4459, 720, 163, 164, 567
4460, 581, 156, 789, 157
4461, 539, 482, 614, 1327
4462, 437, 666, 94, 414
4463, 403, 14, 700, 675
4464, 597, 145, 144, 713
4465, 941, 874, 873, 1238
4466, 942, 878, 877, 1237
4467, 521, 554, 519, 1324
4468, 921, 918, 950, 1286
4469, 38, 37, 905, 332
4470, 334, 335, 184, 1217
4471, 22, 23, 181, 849
4472, 307, 78, 77, 725
4473, 182, 40, 41, 936
4474, 285, 363, 404, 1158
4475, 722, 165, 166, 558
4476, 295, 82, 81, 719
4477, 547, 626, 667, 1159
4478, 838, 176, 690, 824
4479, 823, 98, 837, 427
4480, 118, 119, 576, 924
4481, 421, 417, 419, 1206
4482, 684, 680, 682, 1207
4483, 150, 149, 593, 761
4484, 322, 23, 24, 917
4485, 929, 932, 939, 1245
4486, 923, 921, 950, 1286
4487, 783, 784, 782, 1333
4488, 296, 291, 286, 1256
4489, 947, 861, 109, 1257
4490, 251, 266, 249, 1339
4491, 95, 426, 826, 836
4492, 891, 892, 890, 1250
4493, 825, 689, 835, 173
4494, 172, 692, 960, 978
4495, 88, 429, 959, 977
4496, 727, 161, 162, 572
4497, 263, 287, 301, 1299
4498, 974, 888, 887, 1221
4499, 36, 35, 898, 313
4500, 85, 976, 962, 431
4501, 975, 169, 694, 961
4502, 113, 112, 850, 587
4503, 276, 218, 347, 1338
4504, 968, 861, 947, 1257
4505, 569, 858, 125, 126
4506, 41, 42, 304, 859
4507, 549, 566, 527, 1301
4508, 187, 81, 80, 749
4509, 164, 165, 753, 449
4510, 425, 420, 416, 1253
4511, 688, 683, 679, 1254
4512, 603, 115, 116, 907
4513, 796, 780, 828, 1287
4514, 765, 767, 808, 1340
4515, 919, 849, 933, 1229
4516, 915, 954, 914, 1283
4517, 762, 808, 764, 1314
4518, 162, 163, 797, 462
4519, 324, 24, 25, 852
4520, 225, 227, 329, 1305
4521, 906, 111, 110, 586
4522, 748, 731, 830, 1199
4523, 181, 365, 333, 1229
4524, 447, 114, 115, 853
4525, 325, 64, 63, 791
4526, 657, 543, 609, 1304
4527, 836, 402, 434, 1294
4528, 665, 698, 835, 1293
4529, 199, 79, 78, 798
4530, 557, 503, 600, 1278
4531, 810, 450, 160, 161
4532, 190, 25, 26, 926
4533, 58, 59, 705, 345
4534, 605, 116, 117, 912
4535, 732, 54, 55, 207
4536, 138, 731, 471, 139
4537, 816, 767, 766, 1276
4538, 142, 706, 612, 143
4539, 739, 166, 167, 466
4540, 202, 83, 82, 735
4541, 575, 495, 534, 1295
4542, 297, 44, 45, 871
4543, 129, 875, 562, 128
4544, 34, 33, 945, 191
4545, 157, 726, 457, 158
4546, 931, 967, 851, 1142
4547, 932, 929, 967, 1245
4548, 520, 518, 544, 1255
4549, 843, 21, 20, 197
4550, 845, 105, 104, 459
4551, 928, 114, 113, 589
4552, 705, 833, 756, 1284
4553, 124, 864, 607, 123
4554, 452, 645, 585, 1257
4555, 812, 76, 77, 188
4556, 66, 65, 183, 815
4557, 868, 17, 16, 201
4558, 867, 101, 100, 465
4559, 119, 120, 578, 863
4560, 120, 121, 448, 953
4561, 809, 788, 786, 1279
4562, 48, 47, 206, 411
4563, 676, 470, 131, 132
4564, 925, 914, 954, 1283
4565, 904, 946, 968, 1252
4566, 196, 28, 29, 956
4567, 781, 828, 780, 1287
4568, 947, 109, 108, 585
4569, 765, 808, 762, 1340
4570, 178, 50, 49, 409
4571, 441, 134, 133, 672
4572, 464, 122, 123, 948
4573, 51, 50, 363, 415
4574, 135, 678, 134, 626
4575, 872, 873, 874, 1238
4576, 877, 878, 876, 1237
4577, 876, 964, 880, 1335
4578, 872, 965, 879, 1336
4579, 14, 403, 205, 675
4580, 414, 666, 94, 469
4581, 158, 818, 579, 159
4582, 866, 32, 31, 334
4583, 955, 911, 908, 1281
4584, 752, 751, 750, 1313
4585, 231, 310, 321, 1342
4586, 776, 775, 820, 1260
4587, 436, 431, 412, 1210
4588, 699, 694, 677, 1211
4589, 39, 40, 331, 862
4590, 625, 136, 135, 677
4591, 412, 51, 52, 361
4592, 784, 832, 818, 1222
4593, 9, 393, 697, 674
4594, 435, 413, 89, 656
4595, 927, 39, 38, 200
4596, 539, 614, 639, 1327
4597, 376, 276, 347, 1338
4598, 193, 400, 303, 1247
4599, 456, 663, 568, 1248
4600, 468, 668, 625, 1211
4601, 203, 405, 361, 1210
4602, 969, 908, 952, 1259
4603, 366, 324, 190, 1303
4604, 59, 60, 794, 326
4605, 48, 49, 422, 349
4606, 616, 132, 685, 133
4607, 35, 34, 844, 311
4608, 861, 110, 109, 452
4609, 6, 837, 435, 656
4610, 1, 393, 838, 697
4611, 143, 793, 461, 144
4612, 800, 55, 56, 198
4613, 460, 799, 140, 139
4614, 842, 962, 979, 1224
4615, 841, 961, 980, 1225
4616, 57, 58, 805, 179
4617, 141, 806, 442, 142
4618, 413, 620, 89, 656
4619, 9, 393, 674, 357
4620, 756, 754, 804, 1282
4621, 5, 666, 437, 977
4622, 700, 978, 2, 403
4623, 839, 826, 704, 1244
4624, 840, 825, 703, 1243
4625, 909, 908, 969, 1259
4626, 436, 405, 3, 976
4627, 7, 975, 699, 668
4628, 836, 4, 434, 402
4629, 698, 8, 665, 835
4630, 823, 97, 98, 427
4631, 824, 176, 690, 175
4632, 943, 20, 19, 330
4633, 944, 104, 103, 601
4634, 708, 56, 57, 299
4635, 140, 707, 564, 141
4636, 434, 411, 426, 1294
4637, 698, 676, 689, 1293
4638, 429, 87, 88, 959
4639, 692, 960, 171, 172
4640, 275, 383, 391, 1334
4641, 84, 83, 360, 734
4642, 733, 167, 168, 624
4643, 314, 29, 30, 856
4644, 957, 108, 107, 583
4645, 92, 91, 410, 440
4646, 177, 11, 12, 673
4647, 892, 942, 890, 1250
4648, 33, 32, 949, 336
4649, 787, 788, 813, 1298
4650, 847, 19, 18, 189
4651, 846, 103, 102, 451
4652, 933, 22, 21, 333
4653, 339, 27, 28, 951
4654, 913, 916, 915, 1236
4655, 91, 90, 424, 641
4656, 379, 10, 11, 687
4657, 426, 96, 95, 826
4658, 689, 825, 174, 173
4659, 86, 85, 962, 431
4660, 169, 694, 961, 170
4661, 779, 814, 781, 1288
4662, 354, 65, 64, 716
4663, 69, 70, 730, 340
4664, 819, 770, 777, 1269
4665, 674, 10, 9, 357
4666, 89, 90, 620, 413
4667, 851, 107, 106, 445
4668, 931, 106, 105, 602
4669, 67, 66, 320, 822
4670, 938, 18, 17, 300
4671, 102, 101, 937, 565
4672, 92, 93, 632, 423
4673, 686, 13, 12, 369
4674, 710, 71, 72, 180
4675, 45, 46, 203, 870
4676, 130, 869, 468, 129
4677, 763, 762, 764, 1314
4678, 192, 69, 68, 821
4679, 807, 72, 73, 315
4680, 70, 71, 811, 341
4681, 870, 962, 976, 1210
4682, 869, 961, 975, 1211
4683, 337, 26, 27, 855
4684, 606, 121, 122, 865
4685, 75, 76, 717, 356
4686, 318, 68, 67, 718
4687, 73, 74, 712, 194
4688, 160, 580, 728, 159
4689, 886, 888, 941, 1275
4690, 94, 93, 414, 469
4691, 13, 14, 205, 675
4692, 74, 75, 817, 317
4693, 880, 964, 882, 1335
4694, 879, 965, 884, 1336
4695, 836, 826, 734, 1294
4696, 733, 835, 825, 1293
4697, 837, 6, 137, 656
4698, 393, 53, 1, 838
4699, 752, 834, 751, 1313
4700, 137, 747, 467, 138
4701, 745, 53, 54, 204
4702, 666, 5, 99, 977
4703, 15, 2, 978, 403
4704, 703, 175, 670, 174
4705, 97, 96, 408, 704
4706, 170, 841, 171, 671
4707, 87, 86, 842, 407
4708, 405, 3, 52, 436
4709, 699, 136, 7, 668
4710, 700, 2, 14, 403
4711, 666, 94, 5, 437
4712, 784, 814, 782, 1333
4713, 4, 47, 434, 402
4714, 698, 665, 8, 131
4715, 130, 975, 7, 668
4716, 46, 3, 405, 976
4717, 168, 665, 8, 835
4718, 836, 84, 4, 402
4719, 623, 99, 100, 883
4720, 881, 16, 15, 359
4721, 393, 1, 9, 697
4722, 435, 89, 6, 656
4723, 777, 774, 776, 1308
4724, 434, 95, 4, 836
4725, 835, 698, 8, 173
4726, 436, 3, 85, 976
4727, 975, 169, 7, 699
4728, 2, 172, 978, 700
4729, 437, 88, 5, 977
4730, 838, 176, 1, 697
4731, 837, 98, 6, 435
4732, 1004, 993, 1285, 1119
4733, 1285, 993, 1004, 1138
4734, 1281, 1151, 991, 1017
4735, 1281, 991, 1151, 1031
4736, 1287, 989, 1177, 1088
4737, 1287, 1177, 989, 1083
4738, 238, 1178, 240, 239
4739, 240, 1178, 238, 1039
4740, 1166, 222, 1268, 378
4741, 1166, 1268, 222, 1081
4742, 1028, 1342, 320, 310
4743, 1028, 320, 1342, 1102
4744, 183, 320, 1342, 310
4745, 183, 1342, 320, 1102
4746, 893, 1262, 894, 850
4747, 894, 1262, 893, 1086
4748, 1181, 454, 608, 619
4749, 1181, 608, 454, 1032
4750, 1175, 1323, 1020, 990
4751, 1020, 1323, 1175, 1171
4752, 1283, 1043, 985, 1016
4753, 1283, 985, 1043, 1065
4754, 856, 184, 30, 314
4755, 30, 184, 856, 910
4756, 423, 440, 92, 410
4757, 92, 440, 423, 632
4758, 369, 673, 1026, 177
4759, 1026, 673, 369, 686
4760, 1303, 268, 380, 1268
4761, 1303, 380, 268, 366
4762, 1262, 458, 588, 587
4763, 1262, 588, 458, 1086
4764, 1209, 502, 504, 644
4765, 1209, 504, 502, 1050
4766, 1134, 222, 1160, 224
4767, 1134, 1160, 222, 1081
4768, 1174, 1203, 984, 1093
4769, 984, 1203, 1174, 1095
4770, 1189, 293, 194, 316
4771, 1189, 194, 293, 1027
4772, 1109, 392, 1334, 275
4773, 1109, 1334, 392, 1076
4774, 1199, 736, 738, 830
4775, 1199, 738, 736, 1066
4776, 574, 1090, 518, 516
4777, 574, 518, 1090, 1188
4778, 1304, 574, 658, 543
4779, 1304, 658, 574, 1188
4780, 1247, 278, 1272, 400
4781, 1247, 1272, 278, 1012
4782, 1248, 540, 1270, 663
4783, 1248, 1270, 540, 1013
4784, 1311, 476, 477, 613
4785, 1311, 477, 476, 1015
4786, 1312, 212, 213, 346
4787, 1312, 213, 212, 1014
4788, 1175, 243, 1171, 245
4789, 1175, 1171, 243, 1020
4790, 1066, 287, 295, 202
4791, 1066, 295, 287, 1299
4792, 1153, 1315, 1140, 990
4793, 1140, 1315, 1153, 1056
4794, 1067, 549, 558, 466
4795, 1067, 558, 549, 1301
4796, 1160, 222, 1292, 223
4797, 1160, 1292, 222, 1081
4798, 1065, 1172, 384, 377
4799, 1065, 384, 1172, 1043
4800, 270, 384, 1172, 377
4801, 270, 1172, 384, 1043
4802, 1207, 1219, 1197, 1034
4803, 1197, 1219, 1207, 1001
4804, 1206, 1218, 1196, 1033
4805, 1196, 1218, 1206, 1000
4806, 1310, 1308, 1269, 1028
4807, 1310, 1269, 1308, 1113
4808, 1224, 1253, 1115, 430
4809, 1115, 1253, 1224, 1010
4810, 1225, 1254, 1116, 693
4811, 1116, 1254, 1225, 1011
4812, 1340, 997, 1276, 1070
4813, 1340, 1276, 997, 1089
4814, 1217, 949, 971, 866
4815, 1217, 971, 949, 1080
4816, 1247, 1275, 1122, 886
4817, 1122, 1275, 1247, 1012
4818, 1341, 1328, 1160, 1021
4819, 1341, 1160, 1328, 992
4820, 712, 317, 74, 817
4821, 74, 317, 712, 194
4822, 747, 1199, 471, 731
4823, 471, 1199, 747, 1106
4824, 1272, 262, 264, 298
4825, 1272, 264, 262, 1121
4826, 618, 1135, 620, 553
4827, 620, 1135, 618, 1106
4828, 705, 179, 58, 345
4829, 58, 179, 705, 805
4830, 821, 340, 1108, 192
4831, 1108, 340, 821, 730
4832, 1234, 1306, 1152, 988
4833, 1152, 1306, 1234, 1112
4834, 1204, 389, 382, 273
4835, 1204, 382, 389, 1080
4836, 1276, 724, 765, 766
4837, 1276, 765, 724, 1089
4838, 442, 706, 142, 806
4839, 142, 706, 442, 612
4840, 943, 197, 1104, 843
4841, 1104, 197, 943, 330
4842, 944, 459, 1103, 845
4843, 1103, 459, 944, 601
4844, 470, 1042, 624, 669
4845, 470, 624, 1042, 1293
4846, 206, 1041, 360, 406
4847, 206, 360, 1041, 1294
4848, 1266, 546, 547, 662
4849, 1266, 547, 546, 1127
4850, 630, 1307, 588, 647
4851, 588, 1307, 630, 1086
4852, 1267, 284, 285, 399
4853, 1267, 285, 284, 1126
4854, 799, 471, 1094, 731
4855, 799, 1094, 471, 460
4856, 732, 198, 55, 800
4857, 55, 198, 732, 207
4858, 1162, 1240, 1076, 984
4859, 1076, 1240, 1162, 1109
4860, 1321, 256, 258, 397
4861, 1321, 258, 256, 1112
4862, 1313, 801, 1131, 834
4863, 1313, 1131, 801, 1155
4864, 1153, 1164, 492, 491
4865, 1153, 492, 1164, 1140
4866, 493, 492, 1164, 491
4867, 493, 1164, 492, 1140
4868, 1286, 917, 1073, 1182
4869, 1286, 1073, 917, 918
4870, 1271, 1055, 992, 1265
4871, 1271, 992, 1055, 1167
4872, 1258, 440, 553, 548
4873, 1258, 553, 440, 1135
4874, 1209, 634, 1119, 1132
4875, 1209, 1119, 634, 536
4876, 1313, 706, 1052, 752
4877, 1313, 1052, 706, 1131
4878, 1208, 517, 1045, 1143
4879, 1208, 1045, 517, 573
4880, 466, 733, 1042, 624
4881, 466, 1042, 733, 739
4882, 735, 360, 83, 734
4883, 735, 83, 360, 202
4884, 1289, 316, 293, 1189
4885, 1289, 293, 316, 247
4886, 1258, 542, 478, 1168
4887, 1258, 478, 542, 548
4888, 1307, 1251, 1056, 981
4889, 1307, 1056, 1251, 1069
4890, 1315, 1056, 1251, 981
4891, 1315, 1251, 1056, 1069
4892, 465, 937, 1098, 867
4893, 465, 1098, 937, 565
4894, 201, 938, 1097, 868
4895, 201, 1097, 938, 300
4896, 337, 951, 1118, 855
4897, 1118, 951, 337, 339
4898, 1318, 483, 1150, 611
4899, 1318, 1150, 483, 1123
4900, 1314, 809, 1027, 764
4901, 1314, 1027, 809, 1279
4902, 1304, 516, 574, 543
4903, 1304, 574, 516, 1090
4904, 1330, 1166, 1302, 998
4905, 1330, 1302, 1166, 1040
4906, 841, 692, 1225, 960
4907, 1225, 692, 841, 671
4908, 407, 959, 87, 429
4909, 87, 959, 407, 842
4910, 1248, 876, 877, 860
4911, 1248, 877, 876, 1237
4912, 1247, 872, 873, 857
4913, 1247, 873, 872, 1238
4914, 956, 1236, 915, 916
4915, 915, 1236, 956, 1118
4916, 703, 690, 1243, 670
4917, 703, 1243, 690, 824
4918, 427, 704, 1244, 823
4919, 1244, 704, 427, 408
4920, 1329, 520, 522, 660
4921, 1329, 522, 520, 1092
4922, 862, 200, 39, 927
4923, 862, 39, 200, 331
4924, 932, 1221, 845, 974
4925, 845, 1221, 932, 1096
4926, 1297, 945, 844, 972
4927, 1297, 844, 945, 1105
4928, 193, 1272, 1100, 398
4929, 1100, 1272, 193, 1247
4930, 1270, 456, 1101, 1248
4931, 1270, 1101, 456, 661
4932, 865, 448, 121, 953
4933, 865, 121, 448, 606
4934, 1297, 904, 946, 972
4935, 1297, 946, 904, 1252
4936, 675, 369, 1116, 205
4937, 1116, 369, 675, 686
4938, 469, 423, 93, 414
4939, 93, 423, 469, 632
4940, 1303, 966, 922, 926
4941, 1303, 922, 966, 1184
4942, 356, 817, 1074, 717
4943, 356, 1074, 817, 317
4944, 666, 883, 99, 623
4945, 99, 883, 666, 977
4946, 978, 359, 1116, 881
4947, 1116, 359, 978, 403

*NSET, NSET=CONSTRAINT_1
1, 8, 53, 168, 173, 174, 175, 176, 703, 824, 825, 835, 838

*NSET, NSET=CONSTRAINT_2
68, 69, 152, 153, 715, 718, 730, 768, 769, 771, 772, 792, 816, 819, 821

*NSET, NSET=CONSTRAINT_3
4, 6, 84, 95, 96, 97, 98, 137, 704, 823, 826, 836, 837

*NSET, NSET=DLOAD_1
988, 989, 994, 995, 996, 997, 1000, 1001, 1029, 1232, 1261, 1322, 1328

*MATERIAL, NAME=STRUCTURAL_STEEL
*ELASTIC
200000.000000, 0.300000

*SOLID SECTION, ELSET=ALL_ELEMENTS, MATERIAL=STRUCTURAL_STEEL

*BOUNDARY
CONSTRAINT_1, 1, 3

*BOUNDARY
CONSTRAINT_2, 1, 3

*BOUNDARY
CONSTRAINT_3, 1, 3

*STEP, NLGEOM=NO
*STATIC
0.1, 1.0

*CLOAD
DLOAD_1, 3, -25000.000000

*NODE FILE
U, RF
*EL FILE
S, E

*END STEP
