*HEADING
Long cantilever bridge structure fixed at one end with distributed traffic load.

*NODE, NSET=ALL_NODES
1, 0.000000, 0.000000, 0.000000
2, 0.000000, 0.000000, 60.000000
3, 100.000000, 0.000000, 60.000000
4, 100.000000, 0.000000, 0.000000
5, 100.000000, 20.000000, 60.000000
6, 100.000000, 20.000000, 0.000000
7, 0.000000, 20.000000, 60.000000
8, 0.000000, 20.000000, 0.000000
9, 0.000000, 0.000000, 5.000000
10, 0.000000, 0.000000, 10.000000
11, 0.000000, 0.000000, 15.000000
12, 0.000000, 0.000000, 20.000000
13, 0.000000, 0.000000, 25.000000
14, 0.000000, 0.000000, 30.000000
15, 0.000000, 0.000000, 35.000000
16, 0.000000, 0.000000, 40.000000
17, 0.000000, 0.000000, 45.000000
18, 0.000000, 0.000000, 50.000000
19, 0.000000, 0.000000, 55.000000
20, 5.000000, 0.000000, 60.000000
21, 10.000000, 0.000000, 60.000000
22, 15.000000, 0.000000, 60.000000
23, 20.000000, 0.000000, 60.000000
24, 25.000000, 0.000000, 60.000000
25, 30.000000, 0.000000, 60.000000
26, 35.000000, 0.000000, 60.000000
27, 40.000000, 0.000000, 60.000000
28, 45.000000, 0.000000, 60.000000
29, 50.000000, 0.000000, 60.000000
30, 55.000000, 0.000000, 60.000000
31, 60.000000, 0.000000, 60.000000
32, 65.000000, 0.000000, 60.000000
33, 70.000000, 0.000000, 60.000000
34, 75.000000, 0.000000, 60.000000
35, 80.000000, 0.000000, 60.000000
36, 85.000000, 0.000000, 60.000000
37, 90.000000, 0.000000, 60.000000
38, 95.000000, 0.000000, 60.000000
39, 100.000000, 0.000000, 5.000000
40, 100.000000, 0.000000, 10.000000
41, 100.000000, 0.000000, 15.000000
42, 100.000000, 0.000000, 20.000000
43, 100.000000, 0.000000, 25.000000
44, 100.000000, 0.000000, 30.000000
45, 100.000000, 0.000000, 35.000000
46, 100.000000, 0.000000, 40.000000
47, 100.000000, 0.000000, 45.000000
48, 100.000000, 0.000000, 50.000000
49, 100.000000, 0.000000, 55.000000
50, 5.000000, 0.000000, 0.000000
51, 10.000000, 0.000000, 0.000000
52, 15.000000, 0.000000, 0.000000
53, 20.000000, 0.000000, 0.000000
54, 25.000000, 0.000000, 0.000000
55, 30.000000, 0.000000, 0.000000
56, 35.000000, 0.000000, 0.000000
57, 40.000000, 0.000000, 0.000000
58, 45.000000, 0.000000, 0.000000
59, 50.000000, 0.000000, 0.000000
60, 55.000000, 0.000000, 0.000000
61, 60.000000, 0.000000, 0.000000
62, 65.000000, 0.000000, 0.000000
63, 70.000000, 0.000000, 0.000000
64, 75.000000, 0.000000, 0.000000
65, 80.000000, 0.000000, 0.000000
66, 85.000000, 0.000000, 0.000000
67, 90.000000, 0.000000, 0.000000
68, 95.000000, 0.000000, 0.000000
69, 100.000000, 5.000000, 60.000000
70, 100.000000, 10.000000, 60.000000
71, 100.000000, 15.000000, 60.000000
72, 100.000000, 20.000000, 5.000000
73, 100.000000, 20.000000, 10.000000
74, 100.000000, 20.000000, 15.000000
75, 100.000000, 20.000000, 20.000000
76, 100.000000, 20.000000, 25.000000
77, 100.000000, 20.000000, 30.000000
78, 100.000000, 20.000000, 35.000000
79, 100.000000, 20.000000, 40.000000
80, 100.000000, 20.000000, 45.000000
81, 100.000000, 20.000000, 50.000000
82, 100.000000, 20.000000, 55.000000
83, 100.000000, 5.000000, 0.000000
84, 100.000000, 10.000000, 0.000000
85, 100.000000, 15.000000, 0.000000
86, 95.000000, 20.000000, 60.000000
87, 90.000000, 20.000000, 60.000000
88, 85.000000, 20.000000, 60.000000
89, 80.000000, 20.000000, 60.000000
90, 75.000000, 20.000000, 60.000000
91, 70.000000, 20.000000, 60.000000
92, 65.000000, 20.000000, 60.000000
93, 60.000000, 20.000000, 60.000000
94, 55.000000, 20.000000, 60.000000
95, 50.000000, 20.000000, 60.000000
96, 45.000000, 20.000000, 60.000000
97, 40.000000, 20.000000, 60.000000
98, 35.000000, 20.000000, 60.000000
99, 30.000000, 20.000000, 60.000000
100, 25.000000, 20.000000, 60.000000
101, 20.000000, 20.000000, 60.000000
102, 15.000000, 20.000000, 60.000000
103, 10.000000, 20.000000, 60.000000
104, 5.000000, 20.000000, 60.000000
105, 0.000000, 20.000000, 5.000000
106, 0.000000, 20.000000, 10.000000
107, 0.000000, 20.000000, 15.000000
108, 0.000000, 20.000000, 20.000000
109, 0.000000, 20.000000, 25.000000
110, 0.000000, 20.000000, 30.000000
111, 0.000000, 20.000000, 35.000000
112, 0.000000, 20.000000, 40.000000
113, 0.000000, 20.000000, 45.000000
114, 0.000000, 20.000000, 50.000000
115, 0.000000, 20.000000, 55.000000
116, 95.000000, 20.000000, 0.000000
117, 90.000000, 20.000000, 0.000000
118, 85.000000, 20.000000, 0.000000
119, 80.000000, 20.000000, 0.000000
120, 75.000000, 20.000000, 0.000000
121, 70.000000, 20.000000, 0.000000
122, 65.000000, 20.000000, 0.000000
123, 60.000000, 20.000000, 0.000000
124, 55.000000, 20.000000, 0.000000
125, 50.000000, 20.000000, 0.000000
126, 45.000000, 20.000000, 0.000000
127, 40.000000, 20.000000, 0.000000
128, 35.000000, 20.000000, 0.000000
129, 30.000000, 20.000000, 0.000000
130, 25.000000, 20.000000, 0.000000
131, 20.000000, 20.000000, 0.000000
132, 15.000000, 20.000000, 0.000000
133, 10.000000, 20.000000, 0.000000
134, 5.000000, 20.000000, 0.000000
135, 0.000000, 15.000000, 60.000000
136, 0.000000, 10.000000, 60.000000
137, 0.000000, 5.000000, 60.000000
138, 0.000000, 15.000000, 0.000000
139, 0.000000, 10.000000, 0.000000
140, 0.000000, 5.000000, 0.000000
141, 32.500000, 0.000000, 55.669872
142, 62.530857, 0.000000, 4.199876
143, 42.500000, 0.000000, 4.330127
144, 52.500000, 0.000000, 55.669872
145, 95.319679, 0.000000, 33.142735
146, 4.330127, 0.000000, 27.500000
147, 67.500000, 0.000000, 55.669872
148, 27.530859, 0.000000, 4.199876
149, 77.500000, 0.000000, 4.330127
150, 17.500000, 0.000000, 55.669872
151, 82.500000, 0.000000, 55.669872
152, 95.232353, 0.000000, 17.098129
153, 4.445650, 0.000000, 42.565506
154, 52.500000, 0.000000, 4.330127
155, 42.500000, 0.000000, 55.669872
156, 17.500000, 0.000000, 4.278277
157, 4.330127, 0.000000, 17.500000
158, 95.557281, 0.000000, 42.546009
159, 87.500000, 0.000000, 4.330127
160, 4.528486, 0.000000, 52.040871
161, 95.471512, 0.000000, 52.040871
162, 4.789563, 0.000000, 7.930575
163, 95.529274, 0.000000, 7.760005
164, 87.459137, 0.000000, 55.693466
165, 84.993187, 0.000000, 51.343678
166, 79.998863, 0.000000, 51.340401
167, 82.498672, 0.000000, 47.010384
168, 77.499588, 0.000000, 47.009857
169, 79.999710, 0.000000, 42.679657
170, 74.999886, 0.000000, 42.679558
171, 77.499931, 0.000000, 38.349403
172, 72.499969, 0.000000, 38.349384
173, 74.999985, 0.000000, 34.019249
174, 69.999992, 0.000000, 34.019241
175, 72.499992, 0.000000, 29.689114
176, 67.500000, 0.000000, 29.689112
177, 65.000000, 0.000000, 34.019238
178, 62.500000, 0.000000, 29.689112
179, 60.000000, 0.000000, 34.019238
180, 57.500000, 0.000000, 29.689112
181, 55.000000, 0.000000, 34.019238
182, 52.500000, 0.000000, 29.689112
183, 50.000000, 0.000000, 34.019238
184, 47.500000, 0.000000, 29.689112
185, 45.000000, 0.000000, 34.019238
186, 42.500000, 0.000000, 29.689112
187, 40.000000, 0.000000, 34.019238
188, 37.500000, 0.000000, 29.689112
189, 35.000000, 0.000000, 34.019238
190, 32.500000, 0.000000, 29.689112
191, 30.000000, 0.000000, 34.019238
192, 27.500000, 0.000000, 29.689112
193, 35.000000, 0.000000, 25.358984
194, 70.000000, 0.000000, 25.358984
195, 25.000000, 0.000000, 34.019238
196, 75.000000, 0.000000, 25.358984
197, 45.000000, 0.000000, 25.358984
198, 60.000000, 0.000000, 25.358984
199, 22.500000, 0.000000, 29.689112
200, 25.000000, 0.000000, 25.358984
201, 62.500000, 0.000000, 38.349365
202, 37.500000, 0.000000, 38.349365
203, 47.500000, 0.000000, 38.349365
204, 27.500000, 0.000000, 38.349365
205, 22.500000, 0.000000, 38.349365
206, 72.500000, 0.000000, 21.028856
207, 77.500000, 0.000000, 21.028856
208, 20.000000, 0.000000, 25.358984
209, 22.500000, 0.000000, 21.028856
210, 80.000000, 0.000000, 25.358984
211, 25.000000, 0.000000, 42.679493
212, 20.000000, 0.000000, 42.679493
213, 17.500000, 0.000000, 38.349365
214, 82.522507, 0.000000, 38.325058
215, 17.581249, 0.000000, 21.075766
216, 82.500000, 0.000000, 21.028856
217, 85.000000, 0.000000, 25.358984
218, 20.056744, 0.000000, 16.731491
219, 25.009457, 0.000000, 16.704189
220, 75.000000, 0.000000, 16.698730
221, 70.000000, 0.000000, 16.698730
222, 15.378757, 0.000000, 16.939304
223, 15.000000, 0.000000, 42.679493
224, 15.094790, 0.000000, 25.413712
225, 12.500000, 0.000000, 38.349365
226, 69.999977, 0.000000, 42.679504
227, 22.500000, 0.000000, 47.009621
228, 30.000000, 0.000000, 42.679493
229, 22.514118, 0.000000, 12.403720
230, 72.500000, 0.000000, 12.420453
231, 67.543205, 0.000000, 12.402187
232, 65.007202, 0.000000, 16.704327
233, 62.551601, 0.000000, 12.451891
234, 60.000000, 0.000000, 16.698730
235, 57.504387, 0.000000, 12.428557
236, 55.000732, 0.000000, 16.708723
237, 52.500221, 0.000000, 12.398613
238, 50.000160, 0.000000, 16.705397
239, 47.500015, 0.000000, 12.397170
240, 45.000031, 0.000000, 16.704601
241, 42.500000, 0.000000, 12.368603
242, 40.000004, 0.000000, 16.699709
243, 37.500000, 0.000000, 12.420616
244, 35.000000, 0.000000, 16.707561
245, 32.543201, 0.000000, 12.403687
246, 77.500000, 0.000000, 12.397837
247, 87.498642, 0.000000, 47.010403
248, 87.381851, 0.000000, 20.960642
249, 84.980309, 0.000000, 16.687361
250, 90.704071, 0.000000, 25.208258
251, 87.500000, 0.000000, 29.689112
252, 15.000000, 0.000000, 34.019238
253, 10.052224, 0.000000, 34.049976
254, 74.999741, 0.000000, 51.339893
255, 52.500053, 0.000000, 21.029869
256, 35.093605, 0.000000, 8.260251
257, 70.093605, 0.000000, 8.259974
258, 89.897598, 0.000000, 16.683817
259, 87.500000, 0.000000, 12.368603
260, 92.500000, 0.000000, 12.368603
261, 9.874159, 0.000000, 42.660496
262, 12.479027, 0.000000, 47.006454
263, 7.446115, 0.000000, 47.185513
264, 9.949803, 0.000000, 51.508980
265, 7.523658, 0.000000, 38.186935
266, 4.813308, 0.000000, 33.391857
267, 82.500000, 0.000000, 12.368603
268, 80.000000, 0.000000, 16.698730
269, 80.000511, 0.000000, 34.015106
270, 90.029549, 0.000000, 51.484913
271, 92.524719, 0.000000, 47.152950
272, 90.155342, 0.000000, 42.644070
273, 92.632729, 0.000000, 38.069374
274, 87.653481, 0.000000, 38.213779
275, 90.216911, 0.000000, 33.907852
276, 27.500000, 0.000000, 47.009621
277, 32.500000, 0.000000, 47.009621
278, 25.000000, 0.000000, 51.339745
279, 82.500000, 0.000000, 4.330127
280, 62.500000, 0.000000, 55.669872
281, 65.000000, 0.000000, 51.339745
282, 60.000000, 0.000000, 51.339745
283, 62.500000, 0.000000, 47.009621
284, 57.500000, 0.000000, 47.009621
285, 55.000000, 0.000000, 51.339745
286, 52.500000, 0.000000, 47.009621
287, 55.000000, 0.000000, 42.679493
288, 72.499863, 0.000000, 47.009697
289, 77.500084, 0.000000, 29.688425
290, 47.500000, 0.000000, 4.330127
291, 47.500000, 0.000000, 55.669872
292, 45.000000, 0.000000, 51.339745
293, 40.000000, 0.000000, 51.339745
294, 42.500000, 0.000000, 47.009621
295, 47.500000, 0.000000, 47.009621
296, 50.000000, 0.000000, 51.339745
297, 57.502625, 0.000000, 4.266179
298, 40.000000, 0.000000, 25.358984
299, 65.000000, 0.000000, 25.358984
300, 17.515799, 0.000000, 29.698233
301, 57.500000, 0.000000, 55.669872
302, 12.540865, 0.000000, 4.297892
303, 15.035724, 0.000000, 8.498625
304, 10.067119, 0.000000, 8.153435
305, 32.500000, 0.000000, 38.349365
306, 12.616881, 0.000000, 29.756691
307, 9.436878, 0.000000, 25.211531
308, 95.595840, 0.000000, 22.550709
309, 95.669876, 0.000000, 27.500000
310, 30.000000, 0.000000, 25.358984
311, 22.503674, 0.000000, 4.234402
312, 4.261886, 0.000000, 12.822587
313, 8.155247, 0.000000, 15.304589
314, 8.602387, 0.000000, 19.970778
315, 4.449920, 0.000000, 22.530384
316, 67.499992, 0.000000, 38.349373
317, 27.501575, 0.000000, 21.029766
318, 20.002632, 0.000000, 34.020760
319, 17.496504, 0.000000, 47.009090
320, 85.054726, 0.000000, 42.647224
321, 35.000000, 0.000000, 42.679493
322, 37.500000, 0.000000, 55.669872
323, 77.499771, 0.000000, 55.670006
324, 42.500000, 0.000000, 38.349365
325, 72.499977, 0.000000, 55.669884
326, 69.999931, 0.000000, 51.339787
327, 22.500000, 0.000000, 55.669872
328, 82.497078, 0.000000, 29.686565
329, 50.000000, 0.000000, 42.679493
330, 67.499962, 0.000000, 47.009640
331, 45.000000, 0.000000, 42.679493
332, 52.500000, 0.000000, 38.349365
333, 64.999985, 0.000000, 42.679501
334, 40.000000, 0.000000, 42.679493
335, 67.501198, 0.000000, 21.029789
336, 35.000000, 0.000000, 51.339745
337, 27.500000, 0.000000, 55.669872
338, 30.000000, 0.000000, 51.339745
339, 19.999418, 0.000000, 51.339657
340, 57.500000, 0.000000, 38.349365
341, 59.999996, 0.000000, 42.679493
342, 27.554331, 0.000000, 12.457971
343, 37.500000, 0.000000, 47.009621
344, 62.501400, 0.000000, 21.029945
345, 14.987458, 0.000000, 51.367321
346, 57.500362, 0.000000, 21.030872
347, 12.530409, 0.000000, 55.726269
348, 50.000008, 0.000000, 25.359152
349, 55.000027, 0.000000, 25.359179
350, 47.500015, 0.000000, 21.029690
351, 42.500008, 0.000000, 21.030138
352, 37.500004, 0.000000, 21.030704
353, 32.500263, 0.000000, 21.030788
354, 30.018139, 0.000000, 16.722328
355, 85.003548, 0.000000, 33.999447
356, 7.676977, 0.000000, 55.874977
357, 92.346603, 0.000000, 55.893623
358, 7.676300, 0.000000, 4.007026
359, 92.354828, 0.000000, 4.065808
360, 37.515602, 0.000000, 4.159830
361, 30.036999, 0.000000, 8.281696
362, 72.515602, 0.000000, 4.159784
363, 17.668232, 0.000000, 12.544852
364, 65.036545, 0.000000, 8.280387
365, 45.000000, 0.000000, 8.349365
366, 50.000000, 0.000000, 8.349365
367, 55.001205, 0.000000, 8.353701
368, 25.023331, 0.000000, 8.321136
369, 60.021202, 0.000000, 8.330098
370, 85.000000, 0.000000, 8.349445
371, 80.000000, 0.000000, 8.349365
372, 32.529510, 0.000000, 4.150276
373, 40.000000, 0.000000, 8.349577
374, 20.010633, 0.000000, 8.357227
375, 67.529434, 0.000000, 4.150003
376, 75.000000, 0.000000, 8.349577
377, 90.064018, 0.000000, 8.207099
378, 12.212041, 0.000000, 12.920822
379, 12.968272, 0.000000, 21.234354
380, 8.189482, 0.000000, 29.987150
381, 91.891747, 0.000000, 29.872421
382, 91.762344, 0.000000, 20.500311
383, 3.284050, 0.000000, 47.358379
384, 96.710701, 0.000000, 47.347965
385, 96.665512, 0.000000, 12.500000
386, 96.737190, 0.000000, 37.500000
387, 3.356523, 0.000000, 37.828861
388, 3.660254, 0.000000, 56.339745
389, 96.339745, 0.000000, 56.339745
390, 96.339745, 0.000000, 3.660254
391, 3.660254, 0.000000, 3.660254
392, 11.387840, 0.000000, 17.500000
393, 7.829928, 0.000000, 11.476324
394, 100.000000, 15.907334, 47.216629
395, 100.000000, 4.096408, 12.545716
396, 100.000000, 4.118271, 22.500000
397, 100.000000, 4.385583, 32.893974
398, 100.000000, 4.330127, 42.500000
399, 100.000000, 15.329997, 17.500000
400, 100.000000, 15.881728, 27.500000
401, 100.000000, 15.669873, 37.500000
402, 100.000000, 7.693376, 55.781517
403, 100.000000, 15.766140, 7.521187
404, 100.000000, 7.691840, 5.089017
405, 100.000000, 12.490559, 55.772923
406, 100.000000, 10.122966, 51.783928
407, 100.000000, 4.617994, 51.916401
408, 100.000000, 7.729568, 47.103363
409, 100.000000, 15.772872, 42.452770
410, 100.000000, 11.646501, 40.032253
411, 100.000000, 11.294623, 34.484745
412, 100.000000, 7.009619, 37.500000
413, 100.000000, 15.760229, 12.276706
414, 100.000000, 11.339746, 10.000000
415, 100.000000, 15.779494, 22.726826
416, 100.000000, 11.339746, 25.000000
417, 100.000000, 4.255865, 17.507620
418, 100.000000, 8.513787, 14.460213
419, 100.000000, 8.494504, 20.475540
420, 100.000000, 4.092205, 27.565662
421, 100.000000, 8.660254, 30.000000
422, 100.000000, 15.909517, 32.414124
423, 100.000000, 3.808001, 7.720682
424, 100.000000, 15.300433, 52.094025
425, 100.000000, 12.565359, 4.324169
426, 100.000000, 11.944220, 44.681786
427, 100.000000, 3.335538, 47.303955
428, 100.000000, 8.484753, 42.471272
429, 100.000000, 7.340996, 25.108240
430, 100.000000, 11.614761, 17.496655
431, 100.000000, 3.058994, 37.500000
432, 100.000000, 12.617174, 29.879774
433, 100.000000, 7.089956, 9.963125
434, 100.000000, 3.660254, 56.339745
435, 100.000000, 3.402907, 3.590029
436, 100.000000, 16.339746, 3.660254
437, 100.000000, 16.339746, 56.339745
438, 100.000000, 7.837520, 33.719681
439, 100.000000, 12.511704, 14.346715
440, 100.000000, 12.401355, 20.845846
441, 100.000000, 12.242424, 48.544952
442, 67.500000, 20.000000, 4.176682
443, 37.586403, 20.000000, 4.122868
444, 52.500000, 20.000000, 55.669872
445, 32.500000, 20.000000, 55.669872
446, 72.500000, 20.000000, 55.669872
447, 52.586403, 20.000000, 4.122868
448, 4.167506, 20.000000, 27.580736
449, 95.669876, 20.000000, 27.500000
450, 22.530859, 20.000000, 4.199876
451, 4.438495, 20.000000, 42.606949
452, 95.518204, 20.000000, 42.585773
453, 82.469139, 20.000000, 4.199876
454, 17.500000, 20.000000, 55.669872
455, 62.500000, 20.000000, 55.669872
456, 82.500000, 20.000000, 55.669872
457, 42.500000, 20.000000, 55.669872
458, 95.232353, 20.000000, 17.098129
459, 4.595505, 20.000000, 17.207747
460, 12.500000, 20.000000, 4.330127
461, 95.471512, 20.000000, 52.040871
462, 4.503857, 20.000000, 51.844090
463, 92.488266, 20.000000, 4.145903
464, 4.470727, 20.000000, 7.760005
465, 12.540865, 20.000000, 55.693466
466, 15.006811, 20.000000, 51.343678
467, 20.001135, 20.000000, 51.340401
468, 17.501324, 20.000000, 47.010384
469, 22.500410, 20.000000, 47.009857
470, 20.000290, 20.000000, 42.679657
471, 25.000116, 20.000000, 42.679558
472, 22.500067, 20.000000, 38.349403
473, 27.500031, 20.000000, 38.349384
474, 25.000017, 20.000000, 34.019249
475, 30.000008, 20.000000, 34.019241
476, 27.500004, 20.000000, 29.689114
477, 32.500004, 20.000000, 29.689112
478, 35.000000, 20.000000, 34.019238
479, 37.500000, 20.000000, 29.689112
480, 40.000000, 20.000000, 34.019238
481, 42.500000, 20.000000, 29.689112
482, 45.000000, 20.000000, 34.019238
483, 47.500000, 20.000000, 29.689112
484, 50.000000, 20.000000, 34.019238
485, 52.500000, 20.000000, 29.689112
486, 55.000000, 20.000000, 34.019238
487, 57.500000, 20.000000, 29.689112
488, 60.000000, 20.000000, 34.019238
489, 62.500000, 20.000000, 29.689112
490, 65.000000, 20.000000, 34.019238
491, 67.500000, 20.000000, 29.689112
492, 70.000000, 20.000000, 34.019238
493, 72.500000, 20.000000, 29.689112
494, 30.000002, 20.000000, 25.358984
495, 45.000000, 20.000000, 25.358984
496, 60.000000, 20.000000, 25.358984
497, 75.000000, 20.000000, 34.019238
498, 25.000000, 20.000000, 25.358984
499, 70.000000, 20.000000, 25.358984
500, 75.000000, 20.000000, 25.358984
501, 67.500000, 20.000000, 38.349365
502, 57.500000, 20.000000, 38.349365
503, 47.500000, 20.000000, 38.349365
504, 37.500000, 20.000000, 38.349365
505, 27.500000, 20.000000, 21.028856
506, 22.500000, 20.000000, 21.028856
507, 72.500000, 20.000000, 21.028856
508, 77.500000, 20.000000, 21.028856
509, 20.000013, 20.000000, 34.019245
510, 80.000000, 20.000000, 25.358984
511, 32.500000, 20.000000, 21.028856
512, 30.000000, 20.000000, 16.698730
513, 75.000000, 20.000000, 16.698730
514, 70.000000, 20.000000, 16.698730
515, 35.000000, 20.000000, 16.698730
516, 80.000000, 20.000000, 16.698730
517, 15.000269, 20.000000, 42.679646
518, 27.500088, 20.000000, 47.009670
519, 20.000000, 20.000000, 25.358984
520, 17.521036, 20.000000, 21.016712
521, 20.003506, 20.000000, 16.696705
522, 15.025127, 20.000000, 16.684223
523, 15.061770, 20.000000, 25.366308
524, 32.500000, 20.000000, 12.420453
525, 77.456795, 20.000000, 12.393545
526, 17.500000, 20.000000, 12.368603
527, 27.543201, 20.000000, 12.402187
528, 37.543201, 20.000000, 12.454038
529, 40.007202, 20.000000, 16.712969
530, 42.551601, 20.000000, 12.410158
531, 45.009800, 20.000000, 16.708029
532, 47.510235, 20.000000, 12.428928
533, 50.003338, 20.000000, 16.710335
534, 82.449600, 20.000000, 12.449517
535, 84.991600, 20.000000, 16.712215
536, 87.495003, 20.000000, 12.429502
537, 52.545464, 20.000000, 12.457384
538, 55.008133, 20.000000, 16.715460
539, 57.552135, 20.000000, 12.411131
540, 60.010044, 20.000000, 16.708607
541, 62.510365, 20.000000, 12.429187
542, 12.500000, 20.000000, 12.368603
543, 52.500000, 20.000000, 21.028856
544, 30.093605, 20.000000, 8.259974
545, 45.096710, 20.000000, 8.262715
546, 60.096821, 20.000000, 8.262920
547, 9.958988, 20.000000, 51.375065
548, 90.000000, 20.000000, 16.698730
549, 87.380447, 20.000000, 20.962889
550, 92.500000, 20.000000, 12.368603
551, 10.002972, 20.000000, 16.828674
552, 7.491810, 20.000000, 12.436907
553, 7.770979, 20.000000, 21.386889
554, 42.502834, 20.000000, 21.032780
555, 25.000273, 20.000000, 51.339905
556, 65.003403, 20.000000, 16.710474
557, 67.500595, 20.000000, 12.398735
558, 67.500565, 20.000000, 21.030813
559, 72.492897, 20.000000, 12.429632
560, 74.905212, 20.000000, 8.260064
561, 35.000000, 20.000000, 25.358984
562, 40.000473, 20.000000, 25.359638
563, 17.502625, 20.000000, 4.266179
564, 37.501751, 20.000000, 21.031994
565, 37.500000, 20.000000, 55.669872
566, 40.000000, 20.000000, 51.339745
567, 45.000000, 20.000000, 51.339745
568, 42.500000, 20.000000, 47.009621
569, 47.500000, 20.000000, 47.009621
570, 37.500000, 20.000000, 47.009621
571, 40.000000, 20.000000, 42.679493
572, 35.000000, 20.000000, 42.679493
573, 50.000000, 20.000000, 51.339745
574, 52.500000, 20.000000, 47.009621
575, 50.000000, 20.000000, 42.679493
576, 55.000000, 20.000000, 42.679493
577, 57.500000, 20.000000, 47.009621
578, 60.000000, 20.000000, 42.679493
579, 62.500000, 20.000000, 47.009621
580, 65.000000, 20.000000, 42.679493
581, 67.500000, 20.000000, 47.009621
582, 70.000000, 20.000000, 42.679493
583, 72.500000, 20.000000, 47.009621
584, 75.000000, 20.000000, 42.679493
585, 77.500000, 20.000000, 47.009621
586, 80.000000, 20.000000, 42.679493
587, 82.500000, 20.000000, 47.009621
588, 85.000000, 20.000000, 42.679493
589, 82.500000, 20.000000, 38.349365
590, 87.500000, 20.000000, 38.349365
591, 85.000000, 20.000000, 34.019238
592, 87.500000, 20.000000, 47.009621
593, 89.910255, 20.000000, 34.071053
594, 87.395294, 20.000000, 29.749561
595, 92.413422, 20.000000, 38.251167
596, 95.153793, 20.000000, 33.456955
597, 82.482552, 20.000000, 29.699186
598, 85.000000, 20.000000, 25.358984
599, 90.695442, 20.000000, 25.241571
600, 72.500000, 20.000000, 38.349365
601, 60.000000, 20.000000, 51.339745
602, 70.000000, 20.000000, 51.339745
603, 77.500000, 20.000000, 38.349365
604, 80.000000, 20.000000, 51.339745
605, 30.000059, 20.000000, 51.339779
606, 62.500000, 20.000000, 38.349365
607, 57.503029, 20.000000, 21.033291
608, 47.500000, 20.000000, 55.669872
609, 12.415908, 20.000000, 47.000996
610, 10.000000, 20.000000, 42.679493
611, 12.500045, 20.000000, 38.349392
612, 7.500000, 20.000000, 38.349365
613, 10.089753, 20.000000, 34.071056
614, 7.401792, 20.000000, 47.167767
615, 4.871986, 20.000000, 33.630650
616, 42.500000, 20.000000, 38.349365
617, 90.071938, 20.000000, 42.647507
618, 92.535378, 20.000000, 47.187252
619, 90.043617, 20.000000, 51.509800
620, 95.594818, 20.000000, 22.554674
621, 52.500000, 20.000000, 38.349365
622, 57.500000, 20.000000, 55.669872
623, 65.000000, 20.000000, 51.339745
624, 67.500000, 20.000000, 55.669872
625, 87.492905, 20.000000, 4.174085
626, 45.000000, 20.000000, 42.679493
627, 77.497093, 20.000000, 29.690790
628, 82.478676, 20.000000, 21.020109
629, 65.000092, 20.000000, 25.359310
630, 47.502663, 20.000000, 21.032995
631, 50.000443, 20.000000, 25.359673
632, 22.500235, 20.000000, 55.670010
633, 79.996605, 20.000000, 34.021198
634, 77.500000, 20.000000, 55.669872
635, 17.500059, 20.000000, 38.349400
636, 32.500008, 20.000000, 38.349369
637, 30.000040, 20.000000, 42.679516
638, 22.500002, 20.000000, 29.689112
639, 75.000000, 20.000000, 51.339745
640, 27.500034, 20.000000, 55.669891
641, 55.000000, 20.000000, 51.339745
642, 85.007271, 20.000000, 51.368088
643, 22.550987, 20.000000, 12.450621
644, 25.016283, 20.000000, 16.717659
645, 15.014978, 20.000000, 34.027885
646, 55.000580, 20.000000, 25.359838
647, 35.000011, 20.000000, 51.339752
648, 87.467613, 20.000000, 55.726532
649, 17.512794, 20.000000, 29.691774
650, 32.500034, 20.000000, 47.009640
651, 12.656857, 20.000000, 29.774162
652, 62.502857, 20.000000, 21.033579
653, 12.613289, 20.000000, 21.043982
654, 10.473865, 20.000000, 25.396893
655, 92.322296, 20.000000, 55.875069
656, 7.710171, 20.000000, 55.828083
657, 7.645171, 20.000000, 4.065808
658, 32.530003, 20.000000, 4.125241
659, 47.530518, 20.000000, 4.125698
660, 79.963455, 20.000000, 8.278565
661, 25.036442, 20.000000, 8.280175
662, 62.516136, 20.000000, 4.134701
663, 72.484200, 20.000000, 4.134225
664, 40.046318, 20.000000, 8.269731
665, 55.046803, 20.000000, 8.270484
666, 15.000000, 20.000000, 8.349365
667, 20.020151, 20.000000, 8.319137
668, 84.978348, 20.000000, 8.313485
669, 90.158554, 20.000000, 8.155263
670, 27.531818, 20.000000, 4.144211
671, 42.543327, 20.000000, 4.130168
672, 57.541027, 20.000000, 4.131829
673, 77.470337, 20.000000, 4.145455
674, 35.049923, 20.000000, 8.275384
675, 69.992889, 20.000000, 8.328406
676, 50.052689, 20.000000, 8.278013
677, 65.019470, 20.000000, 8.288439
678, 9.934618, 20.000000, 8.218470
679, 95.609039, 20.000000, 7.837201
680, 91.821098, 20.000000, 30.002735
681, 8.100630, 20.000000, 29.597239
682, 3.643654, 20.000000, 22.542751
683, 91.780609, 20.000000, 20.511198
684, 96.705017, 20.000000, 47.362778
685, 96.666924, 20.000000, 12.479993
686, 3.311609, 20.000000, 12.480931
687, 3.425574, 20.000000, 37.832104
688, 96.569008, 20.000000, 37.816845
689, 3.218735, 20.000000, 47.374115
690, 3.660254, 20.000000, 56.339745
691, 96.339745, 20.000000, 56.339745
692, 3.660254, 20.000000, 3.660254
693, 96.365204, 20.000000, 3.634796
694, 6.749013, 20.000000, 24.988911
695, 0.000000, 15.903592, 47.454285
696, 0.000000, 4.092665, 12.783373
697, 0.000000, 4.661406, 22.524107
698, 0.000000, 4.419072, 33.019863
699, 0.000000, 4.330127, 42.500000
700, 0.000000, 15.387360, 17.060652
701, 0.000000, 15.881728, 27.500000
702, 0.000000, 15.669873, 37.500000
703, 0.000000, 12.306624, 4.218482
704, 0.000000, 4.233860, 52.478813
705, 0.000000, 12.308161, 54.910984
706, 0.000000, 7.509441, 4.227079
707, 0.000000, 9.877034, 8.216072
708, 0.000000, 15.382006, 8.083598
709, 0.000000, 12.309445, 12.831262
710, 0.000000, 4.183125, 47.723293
711, 0.000000, 8.660254, 50.000000
712, 0.000000, 15.708826, 42.492382
713, 0.000000, 11.558094, 39.998730
714, 0.000000, 11.306570, 34.605896
715, 0.000000, 7.009619, 37.500000
716, 0.000000, 15.658096, 22.426775
717, 0.000000, 11.671924, 20.371567
718, 0.000000, 11.519734, 25.594185
719, 0.000000, 15.911509, 32.434315
720, 0.000000, 4.141353, 17.352545
721, 0.000000, 4.269207, 27.817488
722, 0.000000, 8.553497, 30.148205
723, 0.000000, 11.512361, 45.539604
724, 0.000000, 16.191999, 52.279316
725, 0.000000, 7.434641, 55.675831
726, 0.000000, 4.699567, 7.905975
727, 0.000000, 8.279723, 15.000000
728, 0.000000, 16.650635, 12.500000
729, 0.000000, 8.392067, 22.560318
730, 0.000000, 8.456942, 42.379856
731, 0.000000, 3.058994, 37.500000
732, 0.000000, 12.634608, 30.056520
733, 0.000000, 12.915274, 50.036839
734, 0.000000, 16.597094, 56.409969
735, 0.000000, 3.660254, 56.339745
736, 0.000000, 16.339746, 3.660254
737, 0.000000, 3.660254, 3.660254
738, 0.000000, 7.428562, 45.628551
739, 0.000000, 7.860889, 33.685757
740, 0.000000, 7.479182, 25.728861
741, 0.000000, 7.968388, 18.926497
742, 0.000000, 7.757576, 11.455047
743, 0.000000, 11.332949, 16.640207
744, 12.480562, 15.497697, 0.000000
745, 87.519440, 4.502303, 0.000000
746, 67.500000, 15.669873, 0.000000
747, 27.500000, 4.330127, 0.000000
748, 37.500000, 4.330127, 0.000000
749, 77.500000, 4.330127, 0.000000
750, 57.500000, 4.330127, 0.000000
751, 47.500000, 15.669873, 0.000000
752, 18.019863, 4.419072, 0.000000
753, 22.500000, 15.669873, 0.000000
754, 32.500000, 15.669873, 0.000000
755, 82.726822, 15.800831, 0.000000
756, 67.500000, 4.330127, 0.000000
757, 58.051563, 15.773825, 0.000000
758, 47.500000, 4.330127, 0.000000
759, 7.521187, 4.233860, 0.000000
760, 92.478813, 15.766140, 0.000000
761, 96.046471, 7.183804, 0.000000
762, 3.953531, 12.816196, 0.000000
763, 62.500000, 4.330127, 0.000000
764, 60.226826, 8.529296, 0.000000
765, 55.016685, 8.682475, 0.000000
766, 27.500000, 15.669873, 0.000000
767, 25.000000, 11.551601, 0.000000
768, 20.108461, 11.420549, 0.000000
769, 22.500000, 7.009619, 0.000000
770, 30.000000, 11.586911, 0.000000
771, 35.000000, 11.592795, 0.000000
772, 32.500000, 7.009619, 0.000000
773, 37.500000, 15.712048, 0.000000
774, 40.000000, 11.600805, 0.000000
775, 42.500000, 15.720412, 0.000000
776, 45.000000, 11.603535, 0.000000
777, 42.500000, 7.009619, 0.000000
778, 50.553947, 11.484556, 0.000000
779, 65.037804, 8.426572, 0.000000
780, 70.006302, 8.409451, 0.000000
781, 62.580963, 12.928346, 0.000000
782, 12.500000, 4.330127, 0.000000
783, 9.972821, 8.114915, 0.000000
784, 14.665447, 8.097227, 0.000000
785, 72.501053, 4.288327, 0.000000
786, 75.001228, 8.399632, 0.000000
787, 79.583534, 8.129855, 0.000000
788, 72.500000, 12.990381, 0.000000
789, 52.729607, 4.202873, 0.000000
790, 77.369682, 15.653852, 0.000000
791, 87.534271, 15.707744, 0.000000
792, 90.032890, 11.891397, 0.000000
793, 52.684254, 15.923189, 0.000000
794, 17.741663, 15.785602, 0.000000
795, 85.465668, 11.946787, 0.000000
796, 82.207001, 4.139466, 0.000000
797, 92.796410, 3.890925, 0.000000
798, 7.203588, 16.109076, 0.000000
799, 4.473917, 7.862515, 0.000000
800, 95.526497, 12.137944, 0.000000
801, 12.321392, 11.167228, 0.000000
802, 87.705971, 8.842837, 0.000000
803, 22.500000, 3.058994, 0.000000
804, 67.525017, 11.684925, 0.000000
805, 27.500000, 8.297575, 0.000000
806, 77.328102, 11.586898, 0.000000
807, 62.500000, 16.941006, 0.000000
808, 72.500000, 16.941006, 0.000000
809, 32.500000, 3.058994, 0.000000
810, 55.012203, 12.684807, 0.000000
811, 37.500000, 8.308593, 0.000000
812, 47.382980, 8.460469, 0.000000
813, 42.500000, 3.058994, 0.000000
814, 96.339745, 3.660254, 0.000000
815, 3.660254, 16.339746, 0.000000
816, 3.660254, 3.660254, 0.000000
817, 96.339745, 16.339746, 0.000000
818, 91.872826, 7.999191, 0.000000
819, 8.127176, 12.000809, 0.000000
820, 16.173100, 11.878031, 0.000000
821, 83.809822, 8.081964, 0.000000
822, 58.177647, 11.719749, 0.000000
823, 18.513073, 8.126108, 0.000000
824, 50.636646, 7.432100, 0.000000
825, 81.136894, 11.940639, 0.000000
826, 12.500000, 15.669873, 60.000000
827, 87.519440, 4.502303, 60.000000
828, 67.500000, 15.669873, 60.000000
829, 27.500000, 4.330127, 60.000000
830, 37.500000, 4.330127, 60.000000
831, 77.500000, 4.330127, 60.000000
832, 57.500000, 4.330127, 60.000000
833, 47.500000, 15.669873, 60.000000
834, 18.019863, 4.419072, 60.000000
835, 22.500000, 15.669873, 60.000000
836, 32.500000, 15.669873, 60.000000
837, 82.726822, 15.800831, 60.000000
838, 67.500000, 4.330127, 60.000000
839, 58.051563, 15.773825, 60.000000
840, 47.500000, 4.330127, 60.000000
841, 92.478813, 15.766140, 60.000000
842, 7.521187, 4.233860, 60.000000
843, 96.046471, 7.183804, 60.000000
844, 5.089017, 12.308161, 60.000000
845, 62.500000, 4.330127, 60.000000
846, 60.226826, 8.529296, 60.000000
847, 55.016685, 8.682475, 60.000000
848, 27.500000, 15.669873, 60.000000
849, 25.000000, 11.551601, 60.000000
850, 19.606026, 11.305908, 60.000000
851, 22.500000, 7.009619, 60.000000
852, 30.000000, 11.586911, 60.000000
853, 35.000000, 11.592795, 60.000000
854, 32.500000, 7.009619, 60.000000
855, 37.500000, 15.712048, 60.000000
856, 40.000000, 11.600805, 60.000000
857, 42.500000, 15.720412, 60.000000
858, 45.000000, 11.603535, 60.000000
859, 42.500000, 7.009619, 60.000000
860, 50.553947, 11.484556, 60.000000
861, 65.037804, 8.426572, 60.000000
862, 70.006302, 8.409451, 60.000000
863, 62.580963, 12.928346, 60.000000
864, 12.500000, 4.330127, 60.000000
865, 9.054646, 8.313015, 60.000000
866, 72.501053, 4.288327, 60.000000
867, 75.001228, 8.399632, 60.000000
868, 79.583534, 8.129855, 60.000000
869, 72.500000, 12.990381, 60.000000
870, 52.729607, 4.202873, 60.000000
871, 77.369682, 15.653852, 60.000000
872, 87.534271, 15.707744, 60.000000
873, 90.032890, 11.891397, 60.000000
874, 52.684254, 15.923189, 60.000000
875, 17.434338, 15.876089, 60.000000
876, 14.692670, 8.779144, 60.000000
877, 85.465668, 11.946787, 60.000000
878, 82.207001, 4.139466, 60.000000
879, 92.796410, 3.890925, 60.000000
880, 7.722242, 16.055443, 60.000000
881, 4.205038, 7.493843, 60.000000
882, 95.526497, 12.137944, 60.000000
883, 14.852427, 12.846302, 60.000000
884, 87.705971, 8.842837, 60.000000
885, 22.500000, 3.058994, 60.000000
886, 67.525017, 11.684925, 60.000000
887, 27.500000, 8.297575, 60.000000
888, 77.328102, 11.586898, 60.000000
889, 62.500000, 16.941006, 60.000000
890, 72.500000, 16.941006, 60.000000
891, 32.500000, 3.058994, 60.000000
892, 55.012203, 12.684807, 60.000000
893, 37.500000, 8.308593, 60.000000
894, 47.382980, 8.460469, 60.000000
895, 42.500000, 3.058994, 60.000000
896, 10.651834, 12.328656, 60.000000
897, 96.339745, 3.660254, 60.000000
898, 3.562252, 16.672720, 60.000000
899, 3.660254, 3.660254, 60.000000
900, 96.339745, 16.339746, 60.000000
901, 91.872826, 7.999191, 60.000000
902, 83.809822, 8.081964, 60.000000
903, 58.177647, 11.719749, 60.000000
904, 18.685900, 7.877314, 60.000000
905, 50.636646, 7.432100, 60.000000
906, 81.136894, 11.940639, 60.000000
907, 17.528736, 10.000266, 49.881165
908, 9.997425, 9.914927, 16.069698
909, 57.326767, 10.000000, 49.796356
910, 86.039970, 10.000838, 50.069229
911, 86.044510, 10.004120, 9.987349
912, 18.387611, 10.004153, 10.112070
913, 58.379009, 9.995986, 10.143648
914, 15.000050, 10.000005, 39.785690
915, 60.000000, 10.000000, 39.744045
916, 27.882957, 10.000010, 49.675350
917, 25.001562, 9.999999, 36.905087
918, 49.989525, 10.000000, 36.899940
919, 70.010475, 10.000003, 36.899940
920, 22.500000, 10.000000, 26.801908
921, 35.000977, 10.000000, 39.793304
922, 69.987991, 10.005500, 13.829315
923, 72.500000, 10.000000, 23.928177
924, 42.500000, 10.000000, 49.896370
925, 60.000000, 10.000000, 28.245735
926, 40.000000, 10.000000, 28.245735
927, 72.500000, 10.000021, 49.896370
928, 49.999985, 9.999432, 22.472641
929, 37.502266, 9.996833, 18.144970
930, 82.498871, 10.000049, 35.461960
931, 27.511665, 10.007903, 15.270900
932, 45.098637, 10.003339, 11.084380
933, 89.768646, 10.005007, 28.037287
934, 10.342165, 10.026049, 30.627665
935, 81.534882, 9.998165, 19.156061
936, 90.804504, 10.888690, 18.818895
937, 61.973625, 10.712330, 18.945223
938, 90.358047, 9.692623, 41.289604
939, 34.676109, 9.381167, 9.165348
940, 8.911926, 9.494223, 46.675064
941, 31.041723, 9.062211, 30.048250
942, 79.346832, 10.996531, 43.958878
943, 77.313980, 8.631575, 8.633454
944, 18.354210, 11.319111, 18.972195
945, 49.884033, 11.702499, 45.495380
946, 64.935852, 8.145760, 46.438248
947, 80.122360, 8.301696, 27.421207
948, 43.123127, 8.227057, 41.599236
949, 10.593122, 11.773333, 8.048983
950, 52.037395, 7.805365, 14.846148
951, 30.858582, 12.102590, 22.446001
952, 22.594080, 7.521601, 44.158501
953, 50.256851, 7.749730, 52.212749
954, 35.226639, 7.673212, 47.460423
955, 17.658182, 7.522860, 32.663109
956, 7.897133, 7.623411, 23.420416
957, 52.500797, 12.084089, 29.688026
958, 67.495361, 12.086329, 29.692469
959, 25.731062, 7.930544, 7.773690
960, 65.561287, 12.142405, 7.641251
961, 42.500000, 12.666230, 35.174694
962, 92.508682, 7.180170, 34.491783
963, 75.065292, 12.594234, 31.542427
964, 51.509075, 8.632254, 7.381359
965, 79.239052, 7.501643, 52.417240
966, 15.301347, 8.097267, 25.169432
967, 7.605598, 12.083017, 37.788944
968, 65.838814, 12.528838, 52.611855
969, 46.659042, 7.424896, 30.651764
970, 44.521477, 12.641892, 18.082554
971, 28.722733, 12.666497, 42.775665
972, 73.050514, 7.158855, 43.054268
973, 56.224148, 7.290536, 33.994888
974, 63.775852, 7.290536, 33.994888
975, 65.649925, 7.283000, 24.349646
976, 36.228378, 12.799535, 52.760578
977, 76.571152, 13.108102, 14.741732
978, 56.688656, 7.105388, 22.434406
979, 92.726822, 7.152277, 7.563908
980, 93.070839, 12.758854, 12.173264
981, 43.376778, 7.039855, 22.547798
982, 92.963547, 12.756310, 51.194153
983, 55.197693, 13.065868, 18.578024
984, 54.960930, 7.025069, 43.785599
985, 37.500000, 6.666708, 34.019310
986, 38.750488, 13.333658, 44.844837
987, 25.000788, 6.664636, 21.031923
988, 74.921112, 6.992422, 17.962452
989, 69.021362, 12.995949, 43.255421
990, 76.254753, 6.662854, 36.181557
991, 11.568212, 7.044317, 53.145027
992, 7.473275, 13.202823, 52.914104
993, 22.768747, 13.536637, 52.938271
994, 22.768570, 6.463440, 52.938179
995, 6.785354, 6.774276, 10.855672
996, 70.500900, 7.040654, 7.392211
997, 35.295280, 6.896639, 24.050894
998, 62.500000, 6.367488, 52.783123
999, 63.746220, 6.846498, 13.371945
1000, 45.980522, 13.333336, 27.057310
1001, 53.166313, 13.640331, 53.612309
1002, 88.819267, 13.139876, 35.325275
1003, 40.277481, 13.063566, 6.913123
1004, 11.496094, 13.524133, 23.197100
1005, 35.849613, 13.258274, 32.719967
1006, 75.936096, 13.257632, 38.376728
1007, 19.060461, 13.380476, 44.132988
1008, 72.430199, 13.672459, 6.939148
1009, 71.551941, 6.686364, 31.058310
1010, 68.300827, 13.319738, 19.612640
1011, 21.616375, 6.480259, 15.052094
1012, 86.425537, 6.598379, 15.865936
1013, 19.234516, 13.430608, 35.684807
1014, 86.626823, 7.088749, 22.694941
1015, 61.031548, 13.584687, 45.399971
1016, 84.111450, 6.724674, 41.335823
1017, 54.314507, 13.552691, 40.716312
1018, 16.173712, 13.330187, 29.435658
1019, 26.134680, 13.561380, 31.263243
1020, 24.616516, 13.600521, 20.246471
1021, 78.192619, 13.668653, 23.765635
1022, 29.377542, 6.351728, 40.508625
1023, 64.390656, 13.640882, 36.158840
1024, 14.552771, 6.166108, 45.262249
1025, 39.593880, 6.433766, 12.775314
1026, 77.044258, 13.825965, 53.046246
1027, 50.695690, 13.603790, 11.786521
1028, 38.068401, 6.341997, 53.434715
1029, 93.416428, 6.520127, 23.403370
1030, 57.511204, 13.822215, 34.824303
1031, 33.203743, 13.536920, 14.299473
1032, 84.074089, 13.362858, 29.735168
1033, 29.729660, 13.365203, 6.606846
1034, 32.994225, 6.162593, 14.999377
1035, 84.781509, 13.501231, 40.789665
1036, 62.515461, 6.321496, 6.385273
1037, 23.986677, 13.636865, 10.854710
1038, 37.192905, 13.846559, 23.579466
1039, 25.236164, 6.147506, 31.485716
1040, 6.431294, 6.355608, 34.586391
1041, 85.745186, 13.555296, 15.535823
1042, 14.151209, 6.321254, 6.445085
1043, 30.397318, 13.840367, 36.460777
1044, 91.774918, 6.928818, 47.540592
1045, 46.578289, 13.903618, 53.315269
1046, 65.779251, 6.119489, 40.193752
1047, 92.948914, 6.403416, 14.315583
1048, 81.430717, 13.606087, 6.565726
1049, 64.767365, 14.013476, 13.981416
1050, 55.024338, 13.891763, 6.302841
1051, 80.117783, 6.026341, 14.010255
1052, 68.971611, 6.137424, 53.862576
1053, 46.201653, 13.918715, 40.544247
1054, 39.982849, 13.940197, 13.457128
1055, 6.309319, 6.520048, 41.275024
1056, 52.284988, 6.041832, 27.166319
1057, 14.824962, 13.946347, 14.041269
1058, 13.983054, 13.981542, 53.637180
1059, 15.055330, 6.044316, 14.247353
1060, 63.898434, 13.625727, 24.463760
1061, 45.741203, 6.004715, 6.023271
1062, 31.547672, 6.022004, 53.332951
1063, 45.897472, 6.454206, 16.565779
1064, 12.631402, 14.155535, 44.150883
1065, 47.432476, 13.555655, 6.155272
1066, 85.983139, 13.682322, 22.413191
1067, 67.786819, 5.918132, 18.370750
1068, 20.000000, 5.946789, 38.464790
1069, 93.799141, 13.947772, 31.246426
1070, 46.840477, 6.329660, 47.034718
1071, 6.115280, 13.510190, 26.983200
1072, 58.060703, 6.098849, 16.248634
1073, 93.759918, 13.736484, 24.133734
1074, 93.780769, 6.675905, 53.822624
1075, 59.828785, 13.800099, 54.229458
1076, 29.832888, 14.208357, 54.130024
1077, 6.096419, 13.942865, 19.485357
1078, 86.518547, 6.074418, 32.123764
1079, 56.213192, 13.782456, 24.813564
1080, 44.580608, 5.693537, 53.984364
1081, 20.097893, 14.224144, 5.692558
1082, 32.950920, 13.681671, 47.398151
1083, 93.786720, 14.020534, 44.817749
1084, 91.213516, 13.955515, 6.086727
1085, 55.848328, 5.821713, 54.178288
1086, 84.999649, 14.452232, 54.309456
1087, 12.937061, 14.032677, 34.884628
1088, 39.369740, 6.047912, 6.407732
1089, 43.458614, 5.818010, 35.809956
1090, 82.674164, 6.181585, 6.074168
1091, 84.985748, 5.594165, 54.382191
1092, 20.306595, 5.642402, 5.721019
1093, 81.582382, 14.135931, 48.823727
1094, 74.467087, 14.256987, 45.879089
1095, 12.549693, 5.761172, 35.857380
1096, 48.758492, 5.830319, 41.228607
1097, 24.459484, 14.213608, 46.870880
1098, 82.185471, 6.157936, 47.167847
1099, 5.708487, 5.599614, 54.291515
1100, 47.803726, 14.455310, 32.763542
1101, 94.103622, 13.897188, 38.576519
1102, 56.550060, 5.752943, 5.775334
1103, 29.415077, 6.005296, 25.100330
1104, 6.272598, 13.682255, 12.418174
1105, 55.059189, 14.535087, 46.588337
1106, 44.555923, 14.383458, 46.317230
1107, 17.185719, 6.552513, 54.545326
1108, 5.498649, 14.396239, 45.028675
1109, 31.073792, 5.573026, 6.089615
1110, 31.650696, 5.695046, 34.986374
1111, 32.721024, 14.333368, 27.704596
1112, 19.034874, 14.177320, 24.216887
1113, 76.471085, 5.525691, 23.563208
1114, 12.738235, 6.020926, 19.971495
1115, 5.809628, 5.900166, 17.954163
1116, 5.571704, 14.350213, 5.694470
1117, 37.875042, 5.567368, 42.553455
1118, 23.583416, 14.549291, 40.457890
1119, 29.817749, 5.443581, 46.373032
1120, 58.835106, 14.435626, 14.075610
1121, 19.082275, 5.791848, 21.145372
1122, 59.712410, 5.459363, 46.897511
1123, 87.851860, 14.055530, 45.967682
1124, 75.887321, 5.583221, 47.969887
1125, 5.371194, 5.424682, 5.325619
1126, 71.241783, 14.675120, 53.509552
1127, 60.371525, 12.177104, 5.254457
1128, 73.760574, 5.746431, 12.330466
1129, 69.899872, 5.293916, 47.608273
1130, 74.008194, 14.504442, 19.790560
1131, 71.936256, 14.816114, 27.127838
1132, 78.411636, 5.483624, 41.473465
1133, 49.735783, 14.833924, 19.303600
1134, 38.693817, 14.402794, 39.164047
1135, 5.126987, 13.230327, 32.682434
1136, 26.631952, 14.468330, 25.584877
1137, 6.990827, 5.596353, 28.822460
1138, 48.516724, 5.441559, 11.036592
1139, 80.490540, 5.520698, 32.450722
1140, 20.126215, 4.979026, 28.172865
1141, 74.540894, 5.253083, 54.755520
1142, 94.560524, 5.466576, 39.977676
1143, 94.055367, 5.398469, 29.123451
1144, 62.439022, 14.428555, 30.867060
1145, 19.751753, 5.015003, 48.368225
1146, 35.097912, 14.907899, 5.178852
1147, 40.358723, 5.229165, 47.659145
1148, 53.952003, 5.064609, 48.948647
1149, 50.502457, 5.121891, 19.609098
1150, 89.304588, 10.034967, 54.698177
1151, 55.532608, 5.162357, 11.292903
1152, 60.000000, 4.919174, 37.385574
1153, 34.892315, 5.054824, 29.328203
1154, 30.138025, 4.893857, 19.653376
1155, 60.000000, 4.924083, 30.606518
1156, 50.931751, 5.505673, 33.707619
1157, 41.179100, 14.641697, 54.653992
1158, 53.660862, 5.450423, 38.594723
1159, 14.565498, 15.025493, 5.832499
1160, 81.362694, 14.485392, 12.126210
1161, 21.463673, 14.677762, 15.745008
1162, 39.434067, 4.903364, 19.260071
1163, 42.627510, 14.754045, 22.860348
1164, 61.751190, 5.495540, 20.826880
1165, 68.817017, 14.809757, 48.507607
1166, 75.117157, 5.003467, 5.003467
1167, 95.323326, 13.471183, 18.827620
1168, 65.753517, 4.863112, 29.105186
1169, 28.293932, 5.507560, 12.084229
1170, 88.477715, 5.541412, 38.025585
1171, 87.809929, 7.808089, 5.336995
1172, 42.590019, 5.149483, 27.682089
1173, 79.476357, 14.493280, 34.300873
1174, 70.001175, 15.112945, 11.698498
1175, 70.374130, 14.502687, 33.731888
1176, 70.745430, 4.877042, 22.902609
1177, 15.776963, 15.028084, 48.559731
1178, 52.281292, 15.112999, 35.865223
1179, 33.294888, 15.082867, 40.948708
1180, 80.103859, 4.708169, 19.525517
1181, 40.600716, 14.932533, 30.559441
1182, 88.301712, 4.955935, 10.049354
1183, 5.571310, 5.237939, 48.571239
1184, 45.342442, 15.035936, 13.227324
1185, 68.427902, 4.965266, 35.585911
1186, 50.869442, 14.652869, 25.117483
1187, 25.003908, 4.583983, 36.903732
1188, 60.000000, 15.416548, 39.792740
1189, 37.499508, 15.415171, 18.144480
1190, 29.390928, 14.761002, 17.954475
1191, 26.415012, 9.999922, 54.930672
1192, 59.927753, 15.183629, 21.162251
1193, 11.090772, 14.966029, 28.543230
1194, 21.360266, 14.765012, 29.059408
1195, 13.419187, 5.495726, 29.701452
1196, 79.628693, 15.026002, 18.748236
1197, 90.576515, 5.079970, 19.011293
1198, 47.398205, 4.804298, 25.316355
1199, 14.868039, 15.386918, 19.444319
1200, 88.316078, 14.924914, 10.605771
1201, 16.009714, 15.218303, 40.169098
1202, 61.556149, 15.059046, 9.556419
1203, 76.131050, 5.080946, 28.860582
1204, 25.035561, 4.472928, 48.473526
1205, 9.949403, 4.879927, 14.589815
1206, 79.048035, 14.954042, 28.878632
1207, 50.098804, 15.040898, 49.564941
1208, 22.115118, 10.357848, 32.492496
1209, 86.835808, 4.739494, 49.424622
1210, 76.605530, 15.216185, 9.855429
1211, 22.647394, 9.748254, 48.881145
1212, 17.500620, 9.864408, 4.752836
1213, 25.182495, 15.302852, 4.735699
1214, 90.136833, 15.221765, 55.291847
1215, 68.531349, 5.161904, 11.914457
1216, 88.495583, 15.279698, 27.054781
1217, 40.436794, 15.113466, 49.482430
1218, 18.957253, 15.204432, 10.742600
1219, 4.653944, 10.029364, 15.404940
1220, 88.538177, 4.755570, 27.235485
1221, 64.178558, 12.694213, 41.332378
1222, 62.500000, 15.600516, 50.001698
1223, 71.044891, 15.013806, 38.885067
1224, 15.218471, 4.790677, 40.255222
1225, 77.516212, 10.835704, 48.820992
1226, 10.424754, 15.246937, 48.922142
1227, 29.001852, 15.032934, 11.531004
1228, 73.744736, 10.418941, 55.312389
1229, 86.235306, 13.972837, 4.693320
1230, 82.267540, 4.632427, 24.320539
1231, 36.055660, 15.293127, 10.295704
1232, 88.171051, 4.729908, 44.225758
1233, 57.399437, 14.823277, 29.745220
1234, 39.723614, 9.266321, 37.870903
1235, 18.376556, 11.545753, 54.704926
1236, 94.953369, 8.975509, 43.879761
1237, 19.007574, 4.796887, 10.774360
1238, 80.206024, 15.673278, 39.911690
1239, 83.561119, 4.767370, 36.563393
1240, 82.587425, 10.035596, 55.396149
1241, 10.273165, 10.255664, 41.780605
1242, 84.369049, 10.339703, 45.033760
1243, 11.748619, 7.706337, 10.811066
1244, 10.767959, 4.690250, 48.548988
1245, 35.295628, 4.516426, 10.707396
1246, 20.204775, 10.803921, 39.915241
1247, 22.594193, 9.994515, 4.243616
1248, 84.235107, 15.339129, 36.028442
1249, 35.441837, 4.639084, 38.194687
1250, 41.525646, 9.563728, 55.509884
1251, 4.746330, 11.300037, 49.028736
1252, 89.760468, 14.828745, 41.224216
1253, 23.930584, 15.280877, 35.471264
1254, 32.439041, 10.189074, 18.026979
1255, 60.068016, 5.041533, 25.562256
1256, 28.664602, 15.522782, 49.377430
1257, 95.486412, 10.315701, 27.785421
1258, 56.422295, 10.508758, 55.564674
1259, 90.565277, 15.033487, 15.931311
1260, 55.143387, 15.764446, 10.953011
1261, 24.532961, 4.991436, 25.750778
1262, 61.376812, 4.802382, 42.209488
1263, 32.103870, 9.096071, 43.794193
1264, 29.820951, 10.108378, 10.521654
1265, 4.467972, 15.476463, 39.997852
1266, 89.233353, 10.311015, 14.148124
1267, 50.288563, 4.913627, 4.290431
1268, 48.062515, 10.845198, 15.031712
1269, 95.343254, 14.520160, 55.343254

*ELEMENT, TYPE=C3D4, ELSET=ALL_ELEMENTS
1, 241, 1061, 1025, 1138
2, 940, 991, 907, 1226
3, 999, 1036, 369, 1151
4, 771, 939, 1033, 1109
5, 729, 718, 956, 1077
6, 806, 1008, 943, 1048
7, 192, 190, 941, 1110
8, 417, 1029, 1047, 1197
9, 219, 1011, 987, 1169
10, 219, 987, 1154, 1169
11, 909, 968, 946, 1222
12, 226, 1046, 972, 1185
13, 226, 972, 172, 1185
14, 972, 990, 172, 1185
15, 365, 1061, 241, 1138
16, 946, 968, 909, 998
17, 853, 976, 1062, 1076
18, 941, 1039, 192, 1110
19, 991, 1058, 907, 1226
20, 438, 962, 1069, 1257
21, 936, 1047, 1029, 1197
22, 939, 1003, 811, 1146
23, 551, 1057, 908, 1104
24, 551, 908, 1057, 1199
25, 190, 192, 941, 1103
26, 950, 1120, 913, 1260
27, 945, 953, 924, 1070
28, 233, 999, 369, 1151
29, 811, 1003, 939, 1088
30, 395, 979, 385, 1047
31, 551, 1077, 908, 1199
32, 190, 1103, 941, 1153
33, 611, 967, 1087, 1201
34, 922, 977, 943, 1210
35, 908, 1077, 551, 1104
36, 580, 1015, 989, 1165
37, 729, 717, 718, 1077
38, 190, 941, 1110, 1153
39, 945, 953, 909, 1207
40, 913, 950, 1072, 1120
41, 556, 1049, 1010, 1192
42, 1021, 1066, 510, 1206
43, 942, 1006, 930, 1132
44, 475, 1043, 1019, 1111
45, 419, 1029, 936, 1047
46, 939, 771, 1033, 1146
47, 925, 1060, 937, 1192
48, 922, 943, 1008, 1210
49, 933, 1014, 947, 1032
50, 1014, 947, 1032, 1066
51, 499, 1060, 1010, 1131
52, 983, 1072, 950, 1120
53, 853, 1062, 852, 1076
54, 375, 996, 756, 1036
55, 942, 1093, 586, 1094
56, 384, 1044, 427, 1236
57, 947, 1014, 933, 1220
58, 950, 913, 1027, 1260
59, 585, 586, 1093, 1094
60, 940, 907, 1024, 1064
61, 267, 1090, 1051, 1182
62, 811, 1088, 939, 1109
63, 438, 962, 411, 1069
64, 419, 1047, 936, 1167
65, 947, 933, 1078, 1220
66, 853, 976, 1028, 1062
67, 771, 939, 811, 1146
68, 192, 1039, 941, 1103
69, 953, 1001, 909, 1207
70, 1035, 1093, 587, 1238
71, 940, 907, 1064, 1177
72, 542, 949, 1057, 1104
73, 949, 783, 1042, 1125
74, 819, 949, 1116, 1125
75, 358, 302, 782, 1125
76, 806, 786, 943, 1008
77, 365, 373, 241, 1088
78, 286, 1096, 1070, 1148
79, 937, 975, 925, 1164
80, 926, 997, 941, 1111
81, 475, 1005, 1043, 1111
82, 929, 997, 981, 1038
83, 909, 946, 1015, 1222
84, 278, 994, 337, 1062
85, 580, 989, 1015, 1221
86, 916, 976, 954, 1082
87, 954, 976, 916, 1062
88, 581, 1015, 580, 1165
89, 911, 1051, 1041, 1160
90, 779, 996, 960, 1036
91, 937, 925, 978, 1164
92, 940, 907, 1177, 1226
93, 937, 925, 975, 1060
94, 662, 807, 960, 1127
95, 307, 956, 966, 1114
96, 538, 1027, 983, 1133
97, 994, 1062, 278, 1204
98, 368, 959, 229, 1169
99, 930, 1006, 990, 1132
100, 995, 1116, 949, 1125
101, 281, 946, 998, 1129
102, 930, 963, 947, 1139
103, 933, 1032, 947, 1078
104, 987, 1011, 931, 1169
105, 970, 929, 1025, 1063
106, 947, 963, 930, 1173
107, 423, 395, 433, 979
108, 286, 984, 1096, 1148
109, 307, 966, 956, 1195
110, 804, 960, 996, 1008
111, 907, 1145, 1107, 1244
112, 1024, 1145, 907, 1244
113, 427, 384, 407, 1044
114, 212, 952, 1024, 1145
115, 956, 1071, 740, 1137
116, 321, 1022, 1119, 1263
117, 182, 973, 180, 1056
118, 475, 477, 1005, 1111
119, 923, 963, 947, 1021
120, 920, 941, 1103, 1136
121, 321, 1117, 1022, 1263
122, 212, 1024, 952, 1224
123, 993, 467, 1097, 1177
124, 911, 1012, 1041, 1051
125, 981, 997, 926, 1038
126, 840, 144, 291, 953
127, 987, 931, 1154, 1169
128, 302, 1042, 782, 1125
129, 538, 533, 1027, 1133
130, 368, 229, 959, 1237
131, 601, 1075, 641, 1105
132, 556, 1010, 652, 1192
133, 1041, 1051, 935, 1160
134, 373, 1025, 241, 1088
135, 741, 717, 729, 1115
136, 806, 943, 787, 1048
137, 586, 587, 1093, 1238
138, 786, 943, 1008, 1166
139, 321, 1119, 1117, 1263
140, 790, 1008, 806, 1048
141, 947, 963, 923, 1203
142, 1025, 1063, 241, 1138
143, 148, 747, 311, 959
144, 345, 1107, 1145, 1244
145, 158, 384, 427, 1236
146, 281, 946, 283, 998
147, 779, 756, 996, 1036
148, 928, 969, 957, 1000
149, 707, 1116, 995, 1125
150, 957, 969, 928, 1056
151, 759, 358, 782, 1125
152, 558, 1010, 499, 1060
153, 909, 953, 945, 1148
154, 804, 960, 779, 996
155, 225, 1095, 1055, 1224
156, 894, 1045, 953, 1080
157, 920, 1103, 987, 1136
158, 925, 978, 1164, 1255
159, 318, 1039, 955, 1187
160, 542, 1057, 949, 1159
161, 571, 1053, 986, 1134
162, 945, 1017, 984, 1096
163, 180, 1056, 973, 1155
164, 986, 1053, 571, 1106
165, 641, 1075, 1001, 1105
166, 973, 974, 925, 1030
167, 935, 1021, 988, 1113
168, 438, 1069, 411, 1257
169, 959, 229, 1169, 1237
170, 385, 395, 163, 979
171, 718, 1071, 956, 1077
172, 1075, 1105, 601, 1222
173, 917, 941, 1043, 1110
174, 923, 1010, 988, 1067
175, 1086, 1123, 619, 1214
176, 790, 1008, 1048, 1210
177, 311, 959, 747, 1092
178, 697, 956, 740, 1137
179, 987, 1103, 951, 1136
180, 926, 969, 961, 1089
181, 216, 1012, 249, 1180
182, 1015, 1017, 984, 1105
183, 298, 1162, 997, 1172
184, 790, 673, 1008, 1210
185, 919, 990, 972, 1185
186, 983, 1027, 538, 1260
187, 947, 1014, 935, 1066
188, 911, 943, 1051, 1160
189, 984, 1015, 915, 1017
190, 829, 337, 994, 1062
191, 958, 975, 923, 1009
192, 970, 1025, 929, 1054
193, 932, 1025, 970, 1054
194, 945, 918, 1017, 1096
195, 376, 246, 371, 943
196, 922, 937, 999, 1067
197, 937, 922, 1010, 1067
198, 1025, 1061, 932, 1138
199, 923, 1010, 1060, 1131
200, 932, 970, 1025, 1063
201, 423, 163, 395, 979
202, 997, 1162, 981, 1172
203, 1010, 1049, 937, 1192
204, 984, 1017, 918, 1096
205, 973, 915, 1017, 1158
206, 1014, 1032, 933, 1066
207, 586, 588, 587, 1238
208, 419, 417, 1029, 1047
209, 944, 920, 987, 1020
210, 921, 1043, 1005, 1110
211, 975, 1009, 958, 1168
212, 442, 662, 746, 960
213, 772, 1033, 770, 1109
214, 937, 922, 999, 1049
215, 330, 946, 281, 1129
216, 771, 1033, 772, 1109
217, 281, 330, 283, 946
218, 469, 1097, 467, 1177
219, 786, 1008, 996, 1166
220, 298, 981, 1162, 1172
221, 939, 929, 1025, 1054
222, 425, 800, 979, 1084
223, 586, 942, 1094, 1238
224, 790, 1048, 673, 1210
225, 988, 1021, 935, 1130
226, 923, 1060, 958, 1131
227, 937, 1010, 922, 1049
228, 371, 943, 246, 1051
229, 926, 961, 969, 1000
230, 738, 1055, 723, 1251
231, 947, 935, 1021, 1066
232, 478, 1005, 1134, 1179
233, 318, 955, 1068, 1187
234, 164, 827, 1074, 1091
235, 840, 870, 144, 953
236, 433, 980, 979, 1047
237, 353, 1154, 997, 1162
238, 787, 1048, 943, 1090
239, 331, 1070, 948, 1147
240, 588, 1035, 587, 1238
241, 414, 979, 980, 1084
242, 927, 968, 946, 1052
243, 988, 1021, 923, 1113
244, 939, 1031, 929, 1054
245, 974, 925, 1030, 1144
246, 375, 364, 996, 1036
247, 923, 975, 958, 1060
248, 926, 961, 985, 1089
249, 935, 1041, 1012, 1051
250, 929, 1038, 981, 1163
251, 925, 1164, 975, 1255
252, 581, 579, 580, 1015
253, 376, 246, 943, 1128
254, 164, 827, 357, 1074
255, 776, 1003, 1061, 1065
256, 598, 510, 1066, 1206
257, 936, 1029, 419, 1167
258, 915, 1015, 984, 1122
259, 334, 331, 948, 1147
260, 324, 1089, 948, 1096
261, 324, 948, 331, 1096
262, 908, 1004, 1114, 1199
263, 968, 998, 863, 1075
264, 783, 949, 819, 1125
265, 913, 1072, 999, 1120
266, 771, 770, 772, 1033
267, 937, 999, 1072, 1120
268, 244, 1154, 353, 1162
269, 997, 1154, 1034, 1162
270, 722, 740, 1071, 1137
271, 329, 286, 984, 1096
272, 988, 1010, 922, 1067
273, 829, 1062, 994, 1191
274, 944, 1114, 1004, 1199
275, 924, 945, 1106, 1207
276, 333, 1046, 946, 1129
277, 925, 978, 1056, 1079
278, 478, 1043, 1005, 1179
279, 1021, 1032, 947, 1066
280, 949, 1125, 1042, 1243
281, 861, 863, 968, 998
282, 925, 1056, 957, 1079
283, 1007, 1024, 907, 1064
284, 918, 973, 1017, 1158
285, 433, 979, 395, 1047
286, 662, 807, 746, 960
287, 216, 1014, 1012, 1180
288, 907, 940, 1024, 1244
289, 927, 1052, 946, 1129
290, 925, 973, 957, 1056
291, 804, 996, 780, 1008
292, 283, 998, 946, 1122
293, 442, 675, 960, 1008
294, 913, 1036, 999, 1151
295, 908, 1114, 944, 1199
296, 1002, 1035, 930, 1170
297, 920, 944, 987, 1121
298, 738, 730, 723, 1055
299, 924, 1106, 1045, 1207
300, 948, 961, 918, 1089
301, 926, 941, 997, 1153
302, 587, 1093, 1035, 1123
303, 1022, 1117, 321, 1249
304, 997, 1034, 929, 1162
305, 949, 1042, 801, 1212
306, 182, 973, 1056, 1156
307, 211, 1022, 952, 1119
308, 977, 1130, 513, 1174
309, 475, 1019, 477, 1111
310, 961, 1000, 926, 1181
311, 936, 1012, 935, 1041
312, 991, 907, 1107, 1244
313, 985, 1089, 187, 1172
314, 542, 1057, 551, 1104
315, 261, 1055, 1024, 1224
316, 586, 1093, 942, 1238
317, 777, 1061, 1003, 1088
318, 281, 998, 1052, 1129
319, 537, 538, 533, 1027
320, 916, 1062, 976, 1076
321, 1032, 1066, 1021, 1206
322, 507, 499, 1010, 1131
323, 579, 1015, 581, 1222
324, 804, 779, 780, 996
325, 952, 1024, 1007, 1246
326, 685, 980, 413, 1167
327, 657, 1116, 744, 1159
328, 442, 960, 746, 1008
329, 940, 1108, 1055, 1251
330, 913, 964, 950, 1027
331, 1015, 1165, 581, 1222
332, 943, 996, 922, 1008
333, 945, 909, 1105, 1207
334, 840, 905, 870, 953
335, 151, 323, 878, 965
336, 225, 1055, 261, 1224
337, 513, 1130, 514, 1174
338, 952, 971, 916, 1119
339, 786, 780, 996, 1008
340, 460, 657, 744, 1159
341, 244, 1034, 1154, 1162
342, 973, 1017, 915, 1030
343, 923, 1009, 975, 1176
344, 507, 1010, 1130, 1131
345, 907, 1007, 952, 1024
346, 236, 978, 1072, 1149
347, 923, 1021, 988, 1130
348, 324, 1117, 1089, 1249
349, 922, 1010, 988, 1130
350, 929, 1034, 997, 1254
351, 619, 1086, 642, 1123
352, 1051, 1090, 911, 1182
353, 1070, 1096, 984, 1148
354, 323, 831, 878, 965
355, 248, 249, 216, 1012
356, 678, 949, 542, 1104
357, 575, 1017, 945, 1053
358, 369, 999, 233, 1036
359, 1009, 1168, 975, 1176
360, 1017, 1053, 575, 1178
361, 978, 983, 950, 1149
362, 181, 180, 182, 973
363, 826, 992, 465, 1058
364, 926, 941, 1005, 1111
365, 147, 280, 845, 998
366, 441, 408, 982, 1236
367, 838, 147, 845, 998
368, 587, 1035, 588, 1123
369, 301, 832, 998, 1085
370, 414, 425, 979, 1084
371, 918, 961, 948, 1053
372, 875, 454, 993, 1235
373, 803, 311, 747, 1092
374, 598, 1066, 1032, 1206
375, 832, 845, 280, 998
376, 280, 301, 832, 998
377, 1058, 1177, 467, 1235
378, 982, 1044, 406, 1074
379, 475, 476, 477, 1019
380, 612, 611, 610, 967
381, 506, 1112, 520, 1161
382, 1058, 1177, 907, 1226
383, 697, 740, 721, 1137
384, 977, 922, 1174, 1210
385, 1008, 1174, 922, 1210
386, 917, 941, 1019, 1043
387, 236, 346, 978, 1149
388, 368, 148, 311, 959
389, 946, 989, 972, 1046
390, 923, 1010, 975, 1060
391, 1034, 1154, 997, 1254
392, 514, 1130, 1010, 1174
393, 1024, 1224, 1055, 1241
394, 330, 333, 946, 1129
395, 267, 1051, 1012, 1182
396, 456, 837, 1026, 1086
397, 941, 920, 1019, 1136
398, 476, 477, 1019, 1111
399, 236, 255, 346, 1149
400, 1005, 1043, 941, 1110
401, 629, 1060, 499, 1131
402, 212, 952, 1068, 1224
403, 855, 836, 445, 976
404, 144, 953, 870, 1085
405, 445, 565, 855, 976
406, 255, 978, 346, 1149
407, 371, 943, 1051, 1090
408, 926, 1089, 985, 1172
409, 886, 1052, 968, 1228
410, 972, 1006, 989, 1094
411, 467, 454, 1058, 1235
412, 982, 619, 1123, 1214
413, 838, 147, 998, 1052
414, 930, 990, 963, 1139
415, 370, 1090, 267, 1182
416, 987, 1011, 944, 1020
417, 970, 929, 1063, 1162
418, 928, 983, 978, 1149
419, 952, 1022, 211, 1187
420, 417, 152, 1029, 1197
421, 926, 1038, 997, 1111
422, 907, 991, 940, 1244
423, 993, 1177, 1097, 1211
424, 963, 1009, 923, 1203
425, 1024, 1055, 261, 1244
426, 403, 980, 679, 1084
427, 931, 1011, 1020, 1161
428, 246, 1051, 943, 1128
429, 984, 1015, 909, 1122
430, 922, 996, 943, 1128
431, 537, 538, 1027, 1260
432, 922, 943, 977, 1128
433, 993, 467, 1177, 1235
434, 949, 995, 1125, 1243
435, 520, 1161, 1112, 1199
436, 926, 969, 1089, 1172
437, 776, 1003, 777, 1061
438, 952, 1224, 1024, 1246
439, 973, 1056, 925, 1155
440, 172, 990, 972, 1132
441, 938, 1035, 1002, 1170
442, 435, 761, 814, 979
443, 907, 1177, 993, 1211
444, 846, 863, 998, 1075
445, 915, 974, 973, 1030
446, 939, 1025, 929, 1034
447, 930, 1035, 1016, 1170
448, 442, 677, 662, 960
449, 988, 1010, 923, 1130
450, 491, 629, 499, 1131
451, 226, 1046, 333, 1129
452, 949, 801, 1159, 1212
453, 935, 1012, 936, 1014
454, 352, 353, 997, 1162
455, 853, 1028, 854, 1062
456, 235, 233, 369, 1151
457, 921, 1005, 985, 1110
458, 621, 1017, 575, 1178
459, 929, 1031, 939, 1034
460, 226, 316, 1046, 1185
461, 920, 941, 1039, 1103
462, 930, 1006, 942, 1238
463, 610, 967, 1064, 1265
464, 334, 948, 1117, 1147
465, 1011, 1169, 229, 1237
466, 942, 930, 1016, 1132
467, 321, 954, 1117, 1119
468, 530, 1003, 545, 1184
469, 814, 390, 435, 979
470, 575, 945, 1017, 1105
471, 581, 580, 989, 1165
472, 970, 1063, 981, 1162
473, 967, 1201, 1064, 1241
474, 188, 985, 187, 1172
475, 905, 1085, 953, 1258
476, 861, 846, 863, 998
477, 944, 1020, 1011, 1161
478, 729, 718, 740, 956
479, 912, 1011, 959, 1037
480, 626, 571, 1053, 1106
481, 953, 1070, 296, 1080
482, 947, 930, 1032, 1173
483, 336, 954, 277, 1062
484, 909, 1015, 984, 1105
485, 941, 917, 1039, 1110
486, 951, 511, 1038, 1189
487, 414, 980, 403, 1084
488, 707, 1104, 995, 1116
489, 915, 946, 1015, 1122
490, 959, 1011, 931, 1037
491, 338, 278, 337, 1062
492, 338, 278, 1062, 1204
493, 435, 390, 423, 979
494, 931, 1011, 987, 1020
495, 226, 972, 1046, 1129
496, 318, 955, 1039, 1140
497, 1010, 1130, 922, 1174
498, 530, 664, 545, 1003
499, 951, 511, 1189, 1190
500, 926, 981, 1038, 1163
501, 947, 963, 1173, 1206
502, 662, 1127, 960, 1202
503, 307, 966, 224, 1114
504, 948, 1089, 324, 1117
505, 226, 172, 316, 1185
506, 970, 981, 929, 1162
507, 952, 1022, 971, 1119
508, 1025, 1063, 929, 1162
509, 371, 376, 943, 1166
510, 346, 236, 978, 1072
511, 723, 1055, 1108, 1251
512, 799, 703, 706, 1125
513, 697, 315, 956, 1137
514, 260, 385, 979, 1047
515, 364, 996, 1036, 1215
516, 909, 998, 968, 1075
517, 277, 1062, 954, 1119
518, 407, 384, 161, 1044
519, 693, 436, 403, 1084
520, 248, 1012, 216, 1014
521, 469, 1007, 1097, 1177
522, 1019, 1043, 941, 1111
523, 969, 1000, 961, 1100
524, 1003, 1065, 545, 1184
525, 482, 1053, 961, 1100
526, 211, 1119, 952, 1204
527, 909, 945, 984, 1148
528, 412, 1101, 962, 1142
529, 894, 1045, 1080, 1250
530, 1007, 1024, 914, 1246
531, 783, 801, 949, 1042
532, 345, 991, 1107, 1244
533, 744, 1116, 949, 1159
534, 952, 211, 1068, 1187
535, 504, 478, 1134, 1179
536, 277, 954, 321, 1119
537, 192, 191, 190, 1110
538, 408, 1044, 982, 1236
539, 291, 144, 296, 953
540, 929, 981, 970, 1163
541, 833, 608, 1001, 1045
542, 628, 510, 1021, 1066
543, 608, 444, 833, 1001
544, 928, 950, 983, 1149
545, 181, 973, 182, 1156
546, 575, 1053, 945, 1106
547, 678, 542, 949, 1159
548, 942, 1093, 1035, 1238
549, 491, 1060, 958, 1144
550, 799, 1116, 703, 1125
551, 202, 1117, 324, 1249
552, 915, 946, 1122, 1262
553, 362, 785, 375, 996
554, 164, 357, 270, 1074
555, 442, 675, 677, 960
556, 652, 1010, 1060, 1192
557, 981, 1000, 969, 1198
558, 894, 860, 953, 1045
559, 756, 375, 785, 996
560, 786, 787, 806, 943
561, 1112, 1161, 944, 1199
562, 966, 1004, 944, 1114
563, 969, 1000, 981, 1172
564, 917, 971, 952, 1022
565, 203, 1089, 1096, 1156
566, 848, 632, 640, 993
567, 1097, 1177, 1007, 1211
568, 575, 945, 569, 1106
569, 718, 740, 956, 1071
570, 941, 926, 1005, 1153
571, 252, 1068, 955, 1095
572, 467, 993, 454, 1235
573, 977, 935, 1051, 1160
574, 636, 1043, 478, 1179
575, 977, 988, 935, 1130
576, 968, 909, 1075, 1222
577, 905, 953, 860, 1258
578, 458, 980, 685, 1167
579, 913, 999, 960, 1049
580, 644, 1190, 1161, 1227
581, 307, 224, 966, 1195
582, 324, 334, 331, 948
583, 959, 1169, 1011, 1237
584, 371, 1051, 267, 1090
585, 974, 1030, 1023, 1144
586, 920, 1020, 944, 1112
587, 186, 187, 1089, 1172
588, 556, 540, 1049, 1192
589, 951, 1020, 987, 1136
590, 511, 951, 1038, 1111
591, 981, 1000, 928, 1163
592, 328, 1139, 1078, 1230
593, 889, 455, 968, 1075
594, 954, 976, 924, 986
595, 228, 321, 1022, 1119
596, 922, 1130, 977, 1174
597, 948, 924, 986, 1147
598, 952, 1068, 1224, 1246
599, 506, 1020, 1112, 1161
600, 981, 969, 1172, 1198
601, 242, 241, 1025, 1063
602, 853, 854, 852, 1062
603, 318, 955, 252, 1068
604, 225, 265, 1055, 1095
605, 713, 1108, 1055, 1265
606, 927, 946, 989, 1129
607, 961, 969, 918, 1089
608, 706, 703, 707, 1125
609, 947, 1173, 1032, 1206
610, 915, 1023, 974, 1030
611, 928, 969, 1000, 1198
612, 970, 981, 928, 1163
613, 936, 1041, 935, 1066
614, 482, 503, 1053, 1100
615, 835, 875, 993, 1235
616, 853, 893, 854, 1028
617, 221, 1067, 988, 1128
618, 801, 744, 949, 1159
619, 934, 966, 956, 1004
620, 840, 953, 291, 1080
621, 334, 948, 324, 1117
622, 482, 616, 961, 1053
623, 969, 928, 1056, 1198
624, 936, 1066, 933, 1073
625, 781, 960, 807, 1127
626, 1086, 1093, 642, 1123
627, 684, 394, 982, 1083
628, 916, 1076, 976, 1082
629, 913, 1049, 960, 1202
630, 460, 678, 657, 1159
631, 352, 244, 353, 1162
632, 928, 1056, 978, 1079
633, 907, 1007, 1177, 1211
634, 530, 1054, 1003, 1184
635, 786, 787, 943, 1166
636, 936, 1014, 933, 1066
637, 918, 973, 957, 1178
638, 917, 1043, 1022, 1110
639, 923, 963, 1021, 1131
640, 940, 1055, 1024, 1244
641, 427, 398, 158, 1236
642, 283, 330, 333, 946
643, 324, 203, 1089, 1096
644, 886, 968, 1126, 1228
645, 678, 1116, 657, 1159
646, 575, 574, 945, 1105
647, 629, 1060, 491, 1144
648, 898, 734, 690, 992
649, 1024, 1224, 914, 1246
650, 997, 1153, 298, 1172
651, 1014, 1220, 947, 1230
652, 255, 1056, 978, 1149
653, 456, 871, 634, 1026
654, 912, 944, 1011, 1161
655, 1005, 941, 1043, 1111
656, 878, 151, 965, 1091
657, 951, 1103, 941, 1136
658, 722, 1071, 1135, 1137
659, 671, 1003, 775, 1065
660, 1001, 1075, 909, 1105
661, 765, 1050, 1102, 1127
662, 242, 240, 241, 1063
663, 407, 1044, 161, 1074
664, 943, 1048, 1008, 1210
665, 360, 1088, 748, 1109
666, 917, 1019, 941, 1039
667, 941, 1019, 920, 1039
668, 359, 979, 797, 1171
669, 989, 1006, 972, 1223
670, 194, 1168, 1009, 1176
671, 723, 1055, 730, 1108
672, 406, 982, 408, 1044
673, 292, 296, 1070, 1080
674, 999, 1036, 960, 1215
675, 411, 1069, 962, 1101
676, 924, 986, 976, 1217
677, 368, 959, 311, 1092
678, 860, 1001, 953, 1045
679, 911, 1051, 943, 1090
680, 559, 977, 513, 1174
681, 212, 952, 211, 1068
682, 730, 1055, 713, 1108
683, 940, 1177, 1064, 1226
684, 689, 695, 1108, 1251
685, 861, 998, 968, 1052
686, 308, 396, 417, 1029
687, 511, 1038, 561, 1111
688, 765, 822, 1050, 1127
689, 479, 1111, 1038, 1181
690, 996, 1008, 943, 1166
691, 640, 848, 993, 1076
692, 912, 1011, 944, 1059
693, 946, 927, 989, 1165
694, 324, 331, 203, 1096
695, 406, 441, 408, 982
696, 928, 957, 1056, 1079
697, 923, 1009, 963, 1131
698, 173, 990, 1009, 1185
699, 1012, 1051, 911, 1182
700, 932, 1063, 1025, 1138
701, 349, 978, 255, 1056
702, 914, 1024, 1007, 1064
703, 950, 983, 978, 1072
704, 478, 475, 477, 1005
705, 805, 1033, 959, 1109
706, 948, 986, 1117, 1147
707, 645, 509, 1013, 1018
708, 919, 972, 1006, 1223
709, 977, 1130, 935, 1196
710, 946, 968, 927, 1165
711, 782, 1042, 783, 1125
712, 990, 963, 1139, 1203
713, 989, 1015, 946, 1165
714, 345, 1145, 1024, 1244
715, 919, 974, 958, 1009
716, 574, 575, 945, 1207
717, 964, 1151, 1138, 1267
718, 906, 1026, 1086, 1240
719, 756, 780, 779, 996
720, 357, 827, 879, 1074
721, 918, 1017, 984, 1158
722, 944, 1057, 912, 1059
723, 968, 998, 946, 1052
724, 571, 616, 1053, 1134
725, 984, 1096, 918, 1158
726, 703, 1116, 707, 1125
727, 683, 1167, 1073, 1259
728, 817, 436, 693, 1084
729, 242, 1063, 1025, 1162
730, 973, 1030, 957, 1178
731, 996, 960, 1036, 1215
732, 835, 632, 848, 993
733, 629, 558, 499, 1060
734, 294, 1070, 331, 1147
735, 827, 1074, 1091, 1150
736, 798, 744, 657, 1116
737, 645, 649, 509, 1018
738, 963, 990, 930, 1173
739, 188, 187, 186, 1172
740, 972, 942, 1006, 1094
741, 946, 1046, 972, 1129
742, 987, 1020, 920, 1136
743, 938, 1016, 1035, 1170
744, 952, 971, 917, 1118
745, 170, 172, 972, 1132
746, 967, 1087, 1201, 1241
747, 504, 636, 478, 1179
748, 540, 1120, 1049, 1192
749, 935, 947, 1021, 1113
750, 937, 1049, 999, 1120
751, 593, 1069, 1002, 1216
752, 191, 192, 1039, 1110
753, 759, 782, 783, 1125
754, 947, 1021, 963, 1206
755, 923, 975, 1010, 1067
756, 939, 1025, 1003, 1054
757, 977, 1051, 943, 1160
758, 458, 685, 413, 1167
759, 923, 958, 1009, 1131
760, 995, 1104, 949, 1116
761, 328, 1078, 1220, 1230
762, 920, 966, 955, 1018
763, 283, 946, 333, 1262
764, 482, 503, 616, 1053
765, 412, 411, 962, 1101
766, 918, 969, 961, 1100
767, 935, 1014, 936, 1066
768, 360, 256, 1088, 1109
769, 569, 945, 575, 1207
770, 664, 1003, 530, 1054
771, 366, 1138, 1151, 1267
772, 318, 252, 213, 1068
773, 933, 1014, 936, 1029
774, 232, 999, 234, 1164
775, 144, 296, 953, 1085
776, 1022, 1043, 921, 1110
777, 445, 976, 836, 1076
778, 1024, 1055, 940, 1241
779, 907, 1024, 952, 1145
780, 403, 679, 693, 1084
781, 675, 960, 1008, 1174
782, 653, 1004, 551, 1199
783, 462, 1108, 992, 1251
784, 946, 1165, 1015, 1222
785, 909, 1105, 1075, 1222
786, 992, 1108, 462, 1226
787, 1064, 967, 1241, 1265
788, 916, 971, 952, 1097
789, 188, 1153, 985, 1172
790, 932, 1061, 1003, 1065
791, 933, 1029, 936, 1073
792, 330, 226, 333, 1129
793, 948, 1070, 945, 1106
794, 925, 1155, 1056, 1255
795, 1001, 1105, 909, 1207
796, 984, 287, 1158, 1262
797, 765, 1050, 964, 1102
798, 172, 990, 173, 1185
799, 930, 942, 1035, 1238
800, 559, 513, 514, 1174
801, 950, 964, 913, 1151
802, 593, 680, 1069, 1216
803, 964, 1027, 913, 1050
804, 1073, 1167, 936, 1259
805, 953, 1085, 296, 1148
806, 1044, 1142, 271, 1232
807, 689, 1108, 462, 1251
808, 558, 507, 499, 1010
809, 919, 989, 972, 1223
810, 927, 989, 972, 1129
811, 1056, 1155, 180, 1255
812, 1078, 1139, 947, 1230
813, 340, 1158, 287, 1262
814, 613, 1087, 967, 1135
815, 940, 992, 991, 1226
816, 630, 1163, 1133, 1186
817, 870, 953, 905, 1085
818, 163, 260, 385, 979
819, 942, 1016, 930, 1035
820, 690, 734, 724, 992
821, 159, 377, 359, 1171
822, 920, 1103, 1039, 1261
823, 924, 1070, 948, 1106
824, 404, 800, 761, 979
825, 490, 1144, 491, 1175
826, 406, 1044, 408, 1074
827, 1117, 1234, 1089, 1249
828, 852, 1076, 1062, 1191
829, 908, 1057, 944, 1059
830, 913, 999, 1049, 1120
831, 577, 601, 1105, 1222
832, 414, 403, 425, 1084
833, 307, 956, 1137, 1195
834, 677, 662, 960, 1202
835, 630, 495, 1163, 1186
836, 943, 911, 1048, 1160
837, 919, 972, 989, 1046
838, 831, 965, 323, 1141
839, 417, 152, 308, 1029
840, 947, 1139, 963, 1203
841, 277, 343, 321, 954
842, 906, 1026, 837, 1086
843, 972, 1046, 919, 1185
844, 556, 558, 652, 1010
845, 390, 797, 359, 979
846, 413, 980, 439, 1167
847, 955, 966, 920, 1140
848, 612, 967, 610, 1265
849, 746, 960, 804, 1008
850, 456, 1026, 604, 1086
851, 613, 967, 612, 1135
852, 912, 1011, 1037, 1161
853, 585, 1093, 1026, 1094
854, 945, 1070, 984, 1148
855, 613, 1087, 1135, 1193
856, 992, 1058, 991, 1226
857, 944, 920, 1112, 1121
858, 985, 1005, 926, 1153
859, 244, 1025, 1034, 1162
860, 931, 987, 951, 1020
861, 577, 601, 641, 1105
862, 945, 1105, 574, 1207
863, 417, 1047, 152, 1197
864, 965, 1091, 166, 1098
865, 652, 1010, 558, 1060
866, 321, 954, 343, 1117
867, 1007, 1064, 907, 1177
868, 441, 982, 1083, 1236
869, 837, 871, 456, 1026
870, 1064, 1241, 1108, 1265
871, 946, 1052, 998, 1129
872, 626, 571, 616, 1053
873, 874, 833, 444, 1001
874, 741, 717, 1115, 1219
875, 368, 959, 1092, 1237
876, 523, 1018, 1004, 1112
877, 954, 1028, 336, 1147
878, 360, 748, 372, 1109
879, 549, 683, 1066, 1259
880, 922, 988, 977, 1130
881, 986, 1053, 948, 1134
882, 953, 1001, 860, 1258
883, 553, 653, 1004, 1077
884, 932, 1003, 1025, 1054
885, 886, 862, 1052, 1228
886, 580, 501, 989, 1221
887, 666, 1057, 542, 1159
888, 1117, 1249, 1022, 1263
889, 786, 788, 780, 1008
890, 935, 1014, 947, 1230
891, 974, 1009, 919, 1185
892, 972, 989, 946, 1129
893, 909, 984, 945, 1105
894, 551, 1004, 1077, 1199
895, 819, 801, 744, 949
896, 806, 787, 825, 1048
897, 511, 494, 951, 1111
898, 159, 359, 745, 1171
899, 1000, 1163, 495, 1186
900, 966, 1112, 920, 1121
901, 185, 1089, 969, 1172
902, 972, 990, 919, 1006
903, 475, 1005, 478, 1043
904, 928, 1000, 981, 1198
905, 366, 1151, 367, 1267
906, 261, 225, 265, 1055
907, 955, 1087, 934, 1095
908, 491, 1144, 958, 1175
909, 718, 722, 740, 1071
910, 949, 1116, 678, 1159
911, 999, 1072, 234, 1164
912, 644, 1161, 1037, 1227
913, 551, 1004, 653, 1077
914, 461, 684, 394, 982
915, 690, 880, 898, 992
916, 944, 908, 1059, 1114
917, 312, 995, 696, 1115
918, 377, 979, 359, 1171
919, 990, 1006, 972, 1132
920, 447, 793, 1050, 1065
921, 942, 972, 1006, 1132
922, 777, 1003, 774, 1088
923, 981, 1000, 926, 1172
924, 1004, 908, 1077, 1199
925, 1004, 1071, 694, 1077
926, 1011, 1059, 218, 1121
927, 639, 583, 1094, 1126
928, 948, 986, 924, 1106
929, 535, 1066, 628, 1196
930, 935, 1130, 1021, 1196
931, 254, 1129, 326, 1141
932, 918, 945, 1053, 1096
933, 675, 677, 960, 1174
934, 742, 995, 1104, 1219
935, 351, 981, 350, 1063
936, 931, 1037, 1011, 1161
937, 943, 1090, 371, 1166
938, 951, 987, 931, 1254
939, 583, 1094, 1126, 1165
940, 349, 1056, 180, 1255
941, 676, 1050, 1027, 1065
942, 219, 209, 987, 1011
943, 480, 1005, 961, 1134
944, 819, 1116, 799, 1125
945, 205, 1068, 211, 1187
946, 331, 948, 1070, 1096
947, 322, 141, 830, 1028
948, 423, 390, 163, 979
949, 545, 1003, 671, 1065
950, 713, 1055, 967, 1265
951, 1013, 1018, 509, 1194
952, 981, 997, 929, 1162
953, 947, 1220, 1078, 1230
954, 959, 1033, 805, 1247
955, 291, 953, 296, 1080
956, 254, 1124, 1129, 1141
957, 501, 989, 1221, 1223
958, 821, 1048, 1090, 1229
959, 1036, 1102, 369, 1151
960, 949, 1057, 912, 1159
961, 639, 1094, 1026, 1126
962, 818, 979, 800, 1084
963, 770, 1033, 805, 1109
964, 506, 498, 1112, 1136
965, 612, 611, 967, 1087
966, 787, 1090, 943, 1166
967, 676, 447, 1050, 1065
968, 506, 1112, 1020, 1136
969, 496, 1060, 1144, 1233
970, 439, 418, 430, 1167
971, 412, 411, 438, 962
972, 914, 1087, 955, 1095
973, 336, 1028, 954, 1062
974, 1055, 1224, 1095, 1241
975, 976, 1076, 647, 1082
976, 797, 390, 814, 979
977, 941, 997, 951, 1111
978, 376, 1128, 943, 1166
979, 898, 844, 734, 992
980, 535, 1041, 1066, 1196
981, 431, 962, 386, 1142
982, 846, 1075, 998, 1258
983, 1067, 1128, 221, 1215
984, 480, 961, 1005, 1181
985, 1002, 1032, 933, 1078
986, 257, 375, 364, 996
987, 819, 949, 744, 1116
988, 439, 980, 418, 1167
989, 185, 186, 1089, 1172
990, 922, 996, 960, 1008
991, 776, 774, 777, 1003
992, 944, 912, 1057, 1161
993, 946, 1046, 333, 1262
994, 418, 980, 433, 1047
995, 992, 1108, 1226, 1251
996, 672, 546, 1050, 1127
997, 485, 1100, 483, 1186
998, 469, 468, 1007, 1177
999, 722, 739, 1040, 1135
1000, 987, 1011, 209, 1121
1001, 963, 1009, 958, 1131
1002, 1077, 1115, 717, 1219
1003, 165, 166, 1091, 1098
1004, 485, 957, 1100, 1186
1005, 931, 1011, 959, 1169
1006, 968, 1165, 946, 1222
1007, 529, 970, 554, 1189
1008, 282, 1085, 998, 1122
1009, 1010, 1049, 514, 1174
1010, 932, 1025, 1003, 1088
1011, 275, 381, 1078, 1143
1012, 991, 1183, 1099, 1251
1013, 485, 1178, 957, 1233
1014, 509, 1018, 649, 1194
1015, 407, 408, 427, 1044
1016, 937, 1072, 983, 1120
1017, 505, 511, 494, 951
1018, 934, 1087, 967, 1095
1019, 296, 1070, 953, 1148
1020, 960, 922, 999, 1215
1021, 297, 1036, 750, 1102
1022, 1004, 1018, 523, 1193
1023, 984, 1017, 915, 1158
1024, 1085, 1122, 282, 1148
1025, 926, 1038, 1111, 1181
1026, 1117, 1119, 954, 1263
1027, 937, 1010, 975, 1067
1028, 945, 1017, 918, 1053
1029, 922, 1008, 960, 1174
1030, 323, 151, 166, 965
1031, 948, 1053, 945, 1096
1032, 916, 1062, 994, 1204
1033, 354, 219, 1154, 1169
1034, 436, 425, 403, 1084
1035, 825, 1048, 787, 1090
1036, 926, 985, 961, 1005
1037, 546, 1050, 1127, 1202
1038, 185, 1089, 203, 1156
1039, 991, 992, 896, 1058
1040, 222, 218, 1059, 1121
1041, 233, 999, 364, 1036
1042, 934, 1004, 956, 1071
1043, 340, 1152, 1158, 1262
1044, 343, 954, 336, 1147
1045, 480, 478, 1005, 1134
1046, 272, 271, 1142, 1232
1047, 861, 968, 886, 1052
1048, 722, 1135, 1040, 1137
1049, 954, 1117, 986, 1147
1050, 146, 697, 721, 1137
1051, 861, 838, 998, 1052
1052, 334, 294, 331, 1147
1053, 991, 940, 1183, 1251
1054, 239, 241, 1063, 1138
1055, 142, 763, 750, 1036
1056, 945, 953, 1070, 1148
1057, 356, 842, 991, 1099
1058, 846, 998, 832, 1085
1059, 740, 697, 729, 956
1060, 212, 211, 205, 1068
1061, 745, 359, 797, 1171
1062, 364, 1036, 999, 1215
1063, 991, 1099, 992, 1251
1064, 647, 1082, 1076, 1256
1065, 817, 425, 436, 1084
1066, 932, 1003, 1061, 1088
1067, 145, 386, 431, 962
1068, 610, 1064, 1108, 1265
1069, 542, 551, 552, 1104
1070, 527, 644, 1037, 1227
1071, 944, 1004, 966, 1112
1072, 953, 1045, 924, 1080
1073, 925, 1056, 978, 1255
1074, 705, 992, 844, 1099
1075, 438, 411, 421, 1257
1076, 970, 928, 1133, 1163
1077, 747, 959, 148, 1109
1078, 750, 297, 142, 1036
1079, 585, 1026, 639, 1094
1080, 985, 1005, 941, 1110
1081, 375, 756, 142, 1036
1082, 506, 520, 521, 1161
1083, 676, 1065, 1027, 1184
1084, 196, 1176, 194, 1203
1085, 747, 959, 769, 1092
1086, 807, 781, 746, 960
1087, 367, 1151, 1102, 1267
1088, 594, 591, 1032, 1248
1089, 913, 1050, 1027, 1260
1090, 778, 765, 810, 1050
1091, 505, 951, 494, 1136
1092, 970, 1163, 554, 1189
1093, 337, 327, 829, 994
1094, 838, 845, 861, 998
1095, 971, 1082, 637, 1256
1096, 221, 988, 220, 1128
1097, 196, 194, 175, 1203
1098, 763, 142, 756, 1036
1099, 604, 1086, 1026, 1093
1100, 473, 1043, 971, 1118
1101, 926, 1000, 981, 1163
1102, 553, 551, 653, 1077
1103, 800, 404, 425, 979
1104, 799, 762, 703, 1116
1105, 914, 1013, 955, 1087
1106, 677, 1174, 1049, 1202
1107, 958, 974, 919, 1023
1108, 244, 242, 1025, 1162
1109, 894, 858, 1045, 1250
1110, 958, 974, 925, 1168
1111, 960, 999, 922, 1049
1112, 812, 1061, 964, 1065
1113, 908, 944, 1057, 1199
1114, 957, 973, 925, 1233
1115, 831, 868, 878, 965
1116, 677, 960, 1174, 1202
1117, 767, 805, 1033, 1247
1118, 350, 1063, 981, 1149
1119, 918, 1096, 1089, 1156
1120, 818, 761, 800, 979
1121, 974, 1023, 915, 1046
1122, 418, 980, 1047, 1167
1123, 932, 1061, 1025, 1088
1124, 958, 925, 975, 1168
1125, 553, 1004, 694, 1077
1126, 1023, 1144, 490, 1175
1127, 960, 999, 913, 1036
1128, 469, 467, 468, 1177
1129, 950, 1072, 978, 1149
1130, 328, 1203, 1139, 1230
1131, 497, 963, 1006, 1175
1132, 748, 809, 372, 1109
1133, 1040, 253, 1137, 1195
1134, 594, 1032, 1002, 1248
1135, 945, 984, 1070, 1096
1136, 989, 1094, 1006, 1223
1137, 1046, 1152, 974, 1185
1138, 201, 1152, 1046, 1185
1139, 959, 1011, 912, 1237
1140, 352, 997, 298, 1162
1141, 201, 974, 1152, 1185
1142, 236, 1072, 950, 1149
1143, 961, 1100, 1000, 1181
1144, 593, 1002, 1069, 1101
1145, 414, 979, 433, 980
1146, 865, 992, 991, 1099
1147, 1091, 1150, 1074, 1209
1148, 832, 846, 845, 998
1149, 926, 1111, 1005, 1181
1150, 724, 462, 992, 1251
1151, 171, 990, 172, 1132
1152, 775, 671, 443, 1003
1153, 232, 1067, 999, 1164
1154, 545, 1065, 676, 1184
1155, 259, 267, 1012, 1182
1156, 173, 1009, 174, 1185
1157, 561, 1038, 479, 1111
1158, 238, 1063, 950, 1138
1159, 545, 676, 532, 1184
1160, 894, 905, 840, 953
1161, 435, 404, 761, 979
1162, 773, 775, 443, 1003
1163, 880, 690, 656, 992
1164, 529, 531, 970, 1184
1165, 584, 1094, 1006, 1238
1166, 923, 1009, 1176, 1203
1167, 446, 1026, 890, 1126
1168, 594, 1002, 1032, 1216
1169, 148, 959, 368, 1109
1170, 742, 995, 707, 1104
1171, 821, 1090, 1171, 1229
1172, 562, 479, 1038, 1181
1173, 971, 1043, 473, 1179
1174, 569, 1106, 945, 1207
1175, 697, 146, 315, 1137
1176, 944, 1112, 966, 1121
1177, 292, 1080, 1070, 1147
1178, 676, 1027, 532, 1184
1179, 864, 356, 842, 991
1180, 529, 970, 1054, 1184
1181, 1005, 921, 1134, 1179
1182, 209, 1011, 218, 1121
1183, 941, 1005, 985, 1153
1184, 481, 1163, 1000, 1181
1185, 480, 504, 478, 1134
1186, 992, 1099, 705, 1251
1187, 779, 1036, 960, 1127
1188, 1005, 1043, 921, 1179
1189, 917, 1022, 952, 1187
1190, 360, 372, 256, 1109
1191, 481, 495, 1000, 1163
1192, 908, 1057, 949, 1104
1193, 956, 966, 934, 1195
1194, 467, 1058, 466, 1177
1195, 570, 647, 1082, 1217
1196, 930, 1032, 1002, 1078
1197, 397, 145, 431, 962
1198, 990, 1009, 963, 1203
1199, 407, 408, 1044, 1074
1200, 614, 462, 1108, 1226
1201, 868, 965, 888, 1240
1202, 244, 1034, 1025, 1245
1203, 948, 1053, 986, 1106
1204, 440, 419, 1073, 1167
1205, 977, 943, 1051, 1128
1206, 326, 1129, 1052, 1141
1207, 263, 1055, 1183, 1244
1208, 578, 1105, 576, 1188
1209, 628, 598, 510, 1066
1210, 1040, 1095, 253, 1195
1211, 888, 965, 868, 1228
1212, 918, 957, 969, 1100
1213, 983, 1079, 543, 1186
1214, 905, 847, 1085, 1258
1215, 244, 1025, 243, 1245
1216, 592, 619, 642, 1123
1217, 593, 1002, 594, 1216
1218, 975, 1067, 923, 1176
1219, 219, 218, 209, 1011
1220, 810, 765, 822, 1050
1221, 345, 319, 1024, 1145
1222, 672, 662, 546, 1127
1223, 923, 1067, 988, 1176
1224, 612, 1135, 967, 1265
1225, 705, 844, 881, 1099
1226, 944, 1112, 1020, 1161
1227, 948, 1089, 918, 1096
1228, 466, 467, 454, 1058
1229, 586, 1094, 584, 1238
1230, 921, 1022, 971, 1043
1231, 177, 974, 201, 1185
1232, 244, 242, 243, 1025
1233, 485, 486, 1178, 1233
1234, 951, 1154, 987, 1254
1235, 275, 1078, 962, 1143
1236, 237, 238, 236, 950
1237, 956, 908, 1004, 1114
1238, 976, 1082, 647, 1217
1239, 212, 1024, 319, 1145
1240, 974, 958, 1009, 1168
1241, 645, 1018, 1013, 1087
1242, 864, 347, 356, 991
1243, 946, 998, 909, 1122
1244, 964, 1050, 778, 1065
1245, 623, 624, 455, 968
1246, 952, 916, 1097, 1211
1247, 511, 951, 505, 1190
1248, 578, 1015, 1105, 1188
1249, 930, 1078, 1002, 1170
1250, 919, 1023, 974, 1046
1251, 529, 531, 554, 970
1252, 934, 955, 1018, 1087
1253, 945, 1053, 948, 1106
1254, 919, 990, 963, 1006
1255, 1049, 1174, 960, 1202
1256, 608, 573, 1001, 1045
1257, 1078, 1143, 381, 1220
1258, 885, 829, 327, 994
1259, 915, 1046, 1023, 1221
1260, 924, 976, 954, 1028
1261, 977, 1051, 988, 1128
1262, 637, 971, 473, 1179
1263, 963, 990, 919, 1009
1264, 888, 965, 1228, 1240
1265, 778, 964, 765, 1050
1266, 229, 1011, 219, 1169
1267, 1102, 1151, 964, 1267
1268, 926, 997, 981, 1172
1269, 1088, 1109, 256, 1245
1270, 937, 983, 978, 1192
1271, 969, 926, 1000, 1172
1272, 994, 1062, 916, 1191
1273, 368, 1109, 959, 1169
1274, 257, 996, 364, 1215
1275, 308, 1029, 152, 1197
1276, 918, 969, 957, 1156
1277, 501, 1221, 1023, 1223
1278, 966, 1004, 934, 1193
1279, 803, 747, 769, 1092
1280, 935, 947, 1113, 1230
1281, 956, 1004, 908, 1077
1282, 573, 444, 608, 1001
1283, 485, 1100, 957, 1178
1284, 503, 1053, 1100, 1178
1285, 971, 952, 1097, 1118
1286, 193, 298, 997, 1153
1287, 471, 473, 971, 1118
1288, 338, 1062, 277, 1119
1289, 729, 956, 697, 1115
1290, 628, 1066, 1021, 1196
1291, 458, 980, 1167, 1259
1292, 934, 1135, 1071, 1137
1293, 511, 561, 494, 1111
1294, 826, 896, 880, 992
1295, 307, 224, 379, 1114
1296, 971, 1022, 917, 1043
1297, 184, 1056, 969, 1156
1298, 613, 1135, 681, 1193
1299, 1003, 1025, 939, 1088
1300, 582, 580, 501, 989
1301, 946, 1015, 989, 1221
1302, 848, 993, 1076, 1191
1303, 329, 286, 287, 984
1304, 954, 986, 924, 1147
1305, 696, 1115, 995, 1219
1306, 473, 637, 471, 971
1307, 328, 210, 1203, 1230
1308, 575, 1017, 576, 1105
1309, 336, 343, 277, 954
1310, 971, 1119, 1022, 1263
1311, 967, 1055, 1040, 1095
1312, 888, 1228, 1026, 1240
1313, 991, 992, 940, 1251
1314, 285, 296, 1085, 1148
1315, 928, 981, 970, 1063
1316, 705, 881, 725, 1099
1317, 967, 1055, 1095, 1241
1318, 413, 399, 458, 1167
1319, 715, 1040, 967, 1055
1320, 1026, 1228, 965, 1240
1321, 976, 986, 954, 1082
1322, 941, 951, 997, 1103
1323, 238, 950, 1063, 1149
1324, 185, 969, 1089, 1156
1325, 983, 543, 1133, 1186
1326, 724, 733, 695, 1251
1327, 151, 166, 965, 1091
1328, 394, 441, 982, 1083
1329, 983, 1079, 978, 1192
1330, 338, 336, 277, 1062
1331, 882, 405, 402, 1269
1332, 911, 980, 979, 1084
1333, 584, 1006, 1094, 1223
1334, 410, 1101, 412, 1142
1335, 678, 542, 552, 1104
1336, 518, 471, 971, 1097
1337, 529, 1054, 970, 1189
1338, 318, 1039, 199, 1140
1339, 882, 402, 1074, 1269
1340, 368, 361, 1109, 1169
1341, 962, 1002, 933, 1078
1342, 889, 968, 863, 1075
1343, 240, 351, 350, 1063
1344, 943, 1048, 911, 1090
1345, 242, 240, 1063, 1162
1346, 951, 1190, 1189, 1254
1347, 481, 562, 1163, 1181
1348, 885, 994, 327, 1107
1349, 413, 439, 399, 1167
1350, 185, 203, 183, 1156
1351, 954, 1028, 976, 1062
1352, 894, 860, 905, 953
1353, 797, 814, 761, 979
1354, 972, 989, 927, 1094
1355, 938, 1044, 1123, 1242
1356, 329, 1096, 984, 1158
1357, 144, 285, 296, 1085
1358, 967, 1040, 934, 1095
1359, 932, 1065, 1003, 1184
1360, 1139, 1203, 947, 1230
1361, 997, 1038, 951, 1111
1362, 680, 1073, 1069, 1216
1363, 626, 1053, 575, 1106
1364, 348, 1056, 255, 1149
1365, 948, 1117, 986, 1234
1366, 165, 1098, 1091, 1209
1367, 731, 387, 1040, 1055
1368, 329, 984, 287, 1158
1369, 237, 238, 950, 1138
1370, 960, 996, 922, 1215
1371, 238, 236, 950, 1149
1372, 952, 1118, 917, 1246
1373, 514, 1010, 556, 1049
1374, 987, 1154, 931, 1254
1375, 576, 1105, 1017, 1188
1376, 910, 1093, 1086, 1123
1377, 749, 149, 1090, 1166
1378, 1049, 1120, 937, 1192
1379, 570, 572, 986, 1082
1380, 497, 1006, 963, 1173
1381, 1035, 1093, 942, 1242
1382, 263, 261, 1055, 1244
1383, 543, 983, 607, 1079
1384, 424, 461, 394, 982
1385, 458, 685, 980, 1259
1386, 304, 995, 393, 1205
1387, 806, 788, 786, 1008
1388, 397, 412, 438, 962
1389, 305, 1022, 321, 1249
1390, 272, 271, 158, 1142
1391, 158, 398, 1142, 1236
1392, 518, 971, 637, 1256
1393, 550, 980, 685, 1259
1394, 936, 1047, 980, 1167
1395, 604, 1026, 585, 1093
1396, 724, 462, 690, 992
1397, 912, 1057, 949, 1243
1398, 946, 909, 1015, 1122
1399, 921, 986, 1117, 1234
1400, 184, 969, 185, 1156
1401, 1089, 1117, 948, 1234
1402, 918, 957, 973, 1156
1403, 322, 895, 155, 1028
1404, 305, 228, 321, 1022
1405, 784, 801, 1042, 1212
1406, 865, 844, 992, 1099
1407, 582, 989, 501, 1223
1408, 1004, 1112, 944, 1199
1409, 237, 950, 236, 1151
1410, 981, 1063, 351, 1162
1411, 370, 371, 267, 1090
1412, 518, 471, 637, 971
1413, 958, 975, 925, 1060
1414, 973, 1030, 925, 1233
1415, 1000, 1100, 481, 1181
1416, 612, 967, 613, 1087
1417, 587, 585, 586, 1093
1418, 957, 1030, 973, 1233
1419, 925, 974, 958, 1144
1420, 914, 1201, 1087, 1241
1421, 935, 988, 977, 1051
1422, 678, 949, 1104, 1116
1423, 647, 976, 445, 1076
1424, 817, 800, 425, 1084
1425, 801, 819, 783, 949
1426, 206, 220, 221, 988
1427, 203, 1156, 1096, 1158
1428, 201, 974, 177, 1152
1429, 825, 821, 1048, 1090
1430, 671, 775, 751, 1065
1431, 785, 996, 362, 1166
1432, 945, 1070, 948, 1096
1433, 924, 945, 1070, 1106
1434, 1040, 1055, 265, 1095
1435, 774, 1003, 811, 1088
1436, 963, 1006, 990, 1173
1437, 1027, 1050, 676, 1260
1438, 172, 173, 174, 1185
1439, 951, 941, 1111, 1136
1440, 650, 637, 1082, 1256
1441, 1023, 1046, 919, 1221
1442, 350, 1149, 981, 1198
1443, 868, 878, 965, 1240
1444, 988, 1051, 220, 1128
1445, 481, 562, 495, 1163
1446, 965, 1141, 868, 1228
1447, 593, 594, 680, 1216
1448, 520, 521, 1161, 1199
1449, 606, 1023, 501, 1221
1450, 454, 467, 632, 993
1451, 1057, 912, 1159, 1218
1452, 920, 987, 1103, 1261
1453, 978, 983, 928, 1079
1454, 982, 1083, 1044, 1123
1455, 634, 871, 446, 1026
1456, 984, 1122, 287, 1262
1457, 555, 993, 467, 1097
1458, 715, 714, 967, 1040
1459, 947, 923, 1021, 1113
1460, 224, 1114, 966, 1121
1461, 546, 1127, 662, 1202
1462, 438, 397, 962, 1143
1463, 635, 1013, 1118, 1201
1464, 947, 923, 1113, 1203
1465, 962, 1101, 938, 1142
1466, 605, 647, 1076, 1256
1467, 166, 254, 965, 1124
1468, 312, 995, 1115, 1205
1469, 481, 1000, 483, 1100
1470, 427, 1044, 408, 1236
1471, 962, 1069, 1002, 1101
1472, 555, 467, 469, 1097
1473, 141, 322, 336, 1028
1474, 921, 986, 954, 1117
1475, 857, 457, 608, 1045
1476, 635, 1013, 472, 1118
1477, 966, 934, 1018, 1193
1478, 193, 997, 353, 1103
1479, 640, 993, 555, 1076
1480, 497, 1175, 1006, 1223
1481, 155, 1028, 895, 1080
1482, 341, 287, 1122, 1262
1483, 659, 671, 751, 1065
1484, 978, 983, 937, 1072
1485, 1035, 1123, 1093, 1242
1486, 946, 915, 1015, 1221
1487, 580, 606, 501, 1221
1488, 166, 965, 254, 1141
1489, 928, 957, 1079, 1186
1490, 173, 1009, 990, 1203
1491, 159, 1171, 1090, 1182
1492, 826, 896, 992, 1058
1493, 918, 1053, 948, 1096
1494, 259, 1012, 258, 1182
1495, 986, 1082, 572, 1179
1496, 1038, 1163, 562, 1181
1497, 141, 1028, 336, 1062
1498, 975, 1010, 937, 1060
1499, 533, 1027, 1133, 1184
1500, 171, 269, 990, 1239
1501, 616, 961, 1053, 1134
1502, 804, 780, 788, 1008
1503, 483, 1100, 1000, 1186
1504, 677, 557, 1049, 1174
1505, 505, 951, 1136, 1190
1506, 224, 1121, 966, 1140
1507, 973, 974, 915, 1152
1508, 180, 973, 181, 1155
1509, 315, 697, 956, 1115
1510, 672, 757, 662, 1127
1511, 455, 623, 968, 1222
1512, 950, 1072, 236, 1151
1513, 684, 982, 618, 1083
1514, 446, 871, 890, 1026
1515, 624, 968, 623, 1126
1516, 821, 1171, 795, 1229
1517, 925, 974, 973, 1155
1518, 666, 1057, 1159, 1218
1519, 170, 171, 172, 1132
1520, 298, 1153, 188, 1172
1521, 982, 1044, 910, 1123
1522, 531, 630, 554, 970
1523, 527, 644, 643, 1037
1524, 812, 964, 778, 1065
1525, 678, 666, 542, 1159
1526, 630, 554, 970, 1163
1527, 455, 968, 1075, 1222
1528, 194, 975, 299, 1168
1529, 846, 998, 1085, 1258
1530, 937, 1060, 1010, 1192
1531, 928, 1000, 957, 1186
1532, 299, 975, 335, 1164
1533, 1029, 1073, 419, 1167
1534, 910, 1098, 965, 1225
1535, 283, 1122, 946, 1262
1536, 304, 995, 1205, 1243
1537, 689, 614, 462, 1108
1538, 894, 953, 840, 1080
1539, 990, 1006, 930, 1173
1540, 776, 775, 1003, 1065
1541, 686, 700, 728, 1104
1542, 1014, 1180, 216, 1230
1543, 948, 1070, 924, 1147
1544, 377, 979, 1171, 1182
1545, 1012, 1051, 249, 1180
1546, 1101, 1142, 410, 1236
1547, 194, 975, 1168, 1176
1548, 282, 301, 998, 1085
1549, 535, 1160, 1041, 1196
1550, 923, 1130, 1010, 1131
1551, 626, 575, 569, 1106
1552, 910, 965, 1093, 1225
1553, 285, 1085, 282, 1148
1554, 637, 1082, 971, 1179
1555, 254, 965, 1124, 1141
1556, 369, 233, 364, 1036
1557, 696, 727, 1115, 1219
1558, 990, 1132, 171, 1239
1559, 694, 1071, 682, 1077
1560, 646, 485, 1186, 1233
1561, 896, 991, 865, 992
1562, 182, 1056, 184, 1156
1563, 1021, 1131, 963, 1206
1564, 479, 1005, 1111, 1181
1565, 162, 696, 312, 995
1566, 949, 1057, 908, 1243
1567, 602, 1126, 623, 1165
1568, 211, 228, 1022, 1119
1569, 574, 569, 575, 1207
1570, 754, 670, 766, 1033
1571, 915, 1122, 984, 1262
1572, 983, 1027, 950, 1268
1573, 535, 516, 1160, 1196
1574, 969, 1056, 184, 1198
1575, 926, 1153, 997, 1172
1576, 933, 1002, 962, 1069
1577, 643, 1037, 644, 1161
1578, 592, 642, 1093, 1123
1579, 281, 998, 147, 1052
1580, 445, 647, 565, 976
1581, 220, 1051, 988, 1180
1582, 715, 967, 713, 1055
1583, 913, 1102, 1050, 1127
1584, 619, 618, 982, 1123
1585, 1112, 1136, 498, 1194
1586, 882, 1074, 1150, 1269
1587, 1059, 1114, 222, 1121
1588, 550, 679, 980, 1084
1589, 380, 1137, 253, 1195
1590, 912, 949, 1159, 1212
1591, 957, 1056, 973, 1156
1592, 843, 882, 402, 1074
1593, 716, 1071, 718, 1077
1594, 837, 906, 871, 1026
1595, 203, 332, 1156, 1158
1596, 836, 976, 853, 1076
1597, 641, 622, 1001, 1075
1598, 561, 562, 479, 1038
1599, 947, 1032, 1021, 1206
1600, 933, 1032, 1002, 1216
1601, 172, 226, 170, 972
1602, 824, 964, 812, 1267
1603, 983, 538, 1120, 1260
1604, 955, 1013, 914, 1246
1605, 639, 602, 583, 1126
1606, 722, 1071, 732, 1135
1607, 523, 1112, 1004, 1199
1608, 938, 1044, 1083, 1123
1609, 985, 1153, 926, 1172
1610, 294, 292, 1070, 1147
1611, 956, 934, 1137, 1195
1612, 246, 220, 1051, 1128
1613, 224, 215, 1114, 1121
1614, 910, 1093, 1098, 1225
1615, 623, 1126, 968, 1165
1616, 670, 754, 658, 1033
1617, 338, 1062, 1119, 1204
1618, 983, 1133, 1027, 1268
1619, 249, 1012, 267, 1051
1620, 489, 629, 491, 1144
1621, 161, 1044, 270, 1074
1622, 583, 1126, 602, 1165
1623, 975, 1067, 335, 1164
1624, 608, 833, 857, 1045
1625, 966, 1018, 1004, 1193
1626, 463, 760, 817, 1084
1627, 955, 920, 1018, 1208
1628, 955, 914, 1068, 1246
1629, 281, 1052, 326, 1129
1630, 913, 999, 1072, 1151
1631, 933, 1002, 1069, 1216
1632, 470, 1097, 1007, 1118
1633, 749, 149, 796, 1090
1634, 965, 1098, 166, 1124
1635, 944, 1011, 987, 1121
1636, 168, 1124, 1098, 1132
1637, 913, 1102, 1036, 1151
1638, 622, 839, 1001, 1075
1639, 979, 1084, 818, 1171
1640, 351, 1063, 240, 1162
1641, 1012, 1047, 258, 1182
1642, 948, 1134, 1053, 1234
1643, 602, 624, 623, 1126
1644, 1004, 1018, 966, 1112
1645, 876, 991, 896, 1058
1646, 909, 1015, 1105, 1222
1647, 1002, 1078, 962, 1170
1648, 639, 585, 604, 1026
1649, 634, 604, 456, 1026
1650, 159, 1090, 370, 1182
1651, 878, 1091, 965, 1240
1652, 511, 515, 1189, 1190
1653, 435, 423, 404, 979
1654, 582, 584, 1094, 1223
1655, 967, 1040, 714, 1135
1656, 989, 919, 1046, 1221
1657, 927, 1129, 1124, 1141
1658, 500, 1130, 1021, 1131
1659, 485, 957, 1186, 1233
1660, 476, 1111, 1019, 1136
1661, 833, 1001, 860, 1045
1662, 506, 498, 519, 1112
1663, 938, 1232, 1044, 1242
1664, 851, 1191, 994, 1235
1665, 234, 999, 233, 1072
1666, 793, 778, 1050, 1065
1667, 1033, 1213, 767, 1247
1668, 916, 1119, 971, 1263
1669, 149, 371, 1090, 1166
1670, 540, 538, 983, 1192
1671, 304, 303, 1042, 1243
1672, 742, 1104, 709, 1219
1673, 964, 1050, 913, 1102
1674, 328, 210, 289, 1203
1675, 921, 954, 986, 1263
1676, 910, 1123, 1044, 1242
1677, 271, 161, 384, 1044
1678, 848, 849, 993, 1191
1679, 422, 1069, 411, 1101
1680, 989, 1094, 582, 1165
1681, 769, 1092, 959, 1247
1682, 195, 1039, 318, 1187
1683, 912, 1042, 949, 1212
1684, 240, 239, 241, 1063
1685, 930, 1132, 990, 1239
1686, 1044, 1074, 1150, 1209
1687, 596, 1069, 422, 1101
1688, 970, 929, 1163, 1189
1689, 583, 582, 1094, 1165
1690, 944, 1059, 1011, 1121
1691, 270, 1074, 1044, 1209
1692, 646, 1186, 1079, 1233
1693, 227, 211, 212, 952
1694, 547, 465, 992, 1058
1695, 540, 983, 1120, 1192
1696, 917, 952, 1068, 1187
1697, 540, 983, 538, 1120
1698, 950, 1027, 964, 1138
1699, 327, 339, 150, 1107
1700, 194, 299, 975, 1176
1701, 310, 193, 353, 1103
1702, 320, 1016, 169, 1098
1703, 988, 1067, 922, 1128
1704, 293, 336, 1028, 1147
1705, 889, 828, 863, 968
1706, 857, 457, 1045, 1157
1707, 348, 1056, 1149, 1198
1708, 922, 977, 988, 1128
1709, 749, 1090, 787, 1166
1710, 1026, 1094, 1093, 1225
1711, 224, 208, 1121, 1140
1712, 282, 998, 283, 1122
1713, 770, 767, 805, 1033
1714, 585, 584, 586, 1094
1715, 915, 1221, 946, 1262
1716, 964, 1027, 932, 1138
1717, 913, 1072, 950, 1151
1718, 440, 419, 416, 1073
1719, 412, 397, 431, 962
1720, 327, 994, 339, 1107
1721, 168, 1098, 169, 1132
1722, 303, 378, 1059, 1243
1723, 951, 1189, 1038, 1254
1724, 956, 1077, 908, 1115
1725, 390, 359, 163, 979
1726, 348, 349, 255, 1056
1727, 805, 769, 959, 1247
1728, 318, 300, 252, 955
1729, 1055, 1108, 940, 1241
1730, 1040, 1135, 934, 1137
1731, 323, 965, 166, 1141
1732, 855, 853, 836, 976
1733, 1007, 1097, 952, 1118
1734, 824, 778, 812, 964
1735, 229, 219, 342, 1169
1736, 964, 1061, 812, 1267
1737, 627, 963, 493, 1131
1738, 582, 1094, 989, 1223
1739, 349, 978, 1056, 1255
1740, 470, 471, 1097, 1118
1741, 191, 1110, 1039, 1187
1742, 549, 1066, 1041, 1259
1743, 431, 412, 962, 1142
1744, 982, 910, 1150, 1214
1745, 298, 981, 351, 1162
1746, 340, 287, 341, 1262
1747, 269, 1139, 990, 1239
1748, 946, 1221, 1046, 1262
1749, 716, 682, 1071, 1077
1750, 907, 952, 1007, 1211
1751, 345, 991, 347, 1107
1752, 463, 817, 693, 1084
1753, 927, 1052, 1129, 1141
1754, 1013, 1018, 955, 1087
1755, 377, 1171, 159, 1182
1756, 262, 345, 319, 1024
1757, 827, 901, 1074, 1150
1758, 926, 1005, 961, 1181
1759, 1039, 1110, 917, 1187
1760, 786, 996, 780, 1166
1761, 916, 952, 1119, 1204
1762, 344, 299, 335, 1164
1763, 352, 193, 298, 997
1764, 934, 1004, 1071, 1193
1765, 867, 868, 1141, 1228
1766, 1026, 1094, 927, 1126
1767, 560, 1008, 673, 1210
1768, 931, 1020, 951, 1190
1769, 458, 550, 685, 1259
1770, 220, 268, 1051, 1180
1771, 465, 656, 547, 992
1772, 828, 968, 624, 1126
1773, 551, 1077, 459, 1104
1774, 635, 1118, 470, 1201
1775, 924, 1070, 953, 1080
1776, 149, 279, 796, 1090
1777, 961, 1053, 918, 1100
1778, 223, 1024, 212, 1224
1779, 292, 296, 295, 1070
1780, 615, 613, 612, 1135
1781, 993, 1191, 849, 1235
1782, 519, 1112, 498, 1194
1783, 618, 1083, 982, 1123
1784, 874, 444, 622, 1001
1785, 630, 970, 1133, 1163
1786, 909, 1001, 953, 1258
1787, 944, 1114, 1059, 1121
1788, 961, 1053, 1134, 1234
1789, 593, 1069, 596, 1101
1790, 998, 1085, 909, 1122
1791, 353, 1103, 997, 1154
1792, 192, 1039, 1103, 1261
1793, 280, 282, 301, 998
1794, 147, 281, 280, 998
1795, 281, 283, 282, 998
1796, 875, 1058, 454, 1235
1797, 971, 518, 1097, 1256
1798, 627, 963, 1131, 1206
1799, 979, 980, 911, 1266
1800, 364, 999, 233, 1215
1801, 956, 1071, 1004, 1077
1802, 635, 472, 470, 1118
1803, 874, 622, 839, 1001
1804, 248, 1012, 1014, 1197
1805, 798, 819, 744, 1116
1806, 183, 184, 185, 1156
1807, 521, 1057, 1161, 1199
1808, 865, 881, 844, 1099
1809, 424, 394, 441, 982
1810, 989, 1046, 946, 1221
1811, 972, 1094, 927, 1225
1812, 928, 1063, 970, 1268
1813, 974, 1168, 1009, 1185
1814, 722, 739, 698, 1040
1815, 314, 956, 307, 1114
1816, 779, 960, 781, 1127
1817, 555, 1076, 993, 1256
1818, 212, 223, 319, 1024
1819, 984, 1017, 945, 1105
1820, 699, 1055, 738, 1183
1821, 556, 652, 540, 1192
1822, 942, 1094, 972, 1225
1823, 880, 844, 898, 992
1824, 891, 141, 337, 1062
1825, 933, 1073, 1066, 1216
1826, 417, 396, 419, 1029
1827, 521, 522, 1057, 1199
1828, 1028, 1080, 293, 1147
1829, 914, 1224, 1068, 1246
1830, 419, 418, 417, 1047
1831, 185, 186, 187, 1089
1832, 757, 807, 662, 1127
1833, 234, 232, 233, 999
1834, 780, 756, 785, 996
1835, 831, 868, 965, 1141
1836, 940, 1183, 1055, 1244
1837, 545, 664, 671, 1003
1838, 376, 996, 257, 1128
1839, 173, 990, 1139, 1203
1840, 1006, 1094, 942, 1238
1841, 293, 1080, 292, 1147
1842, 717, 716, 718, 1077
1843, 926, 1163, 1038, 1181
1844, 255, 349, 346, 978
1845, 227, 952, 212, 1145
1846, 714, 1040, 739, 1135
1847, 962, 1002, 938, 1101
1848, 488, 1030, 1023, 1188
1849, 148, 368, 361, 1109
1850, 890, 1026, 869, 1126
1851, 934, 1135, 1087, 1193
1852, 152, 395, 385, 1047
1853, 1019, 1043, 475, 1253
1854, 918, 1053, 1017, 1178
1855, 469, 470, 471, 1097
1856, 709, 742, 707, 1104
1857, 570, 1082, 986, 1217
1858, 190, 310, 192, 1103
1859, 345, 1024, 262, 1244
1860, 480, 961, 616, 1134
1861, 469, 1007, 470, 1097
1862, 577, 578, 1015, 1105
1863, 668, 1160, 1048, 1200
1864, 935, 1113, 1180, 1230
1865, 592, 642, 587, 1093
1866, 267, 249, 259, 1012
1867, 500, 507, 1130, 1131
1868, 715, 739, 714, 1040
1869, 919, 1009, 958, 1175
1870, 931, 1161, 1020, 1190
1871, 304, 378, 303, 1243
1872, 958, 1023, 919, 1175
1873, 939, 1031, 1054, 1231
1874, 998, 1075, 909, 1258
1875, 238, 239, 1063, 1138
1876, 418, 414, 433, 980
1877, 453, 673, 790, 1048
1878, 169, 1098, 1016, 1132
1879, 956, 1004, 966, 1114
1880, 527, 1190, 644, 1227
1881, 493, 627, 497, 963
1882, 162, 726, 696, 995
1883, 981, 1063, 928, 1149
1884, 1086, 1150, 910, 1214
1885, 307, 956, 315, 1137
1886, 473, 1043, 1118, 1253
1887, 997, 1103, 193, 1153
1888, 950, 1027, 1138, 1268
1889, 966, 1018, 920, 1112
1890, 612, 613, 611, 1087
1891, 923, 1176, 1113, 1203
1892, 919, 963, 1009, 1175
1893, 958, 1009, 963, 1175
1894, 915, 1046, 1221, 1262
1895, 630, 970, 531, 1133
1896, 501, 1023, 490, 1175
1897, 910, 1093, 965, 1240
1898, 596, 422, 401, 1101
1899, 362, 375, 257, 996
1900, 1016, 1132, 930, 1239
1901, 933, 1066, 1032, 1216
1902, 734, 844, 705, 992
1903, 980, 1084, 911, 1200
1904, 635, 645, 1013, 1201
1905, 544, 1227, 1033, 1231
1906, 783, 784, 801, 1042
1907, 318, 300, 955, 1140
1908, 207, 988, 206, 1113
1909, 770, 1033, 771, 1146
1910, 672, 1050, 757, 1127
1911, 932, 1138, 1027, 1268
1912, 544, 1033, 1146, 1231
1913, 892, 1001, 839, 1258
1914, 915, 1017, 1015, 1188
1915, 422, 411, 401, 1101
1916, 322, 830, 895, 1028
1917, 577, 1105, 1015, 1222
1918, 425, 404, 414, 979
1919, 651, 1018, 645, 1087
1920, 951, 1111, 494, 1136
1921, 284, 287, 984, 1122
1922, 940, 1064, 1024, 1241
1923, 855, 976, 565, 1157
1924, 951, 1103, 987, 1154
1925, 958, 1144, 1023, 1175
1926, 957, 1000, 969, 1100
1927, 575, 576, 574, 1105
1928, 918, 1089, 969, 1156
1929, 485, 484, 1100, 1178
1930, 312, 1115, 313, 1205
1931, 535, 1041, 549, 1066
1932, 497, 1006, 600, 1223
1933, 835, 848, 849, 993
1934, 907, 993, 1177, 1235
1935, 812, 776, 1061, 1065
1936, 235, 234, 233, 1072
1937, 412, 410, 411, 1101
1938, 958, 1131, 491, 1175
1939, 854, 1028, 830, 1062
1940, 497, 963, 627, 1173
1941, 961, 985, 1089, 1234
1942, 581, 580, 582, 989
1943, 559, 977, 1174, 1210
1944, 376, 996, 1128, 1166
1945, 645, 1087, 1013, 1201
1946, 284, 341, 287, 1122
1947, 202, 334, 324, 1117
1948, 650, 518, 637, 1256
1949, 224, 215, 379, 1114
1950, 673, 560, 663, 1008
1951, 713, 715, 714, 967
1952, 557, 514, 1049, 1174
1953, 284, 282, 1122, 1148
1954, 193, 1103, 310, 1153
1955, 482, 481, 1100, 1181
1956, 1026, 965, 1093, 1240
1957, 598, 1032, 597, 1206
1958, 705, 1099, 725, 1251
1959, 549, 1041, 535, 1259
1960, 734, 705, 724, 992
1961, 488, 1023, 1030, 1144
1962, 168, 166, 1098, 1124
1963, 909, 953, 1085, 1258
1964, 279, 159, 745, 1090
1965, 922, 1128, 1067, 1215
1966, 550, 679, 685, 980
1967, 573, 1001, 1045, 1207
1968, 949, 1042, 912, 1243
1969, 982, 1074, 406, 1269
1970, 1017, 1105, 1015, 1188
1971, 686, 728, 708, 1104
1972, 227, 211, 952, 1204
1973, 957, 969, 1056, 1156
1974, 170, 972, 288, 1124
1975, 961, 1005, 985, 1234
1976, 443, 773, 1003, 1146
1977, 924, 1080, 1045, 1250
1978, 597, 1173, 1032, 1248
1979, 936, 1073, 1029, 1167
1980, 298, 197, 351, 981
1981, 647, 566, 565, 976
1982, 493, 963, 497, 1175
1983, 711, 725, 1099, 1251
1984, 974, 1023, 958, 1144
1985, 373, 365, 143, 1088
1986, 197, 981, 298, 1172
1987, 471, 971, 1097, 1118
1988, 913, 1120, 1049, 1202
1989, 914, 1024, 1064, 1241
1990, 1089, 1234, 985, 1249
1991, 650, 1082, 637, 1179
1992, 331, 1070, 295, 1096
1993, 368, 1092, 374, 1237
1994, 680, 599, 1073, 1216
1995, 939, 1054, 1003, 1231
1996, 328, 289, 1139, 1203
1997, 745, 1090, 159, 1171
1998, 203, 1096, 332, 1158
1999, 252, 955, 300, 1195
2000, 699, 153, 1055, 1183
2001, 616, 480, 482, 961
2002, 482, 1100, 961, 1181
2003, 912, 1037, 959, 1247
2004, 805, 769, 747, 959
2005, 320, 169, 167, 1098
2006, 365, 1061, 143, 1088
2007, 955, 1068, 914, 1095
2008, 232, 999, 1067, 1215
2009, 956, 1114, 314, 1115
2010, 555, 640, 632, 993
2011, 442, 663, 675, 1008
2012, 985, 1005, 921, 1234
2013, 587, 592, 1093, 1123
2014, 615, 1135, 612, 1265
2015, 318, 195, 199, 1039
2016, 935, 1113, 988, 1180
2017, 1060, 925, 1144, 1233
2018, 929, 1038, 1163, 1189
2019, 345, 1107, 339, 1145
2020, 505, 1136, 1020, 1190
2021, 1020, 1161, 644, 1190
2022, 856, 853, 976, 1250
2023, 825, 787, 821, 1090
2024, 288, 170, 226, 972
2025, 218, 1059, 1011, 1237
2026, 517, 1064, 1007, 1177
2027, 288, 972, 226, 1129
2028, 905, 860, 847, 1258
2029, 325, 147, 838, 1052
2030, 607, 983, 538, 1192
2031, 566, 565, 976, 1157
2032, 680, 449, 1069, 1073
2033, 1019, 1111, 941, 1136
2034, 866, 325, 838, 1052
2035, 523, 649, 1018, 1112
2036, 935, 1160, 977, 1196
2037, 824, 765, 778, 964
2038, 419, 1029, 416, 1073
2039, 550, 669, 679, 1084
2040, 1027, 1050, 964, 1065
2041, 954, 1062, 916, 1119
2042, 570, 650, 572, 1082
2043, 347, 991, 864, 1107
2044, 631, 495, 630, 1186
2045, 912, 1059, 1057, 1243
2046, 540, 607, 538, 1192
2047, 951, 997, 1103, 1154
2048, 918, 1100, 1053, 1178
2049, 627, 1173, 963, 1206
2050, 533, 532, 1027, 1184
2051, 265, 1040, 387, 1055
2052, 580, 1015, 1188, 1221
2053, 1031, 1189, 515, 1190
2054, 220, 206, 207, 988
2055, 790, 788, 806, 1008
2056, 510, 598, 597, 1206
2057, 278, 327, 337, 994
2058, 461, 618, 684, 982
2059, 978, 1056, 928, 1149
2060, 567, 1106, 1045, 1217
2061, 961, 1089, 948, 1234
2062, 819, 762, 799, 1116
2063, 211, 276, 1119, 1204
2064, 1045, 1106, 567, 1207
2065, 928, 950, 1149, 1268
2066, 1012, 1014, 935, 1180
2067, 827, 901, 879, 1074
2068, 783, 819, 799, 1125
2069, 997, 1154, 951, 1254
2070, 971, 1022, 921, 1263
2071, 228, 277, 321, 1119
2072, 1026, 1093, 1086, 1240
2073, 152, 417, 395, 1047
2074, 911, 1084, 979, 1171
2075, 934, 1071, 956, 1137
2076, 891, 854, 830, 1062
2077, 386, 962, 273, 1142
2078, 479, 1005, 477, 1111
2079, 335, 975, 299, 1176
2080, 882, 1074, 901, 1150
2081, 544, 1146, 674, 1231
2082, 577, 576, 578, 1105
2083, 293, 343, 336, 1147
2084, 966, 1121, 920, 1140
2085, 501, 1023, 1175, 1223
2086, 181, 1152, 973, 1158
2087, 720, 312, 696, 1115
2088, 999, 1067, 937, 1164
2089, 676, 659, 447, 1065
2090, 955, 934, 1018, 1195
2091, 191, 1039, 195, 1187
2092, 1014, 250, 1197, 1220
2093, 249, 1051, 268, 1180
2094, 177, 1155, 974, 1168
2095, 1032, 1066, 598, 1216
2096, 938, 1002, 962, 1170
2097, 1082, 1179, 986, 1263
2098, 287, 284, 984, 1148
2099, 366, 1138, 237, 1151
2100, 350, 981, 351, 1198
2101, 854, 852, 1062, 1191
2102, 1014, 1197, 1029, 1220
2103, 559, 525, 513, 977
2104, 1057, 1161, 912, 1218
2105, 916, 1119, 1062, 1204
2106, 1062, 1076, 916, 1191
2107, 907, 1058, 991, 1235
2108, 805, 959, 747, 1109
2109, 260, 1047, 979, 1182
2110, 961, 948, 1053, 1234
2111, 416, 1073, 1029, 1257
2112, 1044, 1150, 910, 1209
2113, 314, 315, 956, 1115
2114, 922, 1049, 1010, 1174
2115, 954, 921, 1117, 1263
2116, 856, 893, 853, 1250
2117, 938, 1142, 1101, 1236
2118, 925, 975, 1168, 1255
2119, 678, 1104, 464, 1116
2120, 804, 781, 779, 960
2121, 535, 549, 628, 1066
2122, 365, 241, 239, 1138
2123, 572, 571, 986, 1134
2124, 928, 1149, 1063, 1268
2125, 557, 514, 556, 1049
2126, 201, 1046, 316, 1185
2127, 511, 564, 1038, 1189
2128, 521, 1057, 526, 1161
2129, 934, 1095, 1040, 1195
2130, 972, 1124, 170, 1132
2131, 607, 1079, 983, 1192
2132, 1018, 1087, 651, 1193
2133, 284, 285, 282, 1148
2134, 921, 986, 1179, 1263
2135, 331, 295, 329, 1096
2136, 933, 1069, 962, 1257
2137, 1000, 1163, 926, 1181
2138, 396, 309, 420, 1029
2139, 546, 1050, 1202, 1260
2140, 765, 964, 824, 1267
2141, 1026, 1093, 965, 1225
2142, 459, 1077, 700, 1104
2143, 568, 986, 571, 1106
2144, 641, 1105, 1001, 1207
2145, 910, 1044, 1232, 1242
2146, 382, 308, 152, 1197
2147, 580, 1015, 578, 1188
2148, 686, 459, 700, 1104
2149, 293, 1028, 155, 1080
2150, 934, 1040, 1137, 1195
2151, 929, 1034, 1025, 1162
2152, 790, 755, 453, 1048
2153, 919, 1009, 990, 1185
2154, 668, 1200, 1048, 1229
2155, 948, 986, 1134, 1234
2156, 346, 1072, 978, 1164
2157, 975, 299, 1168, 1255
2158, 304, 1205, 378, 1243
2159, 606, 488, 1023, 1188
2160, 764, 1102, 1036, 1127
2161, 465, 454, 875, 1058
2162, 919, 1006, 963, 1175
2163, 593, 595, 1002, 1101
2164, 150, 347, 864, 1107
2165, 938, 1083, 1044, 1236
2166, 335, 1067, 975, 1176
2167, 854, 1062, 887, 1191
2168, 633, 1173, 597, 1248
2169, 924, 1028, 954, 1147
2170, 344, 1067, 232, 1164
2171, 474, 1019, 475, 1253
2172, 502, 1030, 1017, 1178
2173, 323, 166, 254, 1141
2174, 1041, 1160, 935, 1196
2175, 517, 1007, 468, 1177
2176, 572, 1134, 986, 1179
2177, 476, 1136, 1019, 1194
2178, 929, 1038, 1189, 1254
2179, 955, 1018, 966, 1195
2180, 178, 1168, 299, 1255
2181, 349, 182, 180, 1056
2182, 782, 302, 156, 1042
2183, 211, 1022, 204, 1187
2184, 288, 254, 1124, 1129
2185, 465, 875, 826, 1058
2186, 344, 335, 1067, 1164
2187, 161, 271, 270, 1044
2188, 380, 1040, 253, 1137
2189, 967, 1135, 714, 1265
2190, 1023, 1221, 919, 1223
2191, 177, 178, 1155, 1168
2192, 559, 525, 977, 1210
2193, 638, 1136, 476, 1194
2194, 230, 221, 220, 1128
2195, 232, 344, 335, 1067
2196, 869, 1126, 1026, 1228
2197, 179, 181, 973, 1155
2198, 177, 179, 974, 1155
2199, 482, 961, 480, 1181
2200, 986, 1082, 976, 1217
2201, 874, 860, 833, 1001
2202, 181, 340, 1152, 1158
2203, 407, 406, 408, 1074
2204, 181, 179, 973, 1152
2205, 179, 177, 974, 1152
2206, 193, 352, 353, 997
2207, 263, 1055, 153, 1183
2208, 1001, 1075, 839, 1258
2209, 219, 987, 317, 1154
2210, 760, 463, 791, 1084
2211, 942, 972, 1124, 1225
2212, 500, 1131, 1021, 1206
2213, 971, 1043, 917, 1118
2214, 369, 1036, 297, 1102
2215, 1003, 1054, 932, 1184
2216, 489, 496, 1144, 1233
2217, 909, 1122, 1085, 1148
2218, 1029, 1197, 250, 1220
2219, 895, 1028, 859, 1080
2220, 907, 991, 1107, 1235
2221, 708, 1104, 707, 1116
2222, 781, 804, 746, 960
2223, 312, 720, 157, 1115
2224, 964, 1061, 932, 1065
2225, 861, 886, 862, 1052
2226, 206, 1113, 988, 1176
2227, 347, 264, 356, 991
2228, 910, 1044, 982, 1150
2229, 376, 257, 996, 1166
2230, 215, 222, 1114, 1121
2231, 952, 1007, 1118, 1246
2232, 966, 1018, 934, 1195
2233, 701, 716, 682, 1071
2234, 952, 917, 1068, 1246
2235, 972, 927, 1124, 1225
2236, 890, 871, 869, 1026
2237, 856, 976, 855, 1157
2238, 492, 501, 490, 1175
2239, 246, 220, 268, 1051
2240, 1022, 917, 1110, 1187
2241, 196, 1113, 1176, 1203
2242, 591, 633, 597, 1248
2243, 521, 522, 526, 1057
2244, 928, 1079, 983, 1186
2245, 745, 796, 279, 1090
2246, 797, 979, 818, 1171
2247, 731, 1040, 715, 1055
2248, 765, 1102, 964, 1267
2249, 1031, 1034, 929, 1254
2250, 932, 1027, 964, 1065
2251, 397, 145, 962, 1143
2252, 863, 886, 861, 968
2253, 1070, 1080, 924, 1147
2254, 375, 142, 364, 1036
2255, 950, 237, 1138, 1151
2256, 854, 887, 852, 1191
2257, 764, 750, 1036, 1102
2258, 1031, 528, 1189, 1231
2259, 190, 310, 1103, 1153
2260, 792, 818, 1084, 1171
2261, 224, 1140, 966, 1195
2262, 699, 383, 153, 1183
2263, 892, 874, 839, 1001
2264, 393, 995, 312, 1205
2265, 515, 1031, 528, 1189
2266, 916, 1082, 954, 1263
2267, 193, 188, 298, 1153
2268, 476, 494, 1111, 1136
2269, 566, 976, 647, 1217
2270, 960, 1036, 913, 1127
2271, 463, 625, 791, 1084
2272, 203, 332, 183, 1156
2273, 591, 597, 1032, 1248
2274, 748, 772, 809, 1109
2275, 654, 694, 553, 1004
2276, 641, 601, 622, 1075
2277, 177, 201, 316, 1185
2278, 1003, 1054, 664, 1231
2279, 1189, 1190, 1031, 1254
2280, 746, 804, 788, 1008
2281, 813, 143, 1061, 1088
2282, 891, 337, 829, 1062
2283, 760, 800, 817, 1084
2284, 287, 984, 286, 1148
2285, 168, 170, 1124, 1132
2286, 328, 1220, 217, 1230
2287, 535, 516, 534, 1160
2288, 232, 1067, 221, 1215
2289, 638, 476, 1019, 1194
2290, 646, 543, 607, 1079
2291, 679, 463, 693, 1084
2292, 250, 248, 1014, 1197
2293, 925, 1168, 1155, 1255
2294, 478, 477, 479, 1005
2295, 516, 977, 525, 1160
2296, 288, 326, 254, 1129
2297, 1044, 1083, 982, 1236
2298, 931, 1190, 951, 1254
2299, 917, 1187, 1068, 1208
2300, 699, 710, 383, 1183
2301, 386, 145, 273, 962
2302, 264, 356, 991, 1099
2303, 142, 297, 369, 1036
2304, 363, 1059, 218, 1237
2305, 209, 1121, 208, 1261
2306, 681, 1135, 1071, 1193
2307, 343, 1117, 954, 1147
2308, 309, 396, 308, 1029
2309, 645, 651, 649, 1018
2310, 1005, 1134, 921, 1234
2311, 732, 722, 718, 1071
2312, 584, 600, 1006, 1223
2313, 650, 1082, 647, 1256
2314, 514, 507, 1010, 1130
2315, 927, 1126, 1094, 1165
2316, 603, 1006, 497, 1173
2317, 723, 730, 713, 1108
2318, 998, 909, 1085, 1258
2319, 779, 763, 756, 1036
2320, 894, 858, 860, 1045
2321, 937, 1067, 975, 1164
2322, 885, 851, 994, 1107
2323, 491, 1131, 493, 1175
2324, 959, 912, 1092, 1237
2325, 966, 1114, 944, 1121
2326, 351, 981, 197, 1198
2327, 764, 1036, 779, 1127
2328, 1020, 1112, 920, 1136
2329, 953, 1045, 1001, 1207
2330, 764, 750, 763, 1036
2331, 1030, 1178, 486, 1233
2332, 166, 165, 167, 1098
2333, 605, 650, 647, 1256
2334, 967, 1087, 934, 1135
2335, 473, 475, 1043, 1253
2336, 603, 600, 497, 1006
2337, 1142, 1232, 1044, 1236
2338, 959, 1037, 1033, 1213
2339, 350, 351, 197, 1198
2340, 976, 566, 1157, 1217
2341, 659, 545, 671, 1065
2342, 931, 959, 1037, 1264
2343, 856, 853, 855, 976
2344, 673, 1048, 660, 1210
2345, 291, 296, 292, 1080
2346, 828, 886, 968, 1126
2347, 541, 677, 557, 1049
2348, 649, 1018, 1112, 1194
2349, 531, 1133, 970, 1184
2350, 962, 1078, 933, 1143
2351, 221, 1128, 230, 1215
2352, 288, 1124, 972, 1129
2353, 175, 1009, 173, 1203
2354, 721, 698, 146, 1137
2355, 593, 596, 595, 1101
2356, 912, 1081, 1037, 1247
2357, 482, 481, 483, 1100
2358, 533, 1133, 531, 1184
2359, 517, 1007, 1064, 1201
2360, 342, 368, 229, 1169
2361, 829, 887, 1062, 1191
2362, 1057, 1059, 908, 1243
2363, 982, 1150, 1074, 1269
2364, 541, 677, 1049, 1202
2365, 642, 1086, 604, 1093
2366, 354, 342, 219, 1169
2367, 603, 584, 600, 1006
2368, 722, 1040, 698, 1137
2369, 975, 1164, 299, 1255
2370, 150, 345, 347, 1107
2371, 1017, 1030, 502, 1188
2372, 231, 364, 233, 1215
2373, 989, 919, 1221, 1223
2374, 925, 974, 1155, 1168
2375, 569, 567, 1106, 1207
2376, 287, 286, 284, 1148
2377, 661, 1213, 1033, 1227
2378, 1069, 1073, 400, 1257
2379, 829, 994, 851, 1191
2380, 251, 1078, 381, 1220
2381, 820, 1159, 801, 1212
2382, 232, 221, 231, 1215
2383, 627, 1131, 500, 1206
2384, 173, 175, 174, 1009
2385, 883, 876, 896, 1058
2386, 508, 1021, 500, 1130
2387, 994, 1191, 993, 1235
2388, 371, 246, 267, 1051
2389, 169, 168, 167, 1098
2390, 1013, 1194, 509, 1253
2391, 952, 907, 1145, 1211
2392, 479, 480, 478, 1005
2393, 914, 1095, 1068, 1224
2394, 580, 1188, 606, 1221
2395, 943, 977, 1160, 1210
2396, 661, 1033, 544, 1227
2397, 214, 171, 1132, 1239
2398, 922, 960, 1049, 1174
2399, 360, 143, 813, 1088
2400, 942, 1124, 972, 1132
2401, 480, 1005, 479, 1181
2402, 523, 519, 649, 1112
2403, 665, 676, 1050, 1260
2404, 1033, 1231, 1227, 1264
2405, 928, 981, 1149, 1198
2406, 942, 1098, 1124, 1132
2407, 361, 1109, 1169, 1245
2408, 936, 1012, 1041, 1266
2409, 493, 1131, 963, 1175
2410, 970, 1063, 932, 1268
2411, 1077, 908, 1115, 1219
2412, 546, 665, 1050, 1260
2413, 470, 1118, 1007, 1201
2414, 606, 1188, 1023, 1221
2415, 543, 538, 983, 1133
2416, 646, 543, 1079, 1186
2417, 305, 204, 1022, 1110
2418, 552, 551, 459, 1104
2419, 173, 1139, 289, 1203
2420, 294, 295, 331, 1070
2421, 949, 1104, 995, 1243
2422, 216, 248, 1014, 1230
2423, 666, 526, 1057, 1218
2424, 252, 1095, 955, 1195
2425, 661, 544, 1033, 1213
2426, 448, 701, 1071, 1135
2427, 921, 1134, 986, 1234
2428, 1000, 1100, 957, 1186
2429, 906, 888, 1026, 1240
2430, 379, 314, 307, 1114
2431, 915, 973, 1152, 1158
2432, 995, 1104, 908, 1243
2433, 304, 162, 995, 1125
2434, 403, 414, 413, 980
2435, 792, 818, 800, 1084
2436, 652, 558, 629, 1060
2437, 962, 1078, 275, 1170
2438, 543, 538, 607, 983
2439, 382, 1029, 308, 1197
2440, 934, 1040, 967, 1135
2441, 916, 952, 1204, 1211
2442, 955, 1095, 934, 1195
2443, 346, 978, 349, 1255
2444, 448, 719, 701, 1135
2445, 149, 371, 279, 1090
2446, 249, 1012, 248, 1197
2447, 269, 173, 990, 1139
2448, 393, 304, 162, 995
2449, 295, 294, 292, 1070
2450, 497, 600, 1175, 1223
2451, 251, 275, 381, 1078
2452, 702, 714, 1135, 1265
2453, 473, 1043, 636, 1179
2454, 910, 1091, 965, 1098
2455, 258, 1047, 1012, 1197
2456, 558, 514, 507, 1010
2457, 275, 145, 381, 1143
2458, 752, 782, 156, 1042
2459, 775, 774, 776, 1003
2460, 949, 908, 1104, 1243
2461, 684, 409, 394, 1083
2462, 464, 686, 708, 1104
2463, 920, 1121, 987, 1261
2464, 441, 1083, 426, 1236
2465, 250, 1014, 248, 1220
2466, 979, 911, 1182, 1266
2467, 671, 664, 443, 1003
2468, 920, 1140, 1121, 1261
2469, 546, 665, 672, 1050
2470, 284, 1122, 984, 1148
2471, 1133, 1184, 1027, 1268
2472, 713, 967, 714, 1265
2473, 309, 420, 1029, 1143
2474, 650, 572, 1082, 1179
2475, 647, 445, 605, 1076
2476, 780, 996, 785, 1166
2477, 558, 556, 514, 1010
2478, 367, 1102, 154, 1267
2479, 314, 315, 307, 956
2480, 851, 829, 885, 994
2481, 320, 1016, 1098, 1232
2482, 488, 490, 1023, 1144
2483, 222, 215, 218, 1121
2484, 958, 1060, 925, 1144
2485, 328, 1078, 251, 1220
2486, 204, 1022, 1110, 1187
2487, 179, 973, 1152, 1155
2488, 179, 1152, 974, 1155
2489, 516, 977, 1160, 1196
2490, 354, 1154, 1034, 1169
2491, 667, 1081, 1037, 1218
2492, 939, 1109, 1088, 1245
2493, 688, 596, 401, 1101
2494, 275, 962, 145, 1143
2495, 361, 1169, 245, 1245
2496, 939, 1231, 1033, 1264
2497, 584, 1006, 603, 1238
2498, 411, 1069, 432, 1257
2499, 211, 276, 228, 1119
2500, 525, 516, 513, 977
2501, 1044, 1074, 982, 1150
2502, 959, 1037, 1213, 1247
2503, 731, 699, 387, 1055
2504, 1021, 1066, 935, 1196
2505, 214, 169, 1016, 1132
2506, 933, 962, 1143, 1257
2507, 400, 1069, 449, 1073
2508, 570, 647, 650, 1082
2509, 930, 1173, 1006, 1238
2510, 846, 861, 845, 998
2511, 257, 1128, 996, 1215
2512, 542, 666, 526, 1057
2513, 581, 989, 582, 1165
2514, 928, 983, 1133, 1186
2515, 793, 672, 447, 1050
2516, 195, 191, 192, 1039
2517, 940, 991, 1183, 1244
2518, 303, 156, 1042, 1092
2519, 208, 1121, 1140, 1261
2520, 999, 937, 1072, 1164
2521, 541, 1049, 540, 1120
2522, 790, 808, 788, 1008
2523, 249, 267, 268, 1051
2524, 970, 1054, 929, 1189
2525, 263, 261, 153, 1055
2526, 761, 818, 797, 979
2527, 503, 1100, 484, 1178
2528, 610, 1108, 1064, 1226
2529, 220, 988, 207, 1180
2530, 631, 483, 1000, 1186
2531, 729, 697, 741, 1115
2532, 522, 551, 1057, 1199
2533, 240, 238, 239, 1063
2534, 910, 1098, 1093, 1242
2535, 772, 770, 805, 1109
2536, 1048, 1160, 911, 1200
2537, 1019, 1039, 917, 1208
2538, 190, 193, 310, 1153
2539, 366, 237, 367, 1151
2540, 304, 393, 378, 1205
2541, 918, 957, 1100, 1178
2542, 1021, 1130, 923, 1131
2543, 330, 281, 326, 1129
2544, 168, 166, 167, 1098
2545, 916, 954, 1119, 1263
2546, 529, 1054, 530, 1184
2547, 1054, 1189, 528, 1231
2548, 651, 523, 1018, 1193
2549, 339, 1107, 994, 1145
2550, 933, 1143, 1078, 1220
2551, 595, 590, 1002, 1252
2552, 917, 1208, 1068, 1246
2553, 910, 1044, 1209, 1232
2554, 954, 1082, 986, 1263
2555, 524, 1227, 544, 1231
2556, 938, 1232, 1142, 1236
2557, 638, 498, 476, 1136
2558, 649, 1112, 519, 1194
2559, 470, 469, 468, 1007
2560, 260, 979, 377, 1182
2561, 859, 1080, 1028, 1250
2562, 640, 445, 836, 1076
2563, 640, 836, 848, 1076
2564, 656, 690, 462, 992
2565, 927, 1094, 989, 1165
2566, 320, 1098, 167, 1232
2567, 511, 564, 561, 1038
2568, 1227, 1231, 1031, 1264
2569, 147, 32, 845, 280
2570, 836, 99, 640, 848
2571, 640, 445, 99, 836
2572, 350, 240, 1063, 1149
2573, 100, 632, 640, 848
2574, 32, 845, 838, 147
2575, 838, 325, 33, 147
2576, 483, 481, 495, 1000
2577, 631, 483, 495, 1000
2578, 325, 838, 33, 866
2579, 526, 1161, 1057, 1218
2580, 537, 533, 532, 1027
2581, 553, 694, 682, 1077
2582, 392, 314, 1114, 1205
2583, 368, 374, 229, 1237
2584, 832, 845, 31, 280
2585, 280, 31, 832, 301
2586, 508, 628, 510, 1021
2587, 209, 987, 1121, 1261
2588, 665, 676, 447, 1050
2589, 1098, 1225, 1093, 1242
2590, 668, 534, 1160, 1200
2591, 303, 1092, 1042, 1237
2592, 314, 1115, 1114, 1205
2593, 808, 746, 788, 1008
2594, 678, 552, 464, 1104
2595, 631, 485, 483, 1186
2596, 1032, 1173, 597, 1206
2597, 223, 261, 1024, 1224
2598, 651, 523, 649, 1018
2599, 393, 312, 313, 1205
2600, 446, 890, 624, 1126
2601, 237, 239, 238, 1138
2602, 699, 738, 710, 1183
2603, 711, 705, 725, 1251
2604, 935, 1066, 1041, 1196
2605, 645, 509, 635, 1013
2606, 1079, 1186, 957, 1233
2607, 953, 909, 1085, 1148
2608, 1020, 1136, 951, 1190
2609, 178, 1155, 1168, 1255
2610, 628, 1021, 508, 1196
2611, 700, 1104, 1077, 1219
2612, 658, 1033, 754, 1146
2613, 855, 98, 445, 836
2614, 98, 445, 565, 855
2615, 520, 1112, 523, 1199
2616, 626, 568, 571, 1106
2617, 957, 1178, 1030, 1233
2618, 957, 925, 1079, 1233
2619, 162, 726, 995, 1125
2620, 457, 608, 96, 857
2621, 661, 1037, 1213, 1227
2622, 348, 184, 1056, 1198
2623, 936, 980, 1047, 1266
2624, 720, 315, 157, 1115
2625, 639, 1026, 446, 1126
2626, 959, 1213, 1033, 1247
2627, 234, 1072, 346, 1164
2628, 317, 1103, 987, 1261
2629, 767, 1033, 770, 1213
2630, 634, 446, 639, 1026
2631, 698, 1040, 266, 1137
2632, 766, 1033, 670, 1213
2633, 680, 599, 449, 1073
2634, 188, 189, 187, 985
2635, 570, 572, 571, 986
2636, 571, 568, 570, 986
2637, 529, 530, 531, 1184
2638, 965, 927, 1124, 1141
2639, 490, 491, 492, 1175
2640, 541, 556, 540, 1049
2641, 1169, 1245, 1109, 1264
2642, 917, 1118, 1043, 1253
2643, 979, 1047, 980, 1266
2644, 749, 796, 787, 1090
2645, 274, 320, 1016, 1239
2646, 920, 1039, 1019, 1208
2647, 587, 588, 592, 1123
2648, 621, 502, 1017, 1178
2649, 775, 773, 774, 1003
2650, 182, 348, 184, 1056
2651, 464, 1104, 708, 1116
2652, 921, 1043, 971, 1179
2653, 1142, 1170, 272, 1232
2654, 238, 1063, 240, 1149
2655, 579, 578, 580, 1015
2656, 865, 991, 842, 1099
2657, 955, 1140, 300, 1195
2658, 867, 888, 868, 1228
2659, 974, 1046, 915, 1152
2660, 317, 219, 209, 987
2661, 516, 513, 977, 1196
2662, 523, 1004, 653, 1199
2663, 920, 1194, 1018, 1208
2664, 576, 575, 621, 1017
2665, 932, 1054, 970, 1184
2666, 171, 173, 172, 990
2667, 1016, 1170, 274, 1239
2668, 549, 535, 548, 1259
2669, 925, 1030, 1144, 1233
2670, 377, 260, 163, 979
2671, 293, 322, 155, 1028
2672, 637, 473, 636, 1179
2673, 567, 1045, 1157, 1217
2674, 763, 750, 61, 142
2675, 475, 474, 476, 1019
2676, 171, 269, 173, 990
2677, 834, 150, 864, 1107
2678, 555, 993, 1097, 1256
2679, 777, 774, 811, 1088
2680, 930, 1170, 1016, 1239
2681, 793, 757, 672, 1050
2682, 988, 1113, 207, 1180
2683, 262, 1024, 261, 1244
2684, 752, 1042, 156, 1092
2685, 886, 1126, 869, 1228
2686, 619, 592, 618, 1123
2687, 707, 995, 726, 1125
2688, 448, 1071, 681, 1135
2689, 444, 641, 622, 1001
2690, 856, 976, 1157, 1250
2691, 376, 257, 230, 1128
2692, 606, 488, 490, 1023
2693, 224, 208, 215, 1121
2694, 1034, 1154, 931, 1169
2695, 366, 367, 154, 1267
2696, 636, 475, 478, 1043
2697, 142, 750, 61, 297
2698, 631, 1000, 495, 1186
2699, 517, 470, 468, 1007
2700, 454, 101, 875, 632
2701, 211, 228, 204, 1022
2702, 813, 143, 290, 1061
2703, 345, 150, 339, 1107
2704, 535, 534, 1041, 1160
2705, 409, 452, 688, 1101
2706, 1041, 1066, 936, 1259
2707, 184, 1172, 969, 1198
2708, 939, 1034, 1031, 1264
2709, 726, 707, 742, 995
2710, 912, 959, 1092, 1247
2711, 274, 1016, 320, 1170
2712, 851, 904, 850, 1235
2713, 414, 404, 433, 979
2714, 927, 1094, 1026, 1225
2715, 512, 644, 527, 1190
2716, 350, 238, 240, 1149
2717, 1095, 1224, 914, 1241
2718, 189, 985, 188, 1153
2719, 916, 971, 1082, 1263
2720, 720, 696, 727, 1115
2721, 833, 608, 95, 444
2722, 876, 1058, 883, 1235
2723, 472, 1118, 1013, 1253
2724, 362, 996, 257, 1166
2725, 191, 204, 1110, 1187
2726, 928, 970, 1133, 1268
2727, 264, 347, 345, 991
2728, 473, 474, 475, 1253
2729, 409, 1083, 452, 1101
2730, 961, 1134, 1005, 1234
2731, 227, 952, 1145, 1204
2732, 146, 698, 266, 1137
2733, 638, 498, 1136, 1194
2734, 320, 214, 169, 1016
2735, 547, 1058, 992, 1226
2736, 910, 1232, 1209, 1242
2737, 886, 863, 828, 968
2738, 906, 888, 871, 1026
2739, 882, 1150, 873, 1269
2740, 924, 1080, 1028, 1147
2741, 979, 1182, 1047, 1266
2742, 570, 986, 568, 1217
2743, 154, 297, 789, 1102
2744, 303, 374, 156, 1092
2745, 534, 536, 535, 1041
2746, 930, 1078, 1170, 1239
2747, 1037, 912, 1161, 1218
2748, 632, 100, 835, 848
2749, 375, 756, 62, 142
2750, 756, 763, 62, 142
2751, 939, 1109, 1245, 1264
2752, 654, 1004, 523, 1193
2753, 857, 608, 96, 833
2754, 528, 515, 524, 1031
2755, 595, 1002, 1101, 1252
2756, 312, 157, 313, 1115
2757, 500, 499, 507, 1131
2758, 410, 1083, 409, 1101
2759, 627, 493, 500, 1131
2760, 638, 1194, 1019, 1253
2761, 269, 289, 173, 1139
2762, 265, 253, 1040, 1095
2763, 190, 1110, 189, 1153
2764, 509, 472, 635, 1013
2765, 396, 420, 429, 1029
2766, 760, 791, 463, 117
2767, 307, 315, 146, 1137
2768, 1002, 1032, 930, 1248
2769, 885, 834, 851, 1107
2770, 214, 1132, 1016, 1239
2771, 976, 1028, 924, 1250
2772, 374, 1092, 303, 1237
2773, 670, 754, 766, 129
2774, 151, 165, 166, 1091
2775, 410, 1083, 1101, 1236
2776, 317, 987, 209, 1261
2777, 959, 1109, 1033, 1264
2778, 638, 509, 1194, 1253
2779, 613, 615, 681, 1135
2780, 965, 927, 1141, 1228
2781, 854, 893, 830, 1028
2782, 1098, 1209, 167, 1232
2783, 866, 325, 1052, 1141
2784, 590, 593, 595, 1002
2785, 827, 1091, 884, 1150
2786, 273, 962, 275, 1170
2787, 1033, 1109, 939, 1264
2788, 664, 443, 1003, 1146
2789, 660, 1048, 668, 1160
2790, 916, 1082, 971, 1256
2791, 973, 1156, 181, 1158
2792, 409, 688, 401, 1101
2793, 362, 785, 63, 375
2794, 793, 778, 810, 1050
2795, 836, 853, 852, 1076
2796, 638, 1019, 474, 1253
2797, 908, 1114, 956, 1115
2798, 699, 153, 387, 1055
2799, 935, 1051, 1012, 1180
2800, 697, 315, 720, 1115
2801, 785, 756, 63, 375
2802, 1036, 1102, 913, 1127
2803, 986, 1106, 568, 1217
2804, 993, 1076, 916, 1256
2805, 682, 448, 701, 1071
2806, 528, 1031, 524, 1231
2807, 611, 1087, 645, 1201
2808, 297, 750, 789, 1102
2809, 928, 1149, 1056, 1198
2810, 1076, 1082, 916, 1256
2811, 987, 1103, 317, 1154
2812, 515, 512, 1031, 1190
2813, 642, 456, 604, 1086
2814, 921, 1249, 1117, 1263
2815, 754, 670, 658, 129
2816, 301, 144, 870, 1085
2817, 726, 742, 696, 995
2818, 456, 89, 634, 871
2819, 171, 214, 269, 1239
2820, 869, 1026, 871, 1228
2821, 876, 865, 896, 991
2822, 964, 1102, 913, 1151
2823, 955, 1018, 1013, 1208
2824, 939, 1031, 1231, 1264
2825, 409, 410, 426, 1083
2826, 428, 410, 1142, 1236
2827, 791, 463, 117, 625
2828, 774, 1003, 773, 1146
2829, 275, 1078, 355, 1170
2830, 1025, 1088, 373, 1245
2831, 827, 884, 901, 1150
2832, 1025, 1034, 939, 1245
2833, 943, 1160, 1048, 1210
2834, 985, 1110, 941, 1153
2835, 910, 1086, 1093, 1240
2836, 264, 1099, 991, 1244
2837, 259, 370, 267, 1182
2838, 732, 1071, 701, 1135
2839, 920, 955, 1140, 1208
2840, 452, 409, 684, 1083
2841, 911, 1041, 1012, 1266
2842, 224, 300, 1140, 1195
2843, 476, 494, 477, 1111
2844, 221, 1067, 335, 1176
2845, 189, 1110, 985, 1153
2846, 651, 1087, 613, 1193
2847, 640, 1076, 555, 1256
2848, 754, 1033, 770, 1146
2849, 301, 870, 832, 1085
2850, 903, 1075, 846, 1258
2851, 919, 1046, 974, 1185
2852, 101, 835, 875, 632
2853, 1031, 1189, 1054, 1231
2854, 844, 896, 865, 992
2855, 279, 370, 159, 1090
2856, 429, 416, 1029, 1257
2857, 1064, 1201, 914, 1241
2858, 360, 813, 748, 1088
2859, 426, 1083, 410, 1236
2860, 911, 1048, 1200, 1229
2861, 194, 335, 299, 1176
2862, 206, 221, 335, 1176
2863, 517, 1064, 610, 1201
2864, 189, 187, 985, 1249
2865, 864, 842, 865, 991
2866, 1034, 1254, 1031, 1264
2867, 830, 859, 895, 1028
2868, 664, 1146, 1003, 1231
2869, 377, 163, 359, 979
2870, 192, 1103, 310, 1261
2871, 522, 551, 542, 1057
2872, 721, 740, 722, 1137
2873, 870, 905, 847, 1085
2874, 952, 1097, 1007, 1211
2875, 611, 517, 610, 1201
2876, 1034, 1245, 1169, 1264
2877, 200, 317, 209, 1261
2878, 517, 470, 1007, 1201
2879, 610, 614, 1108, 1226
2880, 299, 1164, 344, 1255
2881, 177, 1168, 974, 1185
2882, 912, 1042, 1237, 1243
2883, 583, 581, 582, 1165
2884, 950, 1138, 964, 1151
2885, 320, 1170, 1016, 1232
2886, 303, 1059, 363, 1237
2887, 1045, 1106, 924, 1217
2888, 506, 644, 1020, 1161
2889, 245, 354, 1034, 1169
2890, 1113, 1203, 210, 1230
2891, 793, 751, 778, 1065
2892, 843, 901, 882, 1074
2893, 921, 1110, 985, 1249
2894, 325, 326, 1052, 1141
2895, 605, 640, 555, 1256
2896, 382, 250, 1029, 1197
2897, 253, 1095, 252, 1195
2898, 433, 395, 418, 1047
2899, 583, 582, 584, 1094
2900, 721, 722, 698, 1137
2901, 247, 167, 1209, 1232
2902, 921, 1022, 1249, 1263
2903, 625, 791, 1084, 1229
2904, 363, 222, 218, 1059
2905, 583, 585, 639, 1094
2906, 66, 745, 279, 159
2907, 751, 775, 671, 126
2908, 931, 1254, 1034, 1264
2909, 709, 707, 708, 1104
2910, 524, 544, 674, 1231
2911, 515, 511, 512, 1190
2912, 829, 851, 887, 1191
2913, 959, 931, 1169, 1264
2914, 813, 1061, 777, 1088
2915, 230, 1128, 257, 1215
2916, 916, 971, 1097, 1256
2917, 205, 318, 1068, 1187
2918, 367, 369, 1102, 1151
2919, 913, 960, 1127, 1202
2920, 443, 671, 775, 127
2921, 264, 1183, 1099, 1244
2922, 461, 1214, 982, 1269
2923, 635, 611, 645, 1201
2924, 294, 293, 292, 1147
2925, 429, 1029, 420, 1143
2926, 443, 775, 773, 127
2927, 895, 291, 155, 1080
2928, 275, 273, 145, 962
2929, 508, 500, 507, 1130
2930, 828, 624, 890, 1126
2931, 935, 988, 1051, 1180
2932, 264, 991, 345, 1244
2933, 427, 408, 398, 1236
2934, 496, 646, 1079, 1233
2935, 564, 1163, 1038, 1189
2936, 486, 1030, 502, 1178
2937, 576, 1017, 502, 1188
2938, 176, 1168, 177, 1185
2939, 661, 643, 667, 1037
2940, 528, 664, 530, 1054
2941, 126, 671, 751, 659
2942, 378, 1205, 1059, 1243
2943, 243, 241, 373, 1025
2944, 620, 1073, 683, 1167
2945, 874, 833, 95, 444
2946, 372, 809, 148, 1109
2947, 528, 664, 1054, 1231
2948, 942, 1124, 1098, 1225
2949, 605, 1076, 640, 1256
2950, 329, 287, 332, 1158
2951, 421, 411, 432, 1257
2952, 942, 1225, 1098, 1242
2953, 916, 1076, 993, 1191
2954, 243, 1025, 373, 1245
2955, 544, 1033, 658, 1146
2956, 176, 194, 299, 1168
2957, 673, 453, 790, 119
2958, 938, 1044, 1232, 1236
2959, 937, 1120, 983, 1192
2960, 102, 875, 826, 465
2961, 524, 1031, 512, 1227
2962, 560, 1174, 1008, 1210
2963, 1093, 1094, 942, 1225
2964, 564, 554, 1163, 1189
2965, 875, 102, 454, 465
2966, 667, 1081, 450, 1213
2967, 675, 1008, 560, 1174
2968, 668, 536, 534, 1200
2969, 932, 1061, 964, 1138
2970, 590, 1248, 1002, 1252
2971, 623, 1165, 968, 1222
2972, 1050, 913, 1202, 1260
2973, 453, 660, 673, 1048
2974, 884, 1150, 1091, 1240
2975, 912, 1237, 1059, 1243
2976, 577, 1015, 579, 1222
2977, 461, 619, 982, 1214
2978, 927, 965, 1225, 1228
2979, 858, 857, 1045, 1157
2980, 226, 316, 333, 1046
2981, 652, 1060, 496, 1192
2982, 731, 387, 266, 1040
2983, 393, 162, 312, 995
2984, 629, 496, 652, 1060
2985, 653, 523, 654, 1004
2986, 380, 253, 306, 1195
2987, 667, 1159, 1081, 1218
2988, 931, 1031, 1254, 1264
2989, 512, 1190, 527, 1227
2990, 223, 261, 262, 1024
2991, 512, 1031, 1190, 1227
2992, 461, 982, 424, 1269
2993, 732, 701, 719, 1135
2994, 484, 485, 486, 1178
2995, 939, 1146, 1033, 1231
2996, 757, 1050, 822, 1127
2997, 661, 667, 450, 1213
2998, 619, 618, 461, 982
2999, 472, 1013, 509, 1253
3000, 1027, 1065, 932, 1184
3001, 641, 574, 1105, 1207
3002, 438, 421, 397, 1143
3003, 930, 1035, 1002, 1248
3004, 250, 382, 248, 1197
3005, 167, 1098, 165, 1209
3006, 650, 637, 572, 1179
3007, 404, 423, 433, 979
3008, 346, 1164, 978, 1255
3009, 936, 1014, 1012, 1197
3010, 911, 980, 1200, 1266
3011, 871, 1026, 888, 1228
3012, 667, 1037, 643, 1218
3013, 355, 1078, 328, 1139
3014, 103, 826, 880, 465
3015, 670, 658, 544, 1033
3016, 920, 1136, 1112, 1194
3017, 125, 447, 659, 793
3018, 249, 258, 1012, 1197
3019, 485, 484, 483, 1100
3020, 1023, 1030, 915, 1188
3021, 562, 1038, 564, 1163
3022, 452, 1101, 1083, 1252
3023, 510, 500, 1021, 1206
3024, 414, 418, 439, 980
3025, 547, 992, 462, 1226
3026, 434, 161, 389, 1074
3027, 344, 232, 234, 1164
3028, 449, 400, 422, 1069
3029, 840, 29, 291, 144
3030, 274, 214, 320, 1239
3031, 89, 456, 837, 871
3032, 825, 790, 806, 1048
3033, 513, 1130, 977, 1196
3034, 966, 1140, 955, 1195
3035, 191, 189, 190, 1110
3036, 1091, 1098, 910, 1209
3037, 1096, 1156, 918, 1158
3038, 199, 1039, 192, 1261
3039, 482, 484, 503, 1100
3040, 298, 351, 352, 1162
3041, 535, 1041, 536, 1259
3042, 1033, 1037, 959, 1264
3043, 713, 714, 702, 1265
3044, 164, 165, 1091, 1209
3045, 242, 351, 240, 1162
3046, 1016, 1035, 942, 1242
3047, 1150, 1214, 873, 1269
3048, 823, 784, 752, 1212
3049, 189, 202, 187, 1249
3050, 930, 990, 1139, 1239
3051, 1039, 1140, 955, 1208
3052, 346, 234, 236, 1072
3053, 310, 1103, 353, 1154
3054, 576, 621, 502, 1017
3055, 429, 416, 419, 1029
3056, 669, 1200, 668, 1229
3057, 939, 1245, 1034, 1264
3058, 942, 1093, 1225, 1242
3059, 715, 713, 730, 1055
3060, 669, 668, 625, 1229
3061, 505, 1020, 644, 1190
3062, 338, 1119, 276, 1204
3063, 305, 191, 204, 1110
3064, 305, 1110, 1022, 1249
3065, 183, 182, 184, 1156
3066, 810, 822, 757, 1050
3067, 1069, 1073, 933, 1216
3068, 594, 591, 597, 1032
3069, 1118, 1201, 1013, 1246
3070, 831, 867, 868, 1141
3071, 910, 965, 1091, 1240
3072, 877, 1150, 884, 1240
3073, 938, 1170, 1142, 1232
3074, 497, 600, 492, 1175
3075, 978, 1072, 937, 1164
3076, 474, 638, 476, 1019
3077, 857, 833, 858, 1045
3078, 258, 259, 249, 1012
3079, 941, 1103, 997, 1153
3080, 559, 1174, 560, 1210
3081, 274, 1170, 320, 1232
3082, 776, 751, 775, 1065
3083, 897, 434, 389, 1074
3084, 273, 1142, 962, 1170
3085, 168, 169, 170, 1132
3086, 214, 1016, 320, 1239
3087, 213, 252, 225, 1224
3088, 357, 879, 389, 1074
3089, 666, 1159, 667, 1218
3090, 1029, 1073, 933, 1257
3091, 944, 1161, 1057, 1199
3092, 821, 802, 795, 1171
3093, 719, 615, 702, 1135
3094, 348, 1149, 350, 1198
3095, 882, 901, 873, 1150
3096, 567, 1045, 457, 1157
3097, 236, 1072, 235, 1151
3098, 524, 515, 512, 1031
3099, 303, 378, 363, 1059
3100, 917, 1039, 1187, 1208
3101, 450, 794, 753, 1081
3102, 963, 1131, 958, 1175
3103, 480, 616, 504, 1134
3104, 656, 103, 880, 465
3105, 563, 1081, 667, 1159
3106, 281, 147, 326, 1052
3107, 125, 659, 751, 793
3108, 450, 563, 794, 1081
3109, 366, 1061, 365, 1138
3110, 700, 1077, 743, 1219
3111, 453, 668, 1048, 1229
3112, 754, 770, 771, 1146
3113, 675, 557, 677, 1174
3114, 517, 609, 1064, 1177
3115, 229, 218, 1011, 1237
3116, 164, 151, 36, 1091
3117, 745, 796, 66, 279
3118, 241, 243, 242, 1025
3119, 722, 714, 739, 1135
3120, 486, 488, 1030, 1233
3121, 549, 548, 683, 1259
3122, 489, 487, 496, 1233
3123, 813, 290, 758, 1061
3124, 1050, 913, 1127, 1202
3125, 192, 310, 200, 1261
3126, 1052, 862, 1141, 1228
3127, 694, 681, 1071, 1193
3128, 696, 10, 162, 312
3129, 682, 694, 448, 1071
3130, 784, 1042, 752, 1212
3131, 812, 776, 777, 1061
3132, 641, 1001, 573, 1207
3133, 415, 400, 449, 1073
3134, 577, 578, 579, 1015
3135, 870, 30, 144, 301
3136, 630, 1133, 543, 1186
3137, 1042, 1092, 752, 1212
3138, 590, 588, 589, 1035
3139, 488, 1144, 1030, 1233
3140, 846, 1085, 832, 1258
3141, 1081, 1213, 1037, 1247
3142, 252, 1095, 225, 1224
3143, 683, 458, 1167, 1259
3144, 179, 180, 181, 1155
3145, 177, 178, 179, 1155
3146, 720, 12, 157, 315
3147, 174, 176, 177, 1185
3148, 936, 1029, 1014, 1197
3149, 553, 653, 654, 1004
3150, 543, 533, 538, 1133
3151, 833, 860, 858, 1045
3152, 976, 924, 1157, 1250
3153, 444, 573, 641, 1001
3154, 615, 719, 448, 1135
3155, 339, 994, 278, 1204
3156, 30, 870, 832, 301
3157, 607, 496, 1079, 1192
3158, 347, 864, 22, 150
3159, 619, 648, 642, 1086
3160, 590, 593, 1002, 1248
3161, 418, 395, 417, 1047
3162, 197, 981, 1172, 1198
3163, 332, 181, 1156, 1158
3164, 567, 608, 457, 1045
3165, 229, 218, 219, 1011
3166, 860, 1001, 892, 1258
3167, 168, 170, 288, 1124
3168, 938, 1035, 1016, 1242
3169, 993, 916, 1097, 1256
3170, 496, 646, 607, 1079
3171, 855, 565, 97, 1157
3172, 1078, 355, 1170, 1239
3173, 1018, 1194, 1013, 1208
3174, 1084, 1171, 911, 1229
3175, 844, 880, 896, 992
3176, 490, 489, 491, 1144
3177, 339, 1145, 994, 1204
3178, 376, 362, 257, 1166
3179, 415, 75, 399, 1167
3180, 915, 1030, 1017, 1188
3181, 329, 332, 1096, 1158
3182, 354, 244, 1034, 1154
3183, 29, 840, 870, 144
3184, 921, 1022, 1110, 1249
3185, 568, 1106, 567, 1217
3186, 588, 1123, 1035, 1252
3187, 917, 1043, 1019, 1253
3188, 648, 1086, 619, 1214
3189, 181, 340, 179, 1152
3190, 179, 201, 177, 1152
3191, 755, 790, 453, 119
3192, 302, 156, 52, 782
3193, 786, 780, 785, 1166
3194, 371, 149, 376, 1166
3195, 590, 1035, 589, 1248
3196, 866, 1052, 862, 1141
3197, 366, 1061, 1138, 1267
3198, 912, 1159, 1081, 1212
3199, 1081, 1159, 912, 1218
3200, 597, 1173, 633, 1206
3201, 496, 487, 646, 1233
3202, 716, 700, 108, 682
3203, 297, 789, 60, 154
3204, 711, 1099, 1183, 1251
3205, 754, 766, 770, 1033
3206, 272, 1142, 273, 1170
3207, 492, 491, 493, 1175
3208, 502, 1030, 488, 1188
3209, 745, 797, 818, 1171
3210, 346, 349, 198, 1255
3211, 631, 630, 543, 1186
3212, 497, 627, 633, 1173
3213, 843, 402, 434, 1074
3214, 282, 285, 301, 1085
3215, 897, 389, 879, 1074
3216, 940, 1108, 1064, 1241
3217, 1016, 1098, 942, 1132
3218, 166, 168, 254, 1124
3219, 847, 832, 1085, 1258
3220, 750, 789, 60, 297
3221, 904, 851, 834, 1107
3222, 274, 275, 355, 1170
3223, 320, 167, 247, 1232
3224, 670, 1033, 544, 1213
3225, 1002, 1035, 938, 1252
3226, 379, 215, 222, 1114
3227, 927, 968, 1126, 1165
3228, 154, 1102, 789, 1267
3229, 648, 872, 837, 1086
3230, 669, 1084, 1200, 1229
3231, 292, 293, 155, 1080
3232, 325, 254, 326, 1141
3233, 919, 1006, 1175, 1223
3234, 1033, 1213, 1037, 1227
3235, 648, 837, 456, 1086
3236, 935, 1180, 1014, 1230
3237, 217, 248, 1014, 1220
3238, 613, 651, 645, 1087
3239, 67, 745, 159, 359
3240, 657, 133, 460, 744
3241, 877, 1150, 1086, 1214
3242, 501, 606, 490, 1023
3243, 929, 1054, 1031, 1189
3244, 687, 615, 612, 1265
3245, 700, 743, 709, 1219
3246, 156, 311, 803, 1092
3247, 675, 560, 559, 1174
3248, 501, 1175, 492, 1223
3249, 555, 632, 467, 993
3250, 920, 1112, 1018, 1194
3251, 563, 667, 666, 1159
3252, 590, 1035, 1248, 1252
3253, 965, 1124, 927, 1225
3254, 213, 212, 1068, 1224
3255, 1014, 1029, 933, 1220
3256, 994, 1211, 907, 1235
3257, 432, 1069, 400, 1257
3258, 664, 674, 1146, 1231
3259, 131, 450, 563, 794
3260, 770, 1033, 766, 1213
3261, 131, 450, 794, 753
3262, 795, 1171, 802, 1229
3263, 902, 884, 1091, 1240
3264, 1026, 1225, 965, 1228
3265, 204, 228, 305, 1022
3266, 859, 1028, 893, 1250
3267, 457, 97, 565, 1157
3268, 919, 1175, 1023, 1223
3269, 897, 843, 434, 1074
3270, 855, 97, 857, 1157
3271, 698, 731, 266, 1040
3272, 617, 1083, 1123, 1252
3273, 846, 903, 863, 1075
3274, 1064, 1108, 940, 1226
3275, 368, 311, 374, 1092
3276, 638, 474, 509, 1253
3277, 864, 21, 842, 356
3278, 506, 644, 505, 1020
3279, 148, 809, 747, 1109
3280, 561, 479, 477, 1111
3281, 1024, 914, 1224, 1241
3282, 765, 789, 1102, 1267
3283, 993, 1211, 994, 1235
3284, 1045, 858, 1157, 1250
3285, 415, 620, 75, 1167
3286, 922, 1067, 999, 1215
3287, 37, 357, 164, 827
3288, 327, 278, 339, 994
3289, 21, 864, 347, 356
3290, 924, 976, 1157, 1217
3291, 917, 1013, 1208, 1246
3292, 429, 1029, 1143, 1257
3293, 1063, 1149, 950, 1268
3294, 908, 1104, 995, 1219
3295, 864, 991, 876, 1107
3296, 365, 366, 290, 1061
3297, 895, 840, 291, 1080
3298, 271, 1209, 1044, 1232
3299, 878, 36, 151, 1091
3300, 456, 648, 88, 837
3301, 255, 350, 348, 1149
3302, 872, 88, 648, 837
3303, 669, 625, 1084, 1229
3304, 12, 720, 697, 315
3305, 441, 406, 424, 982
3306, 676, 537, 532, 1027
3307, 618, 617, 1083, 1123
3308, 936, 1167, 980, 1259
3309, 51, 358, 302, 782
3310, 270, 1044, 271, 1209
3311, 161, 270, 357, 1074
3312, 51, 358, 782, 759
3313, 910, 1150, 1091, 1209
3314, 222, 378, 392, 1205
3315, 310, 317, 1103, 1154
3316, 322, 293, 336, 1028
3317, 792, 1171, 1084, 1229
3318, 700, 459, 108, 682
3319, 164, 270, 165, 1209
3320, 572, 504, 571, 1134
3321, 590, 588, 1035, 1252
3322, 829, 887, 854, 1062
3323, 149, 65, 796, 279
3324, 35, 151, 323, 878
3325, 544, 658, 674, 1146
3326, 1034, 245, 1169, 1245
3327, 250, 309, 1029, 1143
3328, 338, 337, 141, 1062
3329, 428, 410, 412, 1142
3330, 676, 537, 1027, 1260
3331, 743, 1077, 717, 1219
3332, 486, 487, 488, 1233
3333, 517, 468, 609, 1177
3334, 802, 1171, 792, 1229
3335, 831, 35, 323, 878
3336, 749, 65, 796, 149
3337, 923, 988, 1113, 1176
3338, 660, 668, 534, 1160
3339, 487, 485, 646, 1233
3340, 821, 1090, 745, 1171
3341, 615, 448, 681, 1135
3342, 328, 251, 217, 1220
3343, 399, 75, 458, 1167
3344, 306, 253, 252, 1195
3345, 686, 552, 459, 1104
3346, 848, 1076, 852, 1191
3347, 146, 721, 14, 698
3348, 313, 1115, 314, 1205
3349, 198, 299, 344, 1255
3350, 567, 1157, 566, 1217
3351, 771, 774, 773, 1146
3352, 595, 1101, 452, 1252
3353, 696, 10, 726, 162
3354, 434, 407, 161, 1074
3355, 909, 1075, 1001, 1258
3356, 972, 1124, 927, 1129
3357, 755, 791, 118, 625
3358, 510, 500, 508, 1021
3359, 1045, 924, 1157, 1217
3360, 986, 1134, 921, 1179
3361, 453, 755, 118, 625
3362, 835, 850, 875, 1235
3363, 664, 674, 443, 1146
3364, 930, 1238, 1035, 1248
3365, 539, 1120, 538, 1260
3366, 1007, 1201, 1118, 1246
3367, 1013, 1087, 914, 1201
3368, 453, 755, 625, 1229
3369, 847, 846, 832, 1258
3370, 985, 1110, 189, 1249
3371, 943, 1128, 996, 1166
3372, 307, 306, 224, 1195
3373, 290, 1061, 366, 1267
3374, 449, 620, 415, 1073
3375, 397, 420, 44, 1143
3376, 1099, 1183, 991, 1244
3377, 271, 247, 1209, 1232
3378, 318, 199, 300, 1140
3379, 661, 670, 544, 1213
3380, 694, 654, 681, 1193
3381, 266, 1040, 380, 1137
3382, 503, 575, 626, 1053
3383, 80, 394, 684, 409
3384, 933, 1073, 1069, 1257
3385, 244, 245, 1034, 1245
3386, 527, 643, 661, 1037
3387, 506, 519, 520, 1112
3388, 153, 265, 387, 1055
3389, 282, 280, 281, 998
3390, 622, 874, 94, 444
3391, 875, 883, 1058, 1235
3392, 245, 342, 354, 1169
3393, 373, 360, 256, 1088
3394, 457, 857, 97, 1157
3395, 610, 1064, 609, 1226
3396, 525, 1160, 977, 1210
3397, 250, 1143, 1029, 1220
3398, 548, 535, 536, 1259
3399, 354, 219, 317, 1154
3400, 655, 1214, 461, 1269
3401, 485, 487, 486, 1233
3402, 464, 552, 686, 1104
3403, 527, 1037, 661, 1227
3404, 764, 779, 781, 1127
3405, 342, 361, 368, 1169
3406, 767, 770, 766, 1213
3407, 462, 547, 656, 992
3408, 938, 1016, 1232, 1242
3409, 210, 1113, 196, 1203
3410, 1081, 1159, 820, 1212
3411, 394, 426, 441, 1083
3412, 492, 493, 497, 1175
3413, 249, 248, 258, 1197
3414, 453, 1048, 755, 1229
3415, 659, 676, 545, 1065
3416, 868, 902, 878, 1240
3417, 914, 1064, 1007, 1201
3418, 689, 695, 712, 1108
3419, 626, 616, 503, 1053
3420, 728, 700, 709, 1104
3421, 875, 883, 826, 1058
3422, 834, 22, 864, 150
3423, 598, 594, 597, 1032
3424, 533, 531, 532, 1184
3425, 755, 791, 625, 1229
3426, 620, 415, 1073, 1167
3427, 373, 1088, 256, 1245
3428, 1071, 1135, 934, 1193
3429, 743, 717, 741, 1219
3430, 877, 1086, 1150, 1240
3431, 573, 1045, 567, 1207
3432, 413, 685, 73, 403
3433, 329, 332, 203, 1096
3434, 396, 309, 43, 420
3435, 145, 397, 44, 1143
3436, 793, 810, 757, 1050
3437, 974, 1152, 973, 1155
3438, 133, 657, 798, 744
3439, 745, 67, 797, 359
3440, 380, 266, 253, 1040
3441, 877, 1086, 872, 1214
3442, 42, 308, 396, 417
3443, 790, 825, 755, 1048
3444, 143, 290, 58, 813
3445, 155, 322, 27, 895
3446, 141, 337, 25, 891
3447, 291, 155, 28, 895
3448, 92, 889, 455, 624
3449, 890, 91, 446, 624
3450, 455, 889, 93, 622
3451, 327, 23, 885, 150
3452, 620, 458, 75, 1167
3453, 1011, 1059, 912, 1237
3454, 506, 521, 644, 1161
3455, 392, 313, 314, 1205
3456, 699, 730, 738, 1055
3457, 962, 1142, 938, 1170
3458, 931, 1154, 1034, 1254
3459, 349, 180, 198, 1255
3460, 596, 449, 422, 1069
3461, 782, 156, 52, 752
3462, 324, 203, 185, 1089
3463, 265, 225, 253, 1095
3464, 183, 332, 181, 1156
3465, 263, 153, 383, 1183
3466, 581, 1165, 623, 1222
3467, 938, 1123, 1035, 1242
3468, 554, 562, 564, 1163
3469, 164, 36, 827, 1091
3470, 700, 709, 1104, 1219
3471, 911, 1160, 1041, 1200
3472, 1209, 1232, 1098, 1242
3473, 535, 628, 516, 1196
3474, 909, 984, 1122, 1148
3475, 668, 660, 453, 1048
3476, 701, 718, 716, 1071
3477, 361, 256, 1109, 1245
3478, 594, 1032, 598, 1216
3479, 334, 1117, 343, 1147
3480, 823, 752, 1092, 1212
3481, 568, 569, 567, 1106
3482, 947, 1203, 1113, 1230
3483, 603, 1006, 1173, 1238
3484, 199, 1140, 1039, 1261
3485, 572, 504, 1134, 1179
3486, 160, 1099, 264, 1183
3487, 861, 862, 838, 1052
3488, 570, 566, 647, 1217
3489, 697, 721, 13, 146
3490, 207, 1113, 210, 1230
3491, 325, 326, 147, 1052
3492, 827, 37, 357, 879
3493, 303, 156, 302, 1042
3494, 712, 1108, 713, 1265
3495, 184, 197, 1172, 1198
3496, 304, 303, 302, 1042
3497, 318, 213, 205, 1068
3498, 229, 363, 218, 1237
3499, 207, 1180, 1113, 1230
3500, 563, 460, 132, 1159
3501, 529, 528, 1054, 1189
3502, 53, 156, 311, 803
3503, 406, 424, 982, 1269
3504, 794, 563, 132, 1159
3505, 927, 1052, 1141, 1228
3506, 706, 799, 139, 703
3507, 405, 402, 70, 882
3508, 447, 124, 672, 793
3509, 829, 854, 891, 1062
3510, 828, 869, 886, 1126
3511, 934, 1087, 1018, 1193
3512, 603, 497, 633, 1173
3513, 614, 547, 462, 1226
3514, 107, 728, 686, 700
3515, 481, 482, 480, 1181
3516, 939, 1003, 1146, 1231
3517, 455, 1075, 601, 1222
3518, 217, 1014, 248, 1230
3519, 924, 1045, 1157, 1250
3520, 461, 655, 619, 1214
3521, 610, 1108, 451, 1265
3522, 152, 1047, 258, 1197
3523, 930, 1173, 1238, 1248
3524, 220, 246, 230, 1128
3525, 588, 617, 1123, 1252
3526, 319, 227, 212, 1145
3527, 1077, 1104, 908, 1219
3528, 663, 442, 121, 808
3529, 524, 1031, 1227, 1231
3530, 621, 486, 502, 1178
3531, 920, 1140, 1039, 1208
3532, 156, 803, 752, 1092
3533, 970, 1184, 1133, 1268
3534, 608, 567, 573, 1045
3535, 222, 1059, 378, 1205
3536, 839, 874, 94, 622
3537, 508, 1130, 513, 1196
3538, 752, 784, 782, 1042
3539, 973, 918, 1156, 1158
3540, 590, 591, 593, 1248
3541, 869, 871, 888, 1228
3542, 414, 439, 413, 980
3543, 142, 369, 364, 1036
3544, 1115, 1205, 995, 1219
3545, 911, 1200, 1084, 1229
3546, 1041, 1200, 536, 1259
3547, 902, 1091, 878, 1240
3548, 689, 113, 712, 695
3549, 312, 696, 11, 720
3550, 862, 886, 869, 1228
3551, 731, 715, 699, 1055
3552, 486, 488, 502, 1030
3553, 298, 188, 186, 1172
3554, 201, 1046, 1152, 1262
3555, 1013, 1208, 1194, 1253
3556, 1021, 1130, 508, 1196
3557, 309, 43, 308, 396
3558, 911, 1171, 979, 1182
3559, 441, 426, 408, 1236
3560, 799, 139, 703, 762
3561, 402, 843, 70, 882
3562, 201, 333, 316, 1046
3563, 908, 995, 1205, 1219
3564, 514, 513, 507, 1130
3565, 794, 820, 1081, 1159
3566, 685, 679, 73, 403
3567, 215, 209, 218, 1121
3568, 916, 993, 1097, 1211
3569, 812, 778, 776, 1065
3570, 236, 234, 235, 1072
3571, 547, 466, 1058, 1226
3572, 830, 893, 859, 1028
3573, 634, 639, 604, 1026
3574, 589, 1035, 588, 1238
3575, 178, 299, 198, 1255
3576, 932, 1184, 970, 1268
3577, 323, 34, 831, 1141
3578, 636, 473, 475, 1043
3579, 638, 519, 498, 1194
3580, 745, 821, 796, 1090
3581, 458, 620, 683, 1167
3582, 994, 1107, 907, 1145
3583, 604, 585, 587, 1093
3584, 201, 333, 1046, 1262
3585, 57, 360, 143, 813
3586, 213, 212, 205, 1068
3587, 157, 312, 11, 720
3588, 877, 873, 1150, 1214
3589, 715, 698, 739, 1040
3590, 907, 1177, 1058, 1235
3591, 617, 452, 1083, 1252
3592, 148, 372, 55, 809
3593, 600, 584, 582, 1223
3594, 541, 1049, 1120, 1202
3595, 1078, 1139, 355, 1239
3596, 196, 1113, 206, 1176
3597, 560, 675, 663, 1008
3598, 555, 469, 518, 1097
3599, 784, 783, 782, 1042
3600, 663, 120, 673, 808
3601, 355, 274, 1170, 1239
3602, 354, 244, 245, 1034
3603, 466, 1177, 1058, 1226
3604, 561, 564, 562, 1038
3605, 518, 555, 1097, 1256
3606, 136, 705, 844, 881
3607, 864, 865, 876, 991
3608, 214, 171, 169, 1132
3609, 878, 827, 36, 1091
3610, 208, 200, 209, 1261
3611, 547, 466, 465, 1058
3612, 199, 195, 192, 1039
3613, 516, 525, 534, 1160
3614, 345, 339, 319, 1145
3615, 763, 779, 764, 1036
3616, 867, 1141, 862, 1228
3617, 765, 824, 789, 1267
3618, 757, 672, 124, 793
3619, 646, 485, 631, 1186
3620, 237, 236, 235, 1151
3621, 266, 146, 14, 698
3622, 152, 385, 260, 1047
3623, 310, 353, 317, 1154
3624, 344, 234, 346, 1164
3625, 244, 243, 245, 1245
3626, 427, 158, 47, 384
3627, 466, 454, 465, 1058
3628, 638, 509, 649, 1194
3629, 595, 596, 688, 1101
3630, 643, 1161, 526, 1218
3631, 452, 80, 684, 409
3632, 520, 523, 653, 1199
3633, 386, 46, 431, 1142
3634, 889, 839, 93, 622
3635, 927, 1225, 1026, 1228
3636, 695, 689, 114, 724
3637, 633, 1173, 589, 1238
3638, 622, 601, 455, 1075
3639, 600, 492, 1175, 1223
3640, 848, 852, 849, 1191
3641, 274, 272, 1170, 1232
3642, 660, 1048, 1160, 1210
3643, 141, 336, 338, 1062
3644, 250, 309, 308, 1029
3645, 728, 709, 708, 1104
3646, 13, 697, 146, 315
3647, 907, 1107, 994, 1235
3648, 903, 892, 839, 1258
3649, 309, 44, 420, 1143
3650, 42, 308, 417, 152
3651, 354, 353, 244, 1154
3652, 784, 820, 801, 1212
3653, 1114, 1115, 908, 1205
3654, 971, 1179, 1082, 1263
3655, 712, 723, 713, 1108
3656, 1002, 1248, 1035, 1252
3657, 859, 894, 1080, 1250
3658, 209, 215, 208, 1121
3659, 268, 220, 207, 1180
3660, 1028, 1080, 924, 1250
3661, 1037, 1081, 912, 1218
3662, 665, 447, 672, 1050
3663, 370, 279, 371, 1090
3664, 1032, 1173, 930, 1248
3665, 643, 521, 526, 1161
3666, 332, 340, 181, 1158
3667, 862, 866, 838, 1052
3668, 1047, 1182, 1012, 1266
3669, 881, 136, 705, 725
3670, 325, 34, 323, 1141
3671, 145, 44, 309, 1143
3672, 866, 862, 867, 1141
3673, 866, 831, 34, 1141
3674, 938, 1101, 1083, 1236
3675, 567, 457, 566, 1157
3676, 328, 355, 251, 1078
3677, 921, 1179, 971, 1263
3678, 630, 531, 533, 1133
3679, 520, 519, 523, 1112
3680, 924, 1106, 986, 1217
3681, 942, 1098, 1016, 1242
3682, 630, 495, 554, 1163
3683, 560, 673, 660, 1210
3684, 422, 400, 432, 1069
3685, 689, 712, 451, 1108
3686, 992, 1226, 940, 1251
3687, 711, 1099, 704, 1183
3688, 794, 1081, 563, 1159
3689, 889, 92, 828, 624
3690, 813, 290, 58, 758
3691, 895, 28, 291, 840
3692, 830, 27, 322, 895
3693, 891, 337, 25, 829
3694, 91, 890, 828, 624
3695, 938, 1035, 1123, 1252
3696, 23, 834, 885, 150
3697, 642, 604, 587, 1093
3698, 677, 546, 662, 1202
3699, 546, 1202, 539, 1260
3700, 177, 176, 178, 1168
3701, 453, 625, 668, 1229
3702, 589, 1238, 1173, 1248
3703, 598, 1066, 549, 1216
3704, 588, 617, 592, 1123
3705, 304, 358, 162, 1125
3706, 993, 907, 1211, 1235
3707, 400, 1073, 416, 1257
3708, 186, 184, 197, 1172
3709, 367, 235, 369, 1151
3710, 764, 765, 750, 1102
3711, 603, 1173, 633, 1238
3712, 325, 866, 34, 1141
3713, 627, 633, 1173, 1206
3714, 409, 426, 394, 1083
3715, 1098, 1124, 965, 1225
3716, 338, 277, 276, 1119
3717, 1120, 1202, 913, 1260
3718, 610, 609, 614, 1226
3719, 1046, 915, 1152, 1262
3720, 795, 802, 792, 1229
3721, 589, 1173, 633, 1248
3722, 175, 173, 289, 1203
3723, 912, 1042, 1092, 1237
3724, 265, 153, 261, 1055
3725, 53, 156, 803, 752
3726, 518, 469, 471, 1097
3727, 510, 627, 500, 1206
3728, 550, 1200, 980, 1259
3729, 1042, 912, 1092, 1212
3730, 1013, 1246, 917, 1253
3731, 348, 182, 349, 1056
3732, 161, 357, 389, 1074
3733, 262, 319, 223, 1024
3734, 917, 1246, 1118, 1253
3735, 143, 360, 373, 1088
3736, 238, 255, 236, 1149
3737, 1002, 938, 1101, 1252
3738, 786, 749, 787, 1166
3739, 460, 744, 132, 1159
3740, 377, 159, 370, 1182
3741, 936, 1197, 1012, 1266
3742, 569, 573, 567, 1207
3743, 407, 427, 48, 384
3744, 792, 800, 760, 1084
3745, 1029, 1143, 933, 1220
3746, 329, 203, 331, 1096
3747, 181, 182, 183, 1156
3748, 440, 1073, 415, 1167
3749, 618, 592, 617, 1123
3750, 910, 1209, 1098, 1242
3751, 1033, 1227, 1037, 1264
3752, 376, 230, 246, 1128
3753, 387, 265, 266, 1040
3754, 217, 1220, 1014, 1230
3755, 800, 84, 404, 761
3756, 383, 710, 160, 1183
3757, 498, 505, 494, 1136
3758, 231, 257, 364, 1215
3759, 728, 708, 106, 686
3760, 794, 132, 744, 1159
3761, 669, 463, 679, 1084
3762, 152, 260, 258, 1047
3763, 520, 522, 521, 1199
3764, 231, 221, 230, 1215
3765, 700, 717, 743, 1077
3766, 710, 704, 160, 1183
3767, 698, 715, 731, 1040
3768, 1013, 1118, 1246, 1253
3769, 113, 712, 451, 689
3770, 367, 369, 297, 1102
3771, 746, 121, 442, 808
3772, 289, 210, 196, 1203
3773, 267, 246, 268, 1051
3774, 472, 473, 1118, 1253
3775, 274, 320, 272, 1232
3776, 801, 820, 744, 1159
3777, 216, 1180, 207, 1230
3778, 530, 529, 528, 1054
3779, 539, 540, 538, 1120
3780, 847, 860, 892, 1258
3781, 701, 716, 109, 682
3782, 216, 207, 210, 1230
3783, 1031, 931, 1190, 1227
3784, 982, 1214, 1150, 1269
3785, 651, 613, 681, 1193
3786, 929, 1189, 1031, 1254
3787, 76, 449, 415, 400
3788, 196, 207, 206, 1113
3789, 339, 227, 1145, 1204
3790, 940, 1226, 1108, 1251
3791, 46, 386, 158, 1142
3792, 912, 1212, 1081, 1247
3793, 790, 673, 120, 808
3794, 922, 996, 1128, 1215
3795, 199, 192, 200, 1261
3796, 617, 595, 452, 1252
3797, 912, 1092, 1212, 1247
3798, 939, 1088, 1025, 1245
3799, 308, 382, 250, 1029
3800, 57, 360, 813, 748
3801, 18, 160, 383, 710
3802, 355, 328, 269, 1139
3803, 920, 1019, 1136, 1194
3804, 993, 916, 1191, 1211
3805, 488, 489, 490, 1144
3806, 596, 593, 680, 1069
3807, 541, 557, 556, 1049
3808, 697, 720, 741, 1115
3809, 154, 367, 297, 1102
3810, 747, 148, 55, 809
3811, 574, 577, 641, 1105
3812, 877, 872, 873, 1214
3813, 874, 892, 860, 1001
3814, 541, 1120, 539, 1202
3815, 205, 211, 204, 1187
3816, 903, 839, 1075, 1258
3817, 578, 576, 502, 1188
3818, 606, 502, 488, 1188
3819, 580, 578, 606, 1188
3820, 551, 553, 459, 1077
3821, 205, 195, 318, 1187
3822, 191, 195, 204, 1187
3823, 564, 529, 554, 1189
3824, 539, 1202, 1120, 1260
3825, 1083, 938, 1123, 1252
3826, 511, 515, 564, 1189
3827, 936, 1047, 1197, 1266
3828, 908, 1205, 1115, 1219
3829, 187, 324, 185, 1089
3830, 1029, 933, 1143, 1257
3831, 931, 1037, 1227, 1264
3832, 842, 356, 388, 1099
3833, 411, 422, 432, 1069
3834, 993, 1191, 994, 1211
3835, 208, 224, 300, 1140
3836, 813, 777, 748, 1088
3837, 902, 877, 884, 1240
3838, 646, 631, 543, 1186
3839, 18, 160, 710, 704
3840, 916, 1204, 994, 1211
3841, 301, 285, 144, 1085
3842, 479, 562, 481, 1181
3843, 904, 1107, 876, 1235
3844, 361, 342, 245, 1169
3845, 711, 1183, 738, 1251
3846, 643, 1037, 1161, 1218
3847, 216, 249, 268, 1180
3848, 1090, 1171, 911, 1182
3849, 542, 526, 522, 1057
3850, 1086, 910, 1150, 1240
3851, 753, 1213, 1081, 1247
3852, 704, 1099, 160, 1183
3853, 910, 1093, 1123, 1242
3854, 499, 493, 491, 1131
3855, 321, 343, 334, 1117
3856, 689, 462, 114, 724
3857, 627, 597, 633, 1206
3858, 828, 890, 869, 1126
3859, 365, 290, 143, 1061
3860, 868, 888, 906, 1240
3861, 176, 299, 178, 1168
3862, 841, 873, 1214, 1269
3863, 223, 225, 261, 1224
3864, 401, 688, 78, 596
3865, 906, 1086, 877, 1240
3866, 335, 221, 232, 1067
3867, 734, 898, 135, 844
3868, 620, 599, 683, 1073
3869, 429, 1143, 421, 1257
3870, 332, 287, 340, 1158
3871, 314, 157, 315, 1115
3872, 911, 1012, 1182, 1266
3873, 899, 735, 881, 1099
3874, 330, 288, 226, 1129
3875, 463, 669, 625, 1084
3876, 452, 688, 79, 409
3877, 1091, 1150, 910, 1240
3878, 980, 936, 1259, 1266
3879, 46, 398, 431, 1142
3880, 802, 818, 792, 1171
3881, 227, 276, 211, 1204
3882, 334, 343, 294, 1147
3883, 422, 401, 78, 596
3884, 660, 1160, 525, 1210
3885, 339, 278, 227, 1204
3886, 391, 737, 726, 1125
3887, 409, 688, 79, 401
3888, 1063, 1138, 932, 1268
3889, 586, 584, 603, 1238
3890, 459, 107, 686, 700
3891, 760, 791, 792, 1084
3892, 504, 616, 571, 1134
3893, 603, 633, 589, 1238
3894, 524, 512, 527, 1227
3895, 641, 573, 574, 1207
3896, 950, 1138, 1063, 1268
3897, 994, 1191, 916, 1211
3898, 189, 1110, 305, 1249
3899, 381, 1143, 250, 1220
3900, 755, 1048, 825, 1229
3901, 621, 503, 484, 1178
3902, 931, 1034, 1169, 1264
3903, 579, 581, 623, 1222
3904, 577, 579, 601, 1222
3905, 773, 128, 754, 1146
3906, 274, 272, 273, 1170
3907, 419, 396, 429, 1029
3908, 710, 383, 17, 699
3909, 658, 754, 128, 1146
3910, 361, 245, 256, 1245
3911, 379, 222, 392, 1114
3912, 628, 549, 598, 1066
3913, 657, 678, 464, 1116
3914, 529, 515, 528, 1189
3915, 208, 1140, 199, 1261
3916, 306, 252, 300, 1195
3917, 920, 1039, 1140, 1261
3918, 768, 753, 1081, 1247
3919, 270, 271, 247, 1209
3920, 820, 768, 1081, 1212
3921, 899, 842, 388, 1099
3922, 994, 1145, 907, 1211
3923, 476, 498, 494, 1136
3924, 1098, 1232, 1016, 1242
3925, 443, 128, 773, 1146
3926, 355, 1139, 269, 1239
3927, 278, 338, 276, 1204
3928, 217, 250, 248, 1220
3929, 589, 1035, 1238, 1248
3930, 216, 217, 248, 1230
3931, 372, 361, 256, 1109
3932, 202, 321, 334, 1117
3933, 449, 620, 76, 415
3934, 759, 783, 799, 1125
3935, 415, 416, 400, 1073
3936, 699, 383, 17, 153
3937, 595, 688, 452, 1101
3938, 202, 321, 1117, 1249
3939, 402, 406, 407, 1074
3940, 645, 611, 613, 1087
3941, 1194, 1208, 1019, 1253
3942, 282, 283, 284, 1122
3943, 707, 726, 706, 1125
3944, 157, 314, 313, 1115
3945, 450, 1081, 753, 1213
3946, 189, 191, 305, 1110
3947, 719, 615, 111, 702
3948, 702, 615, 111, 687
3949, 765, 789, 750, 1102
3950, 1059, 1114, 908, 1205
3951, 341, 1122, 283, 1262
3952, 275, 251, 355, 1078
3953, 401, 411, 410, 1101
3954, 471, 472, 473, 1118
3955, 429, 420, 421, 1143
3956, 416, 415, 440, 1073
3957, 388, 704, 735, 1099
3958, 208, 199, 200, 1261
3959, 1016, 1170, 938, 1232
3960, 180, 1155, 198, 1255
3961, 253, 266, 265, 1040
3962, 239, 366, 365, 1138
3963, 178, 198, 180, 1155
3964, 398, 158, 47, 427
3965, 178, 198, 1155, 1255
3966, 525, 660, 534, 1160
3967, 931, 1227, 1031, 1264
3968, 759, 816, 358, 1125
3969, 536, 1200, 550, 1259
3970, 714, 722, 732, 1135
3971, 826, 883, 896, 1058
3972, 289, 269, 328, 1139
3973, 585, 583, 584, 1094
3974, 1026, 1126, 927, 1228
3975, 757, 781, 807, 1127
3976, 443, 658, 128, 1146
3977, 477, 494, 561, 1111
3978, 906, 837, 877, 1086
3979, 264, 160, 356, 1099
3980, 1012, 1197, 1047, 1266
3981, 703, 708, 707, 1116
3982, 46, 158, 398, 1142
3983, 872, 1086, 648, 1214
3984, 527, 661, 544, 1227
3985, 379, 392, 314, 1114
3986, 654, 523, 651, 1193
3987, 600, 501, 492, 1223
3988, 776, 778, 751, 1065
3989, 699, 715, 730, 1055
3990, 445, 640, 605, 1076
3991, 959, 1169, 1109, 1264
3992, 692, 464, 736, 1116
3993, 505, 644, 512, 1190
3994, 16, 699, 387, 731
3995, 921, 985, 1234, 1249
3996, 539, 541, 540, 1120
3997, 77, 422, 449, 400
3998, 341, 284, 283, 1122
3999, 581, 602, 623, 1165
4000, 719, 702, 714, 1135
4001, 897, 879, 843, 1074
4002, 772, 805, 747, 1109
4003, 1083, 1101, 938, 1252
4004, 254, 168, 288, 1124
4005, 516, 508, 513, 1196
4006, 736, 703, 762, 1116
4007, 792, 1084, 791, 1229
4008, 777, 811, 748, 1088
4009, 569, 568, 626, 1106
4010, 841, 882, 873, 1269
4011, 64, 785, 362, 1166
4012, 162, 391, 726, 1125
4013, 384, 48, 407, 161
4014, 434, 402, 407, 1074
4015, 430, 419, 440, 1167
4016, 455, 601, 623, 1222
4017, 794, 820, 768, 1081
4018, 448, 701, 109, 682
4019, 470, 472, 471, 1118
4020, 683, 548, 458, 1259
4021, 749, 64, 149, 1166
4022, 686, 708, 106, 464
4023, 821, 787, 796, 1090
4024, 358, 816, 391, 1125
4025, 146, 266, 380, 1137
4026, 753, 767, 1213, 1247
4027, 718, 701, 732, 1071
4028, 292, 155, 291, 1080
4029, 964, 1138, 1061, 1267
4030, 196, 210, 207, 1113
4031, 213, 223, 212, 1224
4032, 800, 84, 425, 404
4033, 705, 711, 733, 1251
4034, 512, 511, 505, 1190
4035, 352, 242, 244, 1162
4036, 64, 749, 785, 1166
4037, 795, 755, 825, 1229
4038, 821, 745, 802, 1171
4039, 694, 681, 448, 1071
4040, 609, 1177, 466, 1226
4041, 914, 1013, 1201, 1246
4042, 262, 261, 263, 1244
4043, 401, 410, 409, 1101
4044, 16, 699, 153, 387
4045, 362, 149, 64, 1166
4046, 537, 539, 538, 1260
4047, 802, 745, 818, 1171
4048, 366, 239, 237, 1138
4049, 45, 431, 145, 386
4050, 657, 692, 798, 1116
4051, 908, 1205, 995, 1243
4052, 222, 363, 378, 1059
4053, 915, 1188, 1015, 1221
4054, 160, 704, 388, 1099
4055, 467, 466, 468, 1177
4056, 274, 273, 275, 1170
4057, 737, 816, 706, 1125
4058, 847, 832, 870, 1085
4059, 590, 617, 588, 1252
4060, 450, 667, 563, 1081
4061, 618, 617, 452, 1083
4062, 823, 1212, 1092, 1247
4063, 725, 704, 711, 1099
4064, 508, 507, 513, 1130
4065, 676, 665, 537, 1260
4066, 902, 884, 827, 1091
4067, 836, 852, 848, 1076
4068, 599, 598, 549, 1216
4069, 574, 576, 577, 1105
4070, 727, 741, 720, 1115
4071, 881, 735, 725, 1099
4072, 451, 610, 614, 1108
4073, 639, 446, 602, 1126
4074, 915, 1023, 1188, 1221
4075, 741, 1115, 727, 1219
4076, 174, 316, 172, 1185
4077, 858, 856, 1157, 1250
4078, 553, 682, 459, 1077
4079, 446, 624, 602, 1126
4080, 758, 777, 813, 1061
4081, 920, 1019, 1194, 1208
4082, 431, 397, 45, 145
4083, 691, 461, 437, 1269
4084, 762, 815, 736, 1116
4085, 649, 519, 638, 1194
4086, 858, 856, 857, 1157
4087, 736, 464, 708, 1116
4088, 372, 148, 361, 1109
4089, 931, 1031, 1190, 1254
4090, 77, 422, 596, 449
4091, 716, 717, 700, 1077
4092, 341, 283, 333, 1262
4093, 250, 381, 309, 1143
4094, 406, 405, 424, 1269
4095, 680, 449, 596, 1069
4096, 421, 420, 397, 1143
4097, 691, 841, 655, 1269
4098, 572, 636, 504, 1179
4099, 557, 559, 514, 1174
4100, 566, 568, 567, 1217
4101, 566, 457, 565, 1157
4102, 914, 1201, 1007, 1246
4103, 921, 1234, 1117, 1249
4104, 816, 799, 706, 1125
4105, 1064, 1177, 609, 1226
4106, 483, 484, 482, 1100
4107, 612, 610, 451, 1265
4108, 1013, 917, 1208, 1253
4109, 273, 272, 158, 1142
4110, 865, 842, 881, 1099
4111, 169, 171, 170, 1132
4112, 532, 530, 545, 1184
4113, 190, 189, 188, 1153
4114, 541, 539, 546, 1202
4115, 296, 285, 286, 1148
4116, 522, 653, 551, 1199
4117, 225, 252, 253, 1095
4118, 290, 758, 1061, 1267
4119, 276, 277, 228, 1119
4120, 930, 1139, 1078, 1239
4121, 164, 165, 151, 1091
4122, 618, 452, 684, 1083
4123, 517, 609, 610, 1064
4124, 306, 300, 224, 1195
4125, 620, 449, 599, 1073
4126, 456, 642, 648, 1086
4127, 110, 701, 448, 719
4128, 1019, 1208, 917, 1253
4129, 460, 666, 678, 1159
4130, 196, 206, 194, 1176
4131, 859, 894, 840, 1080
4132, 809, 772, 747, 1109
4133, 546, 539, 665, 1260
4134, 850, 904, 876, 1235
4135, 834, 864, 876, 1107
4136, 156, 374, 311, 1092
4137, 589, 588, 586, 1238
4138, 815, 798, 692, 1116
4139, 859, 858, 894, 1250
4140, 230, 257, 231, 1215
4141, 723, 1108, 695, 1251
4142, 877, 873, 884, 1150
4143, 264, 263, 1183, 1244
4144, 900, 841, 691, 1269
4145, 437, 461, 424, 1269
4146, 932, 1027, 1184, 1268
4147, 768, 767, 753, 1247
4148, 753, 794, 768, 1081
4149, 9, 391, 737, 726
4150, 899, 388, 735, 1099
4151, 521, 643, 644, 1161
4152, 160, 264, 263, 1183
4153, 844, 135, 734, 705
4154, 495, 562, 554, 1163
4155, 266, 15, 387, 731
4156, 382, 152, 258, 1197
4157, 326, 288, 330, 1129
4158, 758, 812, 777, 1061
4159, 895, 859, 840, 1080
4160, 583, 602, 581, 1165
4161, 877, 837, 872, 1086
4162, 692, 736, 815, 1116
4163, 794, 744, 820, 1159
4164, 104, 880, 898, 690
4165, 731, 266, 15, 698
4166, 615, 110, 448, 719
4167, 911, 1200, 1041, 1266
4168, 87, 872, 648, 1214
4169, 399, 439, 430, 1167
4170, 243, 373, 256, 1245
4171, 908, 1059, 1205, 1243
4172, 841, 1214, 655, 1269
4173, 294, 343, 293, 1147
4174, 450, 753, 130, 1213
4175, 857, 856, 855, 1157
4176, 428, 398, 408, 1236
4177, 691, 86, 655, 841
4178, 432, 400, 416, 1257
4179, 325, 323, 254, 1141
4180, 843, 879, 901, 1074
4181, 289, 196, 175, 1203
4182, 20, 842, 356, 388
4183, 823, 1092, 769, 1247
4184, 380, 307, 146, 1137
4185, 559, 560, 525, 1210
4186, 517, 635, 470, 1201
4187, 548, 536, 550, 1259
4188, 50, 358, 759, 816
4189, 757, 822, 781, 1127
4190, 437, 691, 82, 461
4191, 284, 286, 285, 1148
4192, 723, 695, 733, 1251
4193, 863, 839, 889, 1075
4194, 458, 548, 550, 1259
4195, 582, 501, 600, 1223
4196, 952, 1145, 1204, 1211
4197, 839, 863, 903, 1075
4198, 690, 104, 880, 656
4199, 197, 298, 186, 1172
4200, 210, 328, 217, 1230
4201, 547, 609, 466, 1226
4202, 9, 391, 726, 162
4203, 49, 161, 389, 434
4204, 130, 766, 670, 1213
4205, 247, 167, 165, 1209
4206, 428, 1142, 398, 1236
4207, 87, 655, 841, 1214
4208, 875, 850, 883, 1235
4209, 500, 493, 499, 1131
4210, 130, 753, 766, 1213
4211, 87, 841, 872, 1214
4212, 451, 1108, 712, 1265
4213, 193, 190, 188, 1153
4214, 760, 817, 116, 463
4215, 472, 474, 473, 1253
4216, 426, 410, 428, 1236
4217, 86, 691, 900, 841
4218, 655, 87, 648, 1214
4219, 842, 20, 899, 388
4220, 627, 510, 597, 1206
4221, 710, 711, 704, 1183
4222, 358, 50, 391, 816
4223, 540, 652, 607, 1192
4224, 834, 876, 904, 1107
4225, 137, 881, 899, 735
4226, 533, 543, 630, 1133
4227, 1041, 1259, 936, 1266
4228, 130, 670, 450, 1213
4229, 480, 479, 481, 1181
4230, 589, 633, 591, 1248
4231, 290, 154, 59, 1267
4232, 569, 574, 573, 1207
4233, 758, 812, 1061, 1267
4234, 238, 350, 255, 1149
4235, 424, 437, 82, 461
4236, 711, 710, 738, 1183
4237, 201, 341, 333, 1262
4238, 184, 348, 197, 1198
4239, 264, 345, 262, 1244
4240, 850, 876, 883, 1235
4241, 145, 309, 381, 1143
4242, 742, 709, 727, 1219
4243, 666, 667, 526, 1218
4244, 693, 116, 817, 463
4245, 197, 348, 350, 1198
4246, 768, 1081, 1212, 1247
4247, 736, 692, 105, 464
4248, 695, 723, 712, 1108
4249, 316, 174, 177, 1185
4250, 994, 1204, 1145, 1211
4251, 39, 423, 435, 390
4252, 436, 403, 72, 693
4253, 607, 652, 496, 1192
4254, 202, 305, 321, 1249
4255, 566, 570, 568, 1217
4256, 737, 816, 140, 706
4257, 878, 902, 827, 1091
4258, 628, 508, 516, 1196
4259, 866, 867, 831, 1141
4260, 451, 614, 689, 1108
4261, 849, 887, 851, 1191
4262, 899, 881, 842, 1099
4263, 161, 49, 407, 434
4264, 769, 823, 752, 1092
4265, 472, 509, 474, 1253
4266, 367, 237, 235, 1151
4267, 636, 572, 637, 1179
4268, 440, 415, 399, 1167
4269, 789, 59, 154, 1267
4270, 609, 468, 466, 1177
4271, 339, 227, 319, 1145
4272, 737, 391, 816, 1125
4273, 271, 272, 247, 1232
4274, 706, 816, 140, 799
4275, 403, 679, 72, 693
4276, 1200, 1259, 1041, 1266
4277, 528, 674, 664, 1231
4278, 194, 206, 335, 1176
4279, 300, 199, 208, 1140
4280, 260, 377, 259, 1182
4281, 527, 544, 524, 1227
4282, 724, 734, 690, 115
4283, 708, 736, 105, 464
4284, 352, 351, 242, 1162
4285, 388, 19, 735, 704
4286, 179, 178, 180, 1155
4287, 154, 290, 366, 1267
4288, 532, 531, 530, 1184
4289, 823, 768, 1212, 1247
4290, 669, 536, 668, 1200
4291, 669, 550, 536, 1200
4292, 179, 340, 201, 1152
4293, 773, 754, 771, 1146
4294, 517, 611, 635, 1201
4295, 541, 546, 677, 1202
4296, 758, 290, 59, 1267
4297, 595, 617, 590, 1252
4298, 674, 658, 443, 1146
4299, 741, 727, 743, 1219
4300, 214, 355, 269, 1239
4301, 202, 189, 305, 1249
4302, 723, 711, 738, 1251
4303, 822, 764, 781, 1127
4304, 621, 484, 486, 1178
4305, 376, 149, 362, 1166
4306, 355, 214, 274, 1239
4307, 605, 518, 650, 1256
4308, 762, 819, 798, 1116
4309, 881, 137, 725, 735
4310, 71, 405, 882, 1269
4311, 412, 398, 428, 1142
4312, 691, 655, 461, 1269
4313, 354, 317, 353, 1154
4314, 19, 388, 160, 704
4315, 803, 769, 752, 1092
4316, 423, 39, 163, 390
4317, 657, 464, 692, 1116
4318, 980, 1259, 1200, 1266
4319, 590, 589, 591, 1248
4320, 528, 524, 674, 1231
4321, 681, 654, 651, 1193
4322, 762, 138, 703, 736
4323, 69, 434, 843, 402
4324, 462, 724, 690, 115
4325, 667, 643, 526, 1218
4326, 563, 666, 460, 1159
4327, 675, 559, 557, 1174
4328, 405, 71, 437, 1269
4329, 785, 749, 786, 1166
4330, 386, 273, 158, 1142
4331, 160, 388, 356, 1099
4332, 378, 393, 313, 1205
4333, 374, 303, 363, 1237
4334, 703, 736, 708, 1116
4335, 431, 398, 412, 1142
4336, 518, 605, 555, 1256
4337, 815, 762, 798, 1116
4338, 660, 525, 560, 1210
4339, 213, 225, 223, 1224
4340, 207, 216, 268, 1180
4341, 71, 882, 900, 1269
4342, 259, 377, 370, 1182
4343, 436, 817, 85, 425
4344, 391, 162, 358, 1125
4345, 263, 383, 160, 1183
4346, 749, 64, 65, 149
4347, 32, 31, 845, 280
4348, 99, 100, 640, 848
4349, 98, 99, 445, 836
4350, 323, 34, 35, 831
4351, 33, 32, 838, 147
4352, 847, 903, 846, 1258
4353, 31, 30, 832, 301
4354, 451, 712, 112, 1265
4355, 732, 719, 714, 1135
4356, 766, 753, 767, 1213
4357, 390, 797, 68, 359
4358, 657, 692, 134, 798
4359, 805, 767, 769, 1247
4360, 103, 102, 826, 465
4361, 97, 98, 565, 855
4362, 866, 34, 33, 325
4363, 457, 96, 97, 857
4364, 425, 817, 85, 800
4365, 736, 762, 138, 815
4366, 69, 434, 897, 843
4367, 435, 761, 83, 814
4368, 702, 687, 112, 1265
4369, 378, 313, 392, 1205
4370, 248, 382, 258, 1197
4371, 389, 357, 38, 879
4372, 60, 61, 750, 297
4373, 71, 900, 437, 1269
4374, 205, 204, 195, 1187
4375, 606, 578, 502, 1188
4376, 661, 450, 670, 1213
4377, 648, 87, 88, 872
4378, 83, 404, 761, 435
4379, 515, 529, 564, 1189
4380, 655, 648, 619, 1214
4381, 608, 95, 96, 833
4382, 653, 522, 520, 1199
4383, 399, 75, 74, 458
4384, 795, 792, 791, 1229
4385, 705, 844, 135, 136
4386, 101, 100, 835, 632
4387, 712, 702, 112, 1265
4388, 270, 247, 165, 1209
4389, 726, 10, 9, 162
4390, 450, 131, 130, 753
4391, 61, 62, 763, 142
4392, 789, 758, 59, 1267
4393, 869, 867, 862, 1228
4394, 852, 887, 849, 1191
4395, 735, 704, 725, 1099
4396, 680, 594, 599, 1216
4397, 62, 63, 756, 375
4398, 737, 706, 726, 1125
4399, 670, 766, 130, 129
4400, 755, 795, 791, 1229
4401, 451, 112, 687, 1265
4402, 381, 250, 251, 1220
4403, 791, 117, 118, 625
4404, 227, 278, 276, 1204
4405, 63, 64, 785, 362
4406, 229, 374, 363, 1237
4407, 272, 320, 247, 1232
4408, 128, 754, 658, 129
4409, 102, 101, 875, 454
4410, 127, 671, 775, 126
4411, 901, 884, 873, 1150
4412, 655, 86, 87, 841
4413, 30, 29, 870, 144
4414, 463, 116, 760, 117
4415, 428, 408, 426, 1236
4416, 789, 59, 60, 154
4417, 459, 108, 107, 700
4418, 759, 799, 816, 1125
4419, 842, 21, 20, 356
4420, 38, 389, 879, 897
4421, 68, 814, 797, 390
4422, 815, 134, 692, 798
4423, 773, 443, 127, 128
4424, 601, 579, 623, 1222
4425, 66, 67, 745, 159
4426, 133, 132, 460, 744
4427, 36, 37, 164, 827
4428, 634, 89, 90, 871
4429, 452, 79, 80, 409
4430, 834, 23, 22, 150
4431, 140, 706, 799, 139
4432, 405, 70, 71, 882
4433, 358, 51, 50, 759
4434, 751, 126, 659, 125
4435, 251, 250, 217, 1220
4436, 256, 245, 243, 1245
4437, 82, 81, 424, 461
4438, 603, 589, 586, 1238
4439, 697, 13, 12, 315
4440, 456, 88, 89, 837
4441, 397, 44, 45, 145
4442, 322, 26, 27, 830
4443, 24, 25, 337, 829
4444, 828, 92, 91, 624
4445, 839, 94, 93, 622
4446, 28, 29, 291, 840
4447, 59, 58, 290, 758
4448, 823, 820, 784, 1212
4449, 156, 53, 52, 752
4450, 266, 14, 15, 698
4451, 437, 900, 691, 1269
4452, 599, 594, 598, 1216
4453, 131, 563, 132, 794
4454, 696, 11, 10, 312
4455, 712, 112, 113, 451
4456, 105, 106, 708, 464
4457, 417, 41, 42, 152
4458, 210, 217, 216, 1230
4459, 65, 66, 796, 279
4460, 35, 36, 151, 878
4461, 72, 73, 679, 403
4462, 758, 824, 812, 1267
4463, 48, 49, 407, 161
4464, 703, 139, 138, 762
4465, 843, 70, 69, 402
4466, 18, 19, 160, 704
4467, 157, 11, 12, 720
4468, 823, 769, 768, 1247
4469, 104, 103, 880, 656
4470, 547, 614, 609, 1226
4471, 302, 52, 51, 782
4472, 790, 673, 119, 120
4473, 709, 743, 727, 1219
4474, 869, 888, 867, 1228
4475, 453, 118, 755, 119
4476, 148, 55, 54, 747
4477, 442, 122, 121, 746
4478, 841, 873, 872, 1214
4479, 360, 57, 56, 748
4480, 864, 22, 21, 347
4481, 264, 262, 263, 1244
4482, 859, 893, 856, 1250
4483, 124, 123, 672, 757
4484, 874, 95, 94, 444
4485, 820, 823, 768, 1212
4486, 735, 899, 2, 388
4487, 1, 391, 816, 737
4488, 5, 691, 437, 900
4489, 434, 389, 3, 897
4490, 736, 8, 692, 815
4491, 6, 817, 436, 693
4492, 422, 78, 77, 596
4493, 539, 537, 665, 1260
4494, 4, 435, 814, 390
4495, 615, 111, 110, 719
4496, 699, 17, 16, 153
4497, 858, 859, 856, 1250
4498, 158, 47, 46, 398
4499, 40, 39, 163, 423
4500, 724, 462, 114, 115
4501, 7, 898, 734, 690
4502, 902, 906, 877, 1240
4503, 429, 421, 416, 1257
4504, 430, 440, 399, 1167
4505, 712, 713, 702, 1265
4506, 868, 906, 902, 1240
4507, 84, 83, 404, 761
4508, 620, 75, 76, 415
4509, 43, 42, 308, 396
4510, 687, 612, 451, 1265
4511, 125, 124, 447, 793
4512, 733, 711, 723, 1251
4513, 136, 881, 137, 725
4514, 133, 657, 134, 798
4515, 67, 68, 797, 359
4516, 37, 38, 357, 879
4517, 416, 421, 432, 1257
4518, 769, 767, 768, 1247
4519, 702, 111, 112, 687
4520, 425, 85, 84, 800
4521, 437, 424, 405, 1269
4522, 688, 78, 79, 401
4523, 900, 882, 841, 1269
4524, 892, 903, 847, 1258
4525, 309, 44, 43, 420
4526, 134, 692, 8, 815
4527, 814, 68, 4, 390
4528, 391, 50, 1, 816
4529, 20, 2, 899, 388
4530, 2, 137, 899, 735
4531, 389, 38, 3, 897
4532, 691, 5, 86, 900
4533, 3, 69, 434, 897
4534, 138, 8, 736, 815
4535, 817, 6, 116, 693
4536, 91, 90, 890, 446
4537, 58, 57, 143, 813
4538, 27, 28, 155, 895
4539, 141, 25, 26, 891
4540, 889, 93, 92, 455
4541, 24, 23, 885, 327
4542, 385, 41, 40, 395
4543, 73, 74, 685, 413
4544, 789, 824, 758, 1267
4545, 689, 114, 113, 695
4546, 17, 18, 383, 710
4547, 81, 80, 394, 684
4548, 436, 72, 6, 693
4549, 311, 54, 53, 803
4550, 721, 14, 13, 146
4551, 817, 85, 6, 436
4552, 71, 5, 437, 900
4553, 737, 816, 1, 140
4554, 898, 7, 104, 690
4555, 716, 108, 109, 682
4556, 449, 76, 77, 400
4557, 735, 2, 19, 388
4558, 372, 56, 55, 809
4559, 662, 123, 122, 807
4560, 663, 121, 120, 808
4561, 691, 82, 5, 437
4562, 435, 4, 39, 390
4563, 692, 105, 8, 736
4564, 3, 49, 389, 434
4565, 391, 1, 9, 737
4566, 690, 734, 7, 115
4567, 701, 109, 110, 448
4568, 83, 4, 435, 814
4569, 734, 898, 7, 135
4570, 106, 107, 728, 686
4571, 427, 47, 48, 384
4572, 387, 15, 16, 731
4573, 431, 45, 46, 386
4574, 1061, 241, 1088, 365
4575, 1061, 1088, 241, 1025
4576, 1260, 950, 983, 1027
4577, 1260, 983, 950, 1120
4578, 1125, 302, 304, 358
4579, 1125, 304, 302, 1042
4580, 978, 1192, 925, 937
4581, 925, 1192, 978, 1079
4582, 1073, 1259, 1066, 683
4583, 1066, 1259, 1073, 936
4584, 1060, 491, 1131, 629
4585, 1060, 1131, 491, 958
4586, 1125, 1243, 304, 1042
4587, 304, 1243, 1125, 995
4588, 1251, 1055, 1183, 738
4589, 1251, 1183, 1055, 940
4590, 1077, 729, 1115, 956
4591, 1077, 1115, 729, 717
4592, 496, 1192, 1233, 1079
4593, 496, 1233, 1192, 1060
4594, 925, 1233, 1192, 1079
4595, 925, 1192, 1233, 1060
4596, 1207, 924, 953, 1045
4597, 1207, 953, 924, 945
4598, 1151, 233, 1072, 235
4599, 1151, 1072, 233, 999
4600, 1109, 771, 811, 772
4601, 1109, 811, 771, 939
4602, 811, 1146, 774, 771
4603, 774, 1146, 811, 1003
4604, 1167, 418, 419, 1047
4605, 1167, 419, 418, 430
4606, 575, 1178, 503, 621
4607, 503, 1178, 575, 1053
4608, 985, 1249, 324, 1089
4609, 324, 187, 985, 1089
4610, 1214, 910, 1123, 982
4611, 1214, 1123, 910, 1086
4612, 1109, 811, 748, 772
4613, 1109, 748, 811, 1088
4614, 1028, 853, 1250, 976
4615, 1028, 1250, 853, 893
4616, 163, 395, 40, 423
4617, 40, 395, 163, 385
4618, 1257, 438, 1143, 421
4619, 1257, 1143, 438, 962
4620, 1227, 1161, 931, 1190
4621, 1227, 931, 1161, 1037
4622, 880, 465, 992, 656
4623, 992, 465, 880, 826
4624, 1187, 955, 1208, 1039
4625, 1187, 1208, 955, 1068
4626, 947, 930, 1078, 1032
4627, 1078, 930, 947, 1139
4628, 1249, 187, 324, 202
4629, 1249, 324, 187, 985
4630, 1203, 194, 1009, 1176
4631, 1203, 1009, 194, 175
4632, 1178, 973, 1017, 918
4633, 1178, 1017, 973, 1030
4634, 1268, 983, 928, 950
4635, 1268, 928, 983, 1133
4636, 1269, 402, 406, 405
4637, 1269, 406, 402, 1074
4638, 830, 1062, 141, 891
4639, 141, 1062, 830, 1028
4640, 1142, 271, 1236, 1044
4641, 1142, 1236, 271, 158
4642, 384, 1236, 271, 1044
4643, 384, 271, 1236, 158
4644, 1172, 185, 184, 969
4645, 1172, 184, 185, 186
4646, 1127, 765, 764, 1102
4647, 1127, 764, 765, 822
4648, 1163, 1186, 928, 1133
4649, 928, 1186, 1163, 1000
4650, 1228, 968, 927, 1052
4651, 1228, 927, 968, 1126
4652, 1070, 286, 296, 295
4653, 1070, 296, 286, 1148
4654, 1254, 1038, 997, 929
4655, 1254, 997, 1038, 951
4656, 825, 1229, 821, 795
4657, 821, 1229, 825, 1048
4658, 461, 394, 81, 424
4659, 461, 81, 394, 684
4660, 1219, 696, 742, 995
4661, 1219, 742, 696, 727
4662, 141, 830, 26, 322
4663, 26, 830, 141, 891
4664, 889, 624, 968, 455
4665, 968, 624, 889, 828
4666, 327, 829, 24, 337
4667, 24, 829, 327, 885
4668, 1229, 1090, 911, 1048
4669, 1229, 911, 1090, 1171
4670, 1136, 506, 505, 1020
4671, 1136, 505, 506, 498
4672, 258, 1182, 260, 259
4673, 260, 1182, 258, 1047
4674, 1158, 1262, 915, 984
4675, 915, 1262, 1158, 1152
4676, 746, 662, 122, 807
4677, 746, 122, 662, 442
4678, 808, 442, 1008, 663
4679, 808, 1008, 442, 746
4680, 311, 747, 54, 803
4681, 54, 747, 311, 148
4682, 875, 632, 993, 454
4683, 993, 632, 875, 835
4684, 413, 458, 74, 685
4685, 413, 74, 458, 399
4686, 1107, 851, 1235, 904
4687, 1107, 1235, 851, 994
4688, 1084, 550, 1200, 980
4689, 1084, 1200, 550, 669
4690, 748, 372, 56, 360
4691, 748, 56, 372, 809
4692, 793, 659, 1065, 447
4693, 793, 1065, 659, 751
4694, 1144, 629, 496, 489
4695, 1144, 496, 629, 1060
4696, 808, 673, 1008, 790
4697, 808, 1008, 673, 663
4698, 849, 1235, 851, 850
4699, 851, 1235, 849, 1191
4700, 1246, 955, 1208, 1068
4701, 1246, 1208, 955, 1013
4702, 446, 871, 90, 890
4703, 90, 871, 446, 634
4704, 1096, 295, 286, 1070
4705, 1096, 286, 295, 329
4706, 1235, 991, 876, 1058
4707, 1235, 876, 991, 1107
4708, 1200, 534, 1041, 536
4709, 1200, 1041, 534, 1160
4710, 1235, 849, 835, 850
4711, 1235, 835, 849, 993
4712, 1251, 724, 705, 992
4713, 1251, 705, 724, 733
4714, 1265, 615, 702, 687
4715, 1265, 702, 615, 1135
4716, 1216, 1073, 683, 599
4717, 683, 1073, 1216, 1066
4718, 683, 549, 1216, 599
4719, 1216, 549, 683, 1066
4720, 1241, 1265, 1055, 1108
4721, 1055, 1265, 1241, 967
4722, 1224, 252, 1068, 213
4723, 1224, 1068, 252, 1095
4724, 1241, 1087, 1095, 967
4725, 1241, 1095, 1087, 914
4726, 1193, 694, 1004, 1071
4727, 1193, 1004, 694, 654
4728, 1176, 221, 988, 206
4729, 1176, 988, 221, 1067
4730, 1195, 380, 307, 306
4731, 1195, 307, 380, 1137
4732, 152, 395, 41, 385
4733, 41, 395, 152, 417
4734, 233, 1215, 232, 231
4735, 232, 1215, 233, 999
4736, 610, 1201, 967, 611
4737, 967, 1201, 610, 1064
4738, 1248, 593, 594, 591
4739, 1248, 594, 593, 1002
4740, 1213, 667, 1037, 661
4741, 1213, 1037, 667, 1081
4742, 1185, 176, 1009, 174
4743, 1185, 1009, 176, 1168
4744, 175, 1009, 176, 174
4745, 689, 724, 1251, 462
4746, 1251, 724, 689, 695
4747, 1205, 222, 1114, 392
4748, 1205, 1114, 222, 1059
4749, 1237, 1243, 303, 1059
4750, 303, 1243, 1237, 1042
4751, 1209, 164, 1074, 1091
4752, 1209, 1074, 164, 270
4753, 700, 682, 1077, 459
4754, 1077, 682, 700, 716
4755, 885, 150, 1107, 327
4756, 1107, 150, 885, 834
4757, 1233, 489, 488, 1144
4758, 1233, 488, 489, 487
4759, 889, 622, 1075, 839
4760, 1075, 622, 889, 455
4761, 757, 662, 123, 672
4762, 757, 123, 662, 807
4763, 685, 403, 980, 679
4764, 980, 403, 685, 413
4765, 1261, 310, 317, 1103
4766, 1261, 317, 310, 200
4767, 344, 1255, 346, 198
4768, 346, 1255, 344, 1164
4769, 1262, 340, 201, 341
4770, 1262, 201, 340, 1152
4771, 1009, 176, 194, 175
4772, 1009, 194, 176, 1168

*NSET, NSET=CONSTRAINT_1
1, 2, 7, 8, 9, 10, 11, 12, 13, 14, 15, 16, 17, 18, 19, 105
106, 107, 108, 109, 110, 111, 112, 113, 114, 115, 135, 136, 137, 138, 139, 140
695, 696, 697, 698, 699, 700, 701, 702, 703, 704, 705, 706, 707, 708, 709, 710
711, 712, 713, 714, 715, 716, 717, 718, 719, 720, 721, 722, 723, 724, 725, 726
727, 728, 729, 730, 731, 732, 733, 734, 735, 736, 737, 738, 739, 740, 741, 742
743

*NSET, NSET=DLOAD_1
419, 440, 717, 1020, 1164

*MATERIAL, NAME=STRUCTURAL_STEEL
*ELASTIC
200000.000000, 0.300000

*SOLID SECTION, ELSET=ALL_ELEMENTS, MATERIAL=STRUCTURAL_STEEL

*BOUNDARY
CONSTRAINT_1, 1, 3

*STEP, NLGEOM=NO
*STATIC
0.1, 1.0

*CLOAD
DLOAD_1, 3, -20000.000000

*NODE FILE
U, RF
*EL FILE
S, E

*END STEP
