*HEADING
Tall column with a pinned base (y and z fixed, x free — slides horizontally). Top lateral wind load. Classic Euler-column scenario with lateral sway freedom at base.

*NODE, NSET=ALL_NODES
1, 0.000000, 0.000000, 0.000000
2, 0.000000, 0.000000, 200.000000
3, 40.000000, 0.000000, 200.000000
4, 40.000000, 0.000000, 0.000000
5, 40.000000, 40.000000, 200.000000
6, 40.000000, 40.000000, 0.000000
7, 0.000000, 40.000000, 200.000000
8, 0.000000, 40.000000, 0.000000
9, 0.000000, 0.000000, 6.896552
10, 0.000000, 0.000000, 13.793103
11, 0.000000, 0.000000, 20.689655
12, 0.000000, 0.000000, 27.586206
13, 0.000000, 0.000000, 34.482758
14, 0.000000, 0.000000, 41.379311
15, 0.000000, 0.000000, 48.275864
16, 0.000000, 0.000000, 55.172413
17, 0.000000, 0.000000, 62.068966
18, 0.000000, 0.000000, 68.965515
19, 0.000000, 0.000000, 75.862068
20, 0.000000, 0.000000, 82.758621
21, 0.000000, 0.000000, 89.655174
22, 0.000000, 0.000000, 96.551727
23, 0.000000, 0.000000, 103.448273
24, 0.000000, 0.000000, 110.344826
25, 0.000000, 0.000000, 117.241379
26, 0.000000, 0.000000, 124.137932
27, 0.000000, 0.000000, 131.034485
28, 0.000000, 0.000000, 137.931030
29, 0.000000, 0.000000, 144.827591
30, 0.000000, 0.000000, 151.724136
31, 0.000000, 0.000000, 158.620697
32, 0.000000, 0.000000, 165.517242
33, 0.000000, 0.000000, 172.413788
34, 0.000000, 0.000000, 179.310349
35, 0.000000, 0.000000, 186.206894
36, 0.000000, 0.000000, 193.103455
37, 6.666667, 0.000000, 200.000000
38, 13.333333, 0.000000, 200.000000
39, 20.000000, 0.000000, 200.000000
40, 26.666666, 0.000000, 200.000000
41, 33.333332, 0.000000, 200.000000
42, 40.000000, 0.000000, 6.896552
43, 40.000000, 0.000000, 13.793103
44, 40.000000, 0.000000, 20.689655
45, 40.000000, 0.000000, 27.586206
46, 40.000000, 0.000000, 34.482758
47, 40.000000, 0.000000, 41.379311
48, 40.000000, 0.000000, 48.275864
49, 40.000000, 0.000000, 55.172413
50, 40.000000, 0.000000, 62.068966
51, 40.000000, 0.000000, 68.965515
52, 40.000000, 0.000000, 75.862068
53, 40.000000, 0.000000, 82.758621
54, 40.000000, 0.000000, 89.655174
55, 40.000000, 0.000000, 96.551727
56, 40.000000, 0.000000, 103.448273
57, 40.000000, 0.000000, 110.344826
58, 40.000000, 0.000000, 117.241379
59, 40.000000, 0.000000, 124.137932
60, 40.000000, 0.000000, 131.034485
61, 40.000000, 0.000000, 137.931030
62, 40.000000, 0.000000, 144.827591
63, 40.000000, 0.000000, 151.724136
64, 40.000000, 0.000000, 158.620697
65, 40.000000, 0.000000, 165.517242
66, 40.000000, 0.000000, 172.413788
67, 40.000000, 0.000000, 179.310349
68, 40.000000, 0.000000, 186.206894
69, 40.000000, 0.000000, 193.103455
70, 6.666667, 0.000000, 0.000000
71, 13.333333, 0.000000, 0.000000
72, 20.000000, 0.000000, 0.000000
73, 26.666666, 0.000000, 0.000000
74, 33.333332, 0.000000, 0.000000
75, 40.000000, 6.666667, 200.000000
76, 40.000000, 13.333333, 200.000000
77, 40.000000, 20.000000, 200.000000
78, 40.000000, 26.666666, 200.000000
79, 40.000000, 33.333332, 200.000000
80, 40.000000, 40.000000, 6.896552
81, 40.000000, 40.000000, 13.793103
82, 40.000000, 40.000000, 20.689655
83, 40.000000, 40.000000, 27.586206
84, 40.000000, 40.000000, 34.482758
85, 40.000000, 40.000000, 41.379311
86, 40.000000, 40.000000, 48.275864
87, 40.000000, 40.000000, 55.172413
88, 40.000000, 40.000000, 62.068966
89, 40.000000, 40.000000, 68.965515
90, 40.000000, 40.000000, 75.862068
91, 40.000000, 40.000000, 82.758621
92, 40.000000, 40.000000, 89.655174
93, 40.000000, 40.000000, 96.551727
94, 40.000000, 40.000000, 103.448273
95, 40.000000, 40.000000, 110.344826
96, 40.000000, 40.000000, 117.241379
97, 40.000000, 40.000000, 124.137932
98, 40.000000, 40.000000, 131.034485
99, 40.000000, 40.000000, 137.931030
100, 40.000000, 40.000000, 144.827591
101, 40.000000, 40.000000, 151.724136
102, 40.000000, 40.000000, 158.620697
103, 40.000000, 40.000000, 165.517242
104, 40.000000, 40.000000, 172.413788
105, 40.000000, 40.000000, 179.310349
106, 40.000000, 40.000000, 186.206894
107, 40.000000, 40.000000, 193.103455
108, 40.000000, 6.666667, 0.000000
109, 40.000000, 13.333333, 0.000000
110, 40.000000, 20.000000, 0.000000
111, 40.000000, 26.666666, 0.000000
112, 40.000000, 33.333332, 0.000000
113, 33.333332, 40.000000, 200.000000
114, 26.666666, 40.000000, 200.000000
115, 20.000000, 40.000000, 200.000000
116, 13.333333, 40.000000, 200.000000
117, 6.666667, 40.000000, 200.000000
118, 0.000000, 40.000000, 6.896552
119, 0.000000, 40.000000, 13.793103
120, 0.000000, 40.000000, 20.689655
121, 0.000000, 40.000000, 27.586206
122, 0.000000, 40.000000, 34.482758
123, 0.000000, 40.000000, 41.379311
124, 0.000000, 40.000000, 48.275864
125, 0.000000, 40.000000, 55.172413
126, 0.000000, 40.000000, 62.068966
127, 0.000000, 40.000000, 68.965515
128, 0.000000, 40.000000, 75.862068
129, 0.000000, 40.000000, 82.758621
130, 0.000000, 40.000000, 89.655174
131, 0.000000, 40.000000, 96.551727
132, 0.000000, 40.000000, 103.448273
133, 0.000000, 40.000000, 110.344826
134, 0.000000, 40.000000, 117.241379
135, 0.000000, 40.000000, 124.137932
136, 0.000000, 40.000000, 131.034485
137, 0.000000, 40.000000, 137.931030
138, 0.000000, 40.000000, 144.827591
139, 0.000000, 40.000000, 151.724136
140, 0.000000, 40.000000, 158.620697
141, 0.000000, 40.000000, 165.517242
142, 0.000000, 40.000000, 172.413788
143, 0.000000, 40.000000, 179.310349
144, 0.000000, 40.000000, 186.206894
145, 0.000000, 40.000000, 193.103455
146, 33.333332, 40.000000, 0.000000
147, 26.666666, 40.000000, 0.000000
148, 20.000000, 40.000000, 0.000000
149, 13.333333, 40.000000, 0.000000
150, 6.666667, 40.000000, 0.000000
151, 0.000000, 33.333332, 200.000000
152, 0.000000, 26.666666, 200.000000
153, 0.000000, 20.000000, 200.000000
154, 0.000000, 13.333333, 200.000000
155, 0.000000, 6.666667, 200.000000
156, 0.000000, 33.333332, 0.000000
157, 0.000000, 26.666666, 0.000000
158, 0.000000, 20.000000, 0.000000
159, 0.000000, 13.333333, 0.000000
160, 0.000000, 6.666667, 0.000000
161, 34.146004, 0.000000, 148.259598
162, 6.159084, 0.000000, 175.788147
163, 6.160121, 0.000000, 127.530563
164, 6.089482, 0.000000, 106.931549
165, 5.994606, 0.000000, 58.599304
166, 34.102379, 0.000000, 86.190689
167, 33.769924, 0.000000, 31.738865
168, 34.154778, 0.000000, 162.053177
169, 34.092678, 0.000000, 72.397614
170, 34.072960, 0.000000, 44.811680
171, 6.163771, 0.000000, 141.370163
172, 5.972589, 0.000000, 155.172409
173, 34.136307, 0.000000, 134.466507
174, 34.126610, 0.000000, 120.673416
175, 34.112072, 0.000000, 99.983780
176, 6.032345, 0.000000, 93.085976
177, 5.968271, 0.000000, 24.124620
178, 6.102331, 0.000000, 79.292656
179, 5.990222, 0.000000, 37.915501
180, 34.027412, 0.000000, 182.758621
181, 34.027412, 0.000000, 17.241379
182, 34.082924, 0.000000, 58.604572
183, 16.666666, 0.000000, 194.226501
184, 16.212872, 0.000000, 6.091679
185, 29.901121, 0.000000, 5.166852
186, 30.287666, 0.000000, 194.609924
187, 5.519668, 0.000000, 10.393638
188, 5.833074, 0.000000, 189.569305
189, 5.885071, 0.000000, 17.243383
190, 11.911613, 0.000000, 20.668221
191, 11.943302, 0.000000, 27.552359
192, 17.645039, 0.000000, 24.087021
193, 17.643633, 0.000000, 30.968224
194, 17.914713, 0.000000, 17.387363
195, 23.809195, 0.000000, 20.622610
196, 23.273075, 0.000000, 13.096391
197, 12.308118, 0.000000, 12.681112
198, 11.921407, 0.000000, 34.442394
199, 17.907726, 0.000000, 37.855038
200, 24.103592, 0.000000, 33.664482
201, 23.719454, 0.000000, 41.150845
202, 17.952721, 0.000000, 44.727486
203, 23.687939, 0.000000, 48.140762
204, 17.951189, 0.000000, 51.634781
205, 11.985739, 0.000000, 48.224014
206, 23.700006, 0.000000, 55.054108
207, 17.977098, 0.000000, 58.535496
208, 23.730885, 0.000000, 61.953869
209, 18.038616, 0.000000, 65.432869
210, 23.763847, 0.000000, 68.850960
211, 18.080357, 0.000000, 72.329498
212, 23.800713, 0.000000, 75.747505
213, 18.117817, 0.000000, 79.225967
214, 12.103930, 0.000000, 68.919815
215, 23.830647, 0.000000, 82.643990
216, 18.151766, 0.000000, 86.122421
217, 23.865685, 0.000000, 89.540436
218, 18.134453, 0.000000, 93.019157
219, 23.886173, 0.000000, 96.436974
220, 18.159365, 0.000000, 99.915665
221, 23.918123, 0.000000, 103.333450
222, 18.181696, 0.000000, 106.812195
223, 24.234831, 0.000000, 110.228416
224, 18.262587, 0.000000, 113.708412
225, 24.031910, 0.000000, 117.126137
226, 18.402809, 0.000000, 120.604317
227, 24.045843, 0.000000, 124.022713
228, 18.419359, 0.000000, 127.469765
229, 12.385165, 0.000000, 117.213036
230, 24.068428, 0.000000, 130.914062
231, 18.363068, 0.000000, 134.325211
232, 24.087194, 0.000000, 137.802826
233, 18.421406, 0.000000, 141.279907
234, 24.117538, 0.000000, 144.707748
235, 18.460569, 0.000000, 148.187469
236, 24.153507, 0.000000, 151.607452
237, 18.506647, 0.000000, 155.086472
238, 24.184662, 0.000000, 158.504913
239, 18.544607, 0.000000, 161.983109
240, 24.217653, 0.000000, 165.402542
241, 18.455330, 0.000000, 168.876907
242, 24.540545, 0.000000, 172.291122
243, 18.528021, 0.000000, 175.760010
244, 12.466466, 0.000000, 165.298264
245, 24.308231, 0.000000, 179.162354
246, 18.733265, 0.000000, 182.491058
247, 24.117838, 0.000000, 186.029160
248, 30.311243, 0.000000, 113.644516
249, 30.608612, 0.000000, 175.705429
250, 29.903908, 0.000000, 37.786991
251, 29.910585, 0.000000, 51.594730
252, 29.974115, 0.000000, 65.387894
253, 30.038101, 0.000000, 79.180725
254, 30.101362, 0.000000, 92.973648
255, 30.261694, 0.000000, 127.455818
256, 30.323792, 0.000000, 141.248322
257, 30.387451, 0.000000, 155.041870
258, 12.696451, 0.000000, 179.221451
259, 12.904514, 0.000000, 187.326630
260, 12.439742, 0.000000, 151.677307
261, 12.403526, 0.000000, 137.823792
262, 12.141275, 0.000000, 103.404823
263, 12.083915, 0.000000, 89.606674
264, 6.574944, 0.000000, 182.799988
265, 12.306245, 0.000000, 172.249390
266, 6.294260, 0.000000, 168.829819
267, 34.228310, 0.000000, 24.251329
268, 28.073442, 0.000000, 27.564772
269, 29.687996, 0.000000, 167.724579
270, 12.509647, 0.000000, 158.510956
271, 6.289292, 0.000000, 148.262802
272, 12.363050, 0.000000, 144.766907
273, 6.152834, 0.000000, 134.378815
274, 12.354874, 0.000000, 130.882278
275, 12.000647, 0.000000, 62.021042
276, 12.105167, 0.000000, 82.710609
277, 29.477037, 0.000000, 105.657890
278, 6.041044, 0.000000, 99.987076
279, 12.216417, 0.000000, 110.362991
280, 6.236073, 0.000000, 113.825516
281, 5.993123, 0.000000, 65.512253
282, 6.107750, 0.000000, 72.399338
283, 11.960522, 0.000000, 55.119713
284, 6.030711, 0.000000, 86.191223
285, 12.098733, 0.000000, 96.503227
286, 5.985877, 0.000000, 44.810883
287, 5.970534, 0.000000, 31.017305
288, 11.973195, 0.000000, 41.329803
289, 12.102892, 0.000000, 75.812981
290, 23.111414, 0.000000, 6.274436
291, 23.707842, 0.000000, 193.232468
292, 5.987791, 0.000000, 51.700363
293, 6.375309, 0.000000, 120.687653
294, 6.386191, 0.000000, 161.911697
295, 33.604618, 0.000000, 10.204021
296, 34.743622, 0.000000, 190.139236
297, 12.429814, 0.000000, 123.979156
298, 9.962697, 0.000000, 5.677198
299, 10.125031, 0.000000, 194.357193
300, 19.230110, 0.000000, 188.701111
301, 18.564039, 0.000000, 11.106196
302, 28.480005, 0.000000, 15.241933
303, 29.723673, 0.000000, 20.984406
304, 22.254980, 0.000000, 27.381422
305, 35.549358, 0.000000, 38.039921
306, 28.258970, 0.000000, 44.697002
307, 35.613293, 0.000000, 51.691853
308, 28.279703, 0.000000, 58.519035
309, 35.624199, 0.000000, 65.517242
310, 28.333891, 0.000000, 72.312943
311, 35.665302, 0.000000, 79.310349
312, 28.387634, 0.000000, 86.105896
313, 35.706390, 0.000000, 93.103447
314, 28.298954, 0.000000, 99.677147
315, 34.944744, 0.000000, 107.812065
316, 35.876518, 0.000000, 113.943237
317, 28.555460, 0.000000, 120.584518
318, 35.809345, 0.000000, 127.586205
319, 4.986534, 0.000000, 5.046370
320, 4.986534, 0.000000, 194.953629
321, 28.575483, 0.000000, 134.377502
322, 35.850647, 0.000000, 141.379303
323, 28.625658, 0.000000, 148.173004
324, 35.892025, 0.000000, 155.172409
325, 28.526508, 0.000000, 161.745422
326, 28.409607, 0.000000, 182.543228
327, 35.064575, 0.000000, 169.879379
328, 35.214619, 0.000000, 4.786754
329, 35.160706, 0.000000, 195.095963
330, 29.103148, 0.000000, 188.631088
331, 35.940121, 0.000000, 176.013519
332, 28.962717, 0.000000, 32.688778
333, 27.180635, 0.000000, 9.802463
334, 40.000000, 34.145733, 148.258789
335, 40.000000, 6.158098, 175.785492
336, 40.000000, 6.138488, 127.575829
337, 40.000000, 34.116684, 106.879509
338, 40.000000, 34.082699, 58.603771
339, 40.000000, 34.102165, 86.189880
340, 40.000000, 33.768406, 31.737940
341, 40.000000, 6.043436, 72.403557
342, 40.000000, 5.993658, 44.809158
343, 40.000000, 34.154495, 162.052368
344, 40.000000, 6.161809, 141.368912
345, 40.000000, 5.972589, 155.172409
346, 40.000000, 34.136047, 134.465698
347, 40.000000, 34.126366, 120.672600
348, 40.000000, 6.114993, 113.782761
349, 40.000000, 6.091316, 99.989685
350, 40.000000, 5.968173, 24.124792
351, 40.000000, 34.027412, 182.758621
352, 40.000000, 34.027412, 17.241379
353, 40.000000, 6.047224, 58.600861
354, 40.000000, 6.067457, 86.196617
355, 40.000000, 34.092472, 72.396797
356, 40.000000, 34.072609, 44.811008
357, 40.000000, 16.666666, 194.226501
358, 40.000000, 16.212769, 6.091760
359, 40.000000, 29.901121, 5.166822
360, 40.000000, 30.287239, 194.609558
361, 40.000000, 5.519668, 10.393638
362, 40.000000, 5.832300, 189.566849
363, 40.000000, 5.885055, 17.243412
364, 40.000000, 11.911347, 20.668385
365, 40.000000, 11.942997, 27.551983
366, 40.000000, 17.644384, 24.086842
367, 40.000000, 17.643110, 30.966396
368, 40.000000, 17.914003, 17.387896
369, 40.000000, 11.910822, 34.443348
370, 40.000000, 17.897671, 37.851665
371, 40.000000, 23.807415, 20.623503
372, 40.000000, 24.100523, 33.661926
373, 40.000000, 23.716179, 41.145863
374, 40.000000, 17.942635, 44.721886
375, 40.000000, 23.684864, 48.134407
376, 40.000000, 17.976055, 51.627781
377, 40.000000, 23.702774, 55.047081
378, 40.000000, 18.002659, 58.528130
379, 40.000000, 23.734783, 61.946613
380, 40.000000, 18.036625, 65.425568
381, 40.000000, 23.763317, 68.843658
382, 40.000000, 18.070936, 72.322197
383, 40.000000, 23.798187, 75.740196
384, 40.000000, 18.106791, 79.218666
385, 40.000000, 23.827499, 82.636681
386, 40.000000, 18.141434, 86.115112
387, 40.000000, 23.862518, 89.533127
388, 40.000000, 18.177393, 93.011566
389, 40.000000, 24.174963, 96.428116
390, 40.000000, 18.259119, 99.907776
391, 40.000000, 23.978485, 103.325806
392, 40.000000, 18.264345, 106.804390
393, 40.000000, 23.970963, 110.222488
394, 40.000000, 18.287502, 113.700920
395, 40.000000, 23.991064, 117.119026
396, 40.000000, 18.319065, 120.597397
397, 40.000000, 24.024029, 124.015503
398, 40.000000, 18.353245, 127.493866
399, 40.000000, 24.052702, 130.912003
400, 40.000000, 18.388073, 134.390335
401, 40.000000, 24.087639, 137.808456
402, 40.000000, 18.423012, 141.286789
403, 40.000000, 24.116756, 144.704956
404, 40.000000, 18.458040, 148.183258
405, 40.000000, 24.151800, 151.601425
406, 40.000000, 18.504564, 155.079865
407, 40.000000, 24.182854, 158.497940
408, 40.000000, 18.542549, 161.975922
409, 40.000000, 24.215805, 165.395309
410, 40.000000, 18.452921, 168.869598
411, 40.000000, 24.538391, 172.283844
412, 40.000000, 18.525465, 175.752686
413, 40.000000, 12.464875, 165.291122
414, 40.000000, 24.306200, 179.155075
415, 40.000000, 18.730734, 182.484192
416, 40.000000, 23.272472, 13.096676
417, 40.000000, 24.115799, 186.023727
418, 40.000000, 30.236408, 99.844330
419, 40.000000, 30.606455, 175.698151
420, 40.000000, 29.900169, 37.782368
421, 40.000000, 29.909086, 51.588428
422, 40.000000, 29.973032, 65.381363
423, 40.000000, 30.036655, 79.174194
424, 40.000000, 30.195875, 113.656540
425, 40.000000, 30.258804, 127.449486
426, 40.000000, 30.322212, 141.242447
427, 40.000000, 30.385681, 155.035416
428, 40.000000, 12.694123, 179.214401
429, 40.000000, 12.902834, 187.322571
430, 40.000000, 12.436040, 151.673035
431, 40.000000, 12.397378, 137.878143
432, 40.000000, 12.336724, 124.085159
433, 40.000000, 12.278749, 110.292160
434, 40.000000, 12.221240, 96.499161
435, 40.000000, 12.151180, 82.706238
436, 40.000000, 12.088700, 68.913307
437, 40.000000, 12.021506, 55.118000
438, 40.000000, 12.307873, 12.681297
439, 40.000000, 6.573313, 182.794983
440, 40.000000, 12.303555, 172.242462
441, 40.000000, 6.294051, 168.826263
442, 40.000000, 34.227890, 24.251175
443, 40.000000, 28.073442, 27.564772
444, 40.000000, 29.686571, 167.719604
445, 40.000000, 12.508410, 158.505310
446, 40.000000, 6.285830, 148.261276
447, 40.000000, 12.360352, 144.775238
448, 40.000000, 6.273925, 134.466736
449, 40.000000, 12.314639, 130.981674
450, 40.000000, 6.233802, 120.673676
451, 40.000000, 12.261806, 117.188675
452, 40.000000, 6.129446, 106.874237
453, 40.000000, 12.207369, 103.394569
454, 40.000000, 6.100456, 93.081192
455, 40.000000, 12.143193, 89.601646
456, 40.000000, 6.069195, 79.288170
457, 40.000000, 11.979253, 48.221310
458, 40.000000, 12.088373, 75.808693
459, 40.000000, 6.043696, 65.493599
460, 40.000000, 29.431200, 91.859856
461, 40.000000, 5.974258, 37.912830
462, 40.000000, 5.966042, 31.016987
463, 40.000000, 6.006940, 51.699600
464, 40.000000, 12.040069, 62.013245
465, 40.000000, 11.949716, 41.326702
466, 40.000000, 23.111277, 6.274502
467, 40.000000, 23.706579, 193.230667
468, 40.000000, 6.386976, 161.908463
469, 40.000000, 33.604549, 10.203988
470, 40.000000, 34.743122, 190.138809
471, 40.000000, 9.962656, 5.677230
472, 40.000000, 10.124738, 194.356415
473, 40.000000, 19.226305, 188.696503
474, 40.000000, 18.563679, 11.106426
475, 40.000000, 28.479433, 15.242093
476, 40.000000, 29.723118, 20.984585
477, 40.000000, 22.253775, 27.380688
478, 40.000000, 35.548237, 38.038677
479, 40.000000, 28.256580, 44.692413
480, 40.000000, 35.612877, 51.690296
481, 40.000000, 28.280474, 58.513451
482, 40.000000, 35.623241, 65.517242
483, 40.000000, 28.332733, 72.307243
484, 40.000000, 35.664326, 79.310349
485, 40.000000, 28.252008, 85.878746
486, 40.000000, 34.915943, 94.016830
487, 40.000000, 35.853806, 100.148132
488, 40.000000, 28.499683, 106.785736
489, 40.000000, 35.766998, 113.793106
490, 40.000000, 28.519228, 120.582634
491, 40.000000, 35.808178, 127.586205
492, 40.000000, 4.986534, 5.046370
493, 40.000000, 4.986534, 194.953629
494, 40.000000, 28.571482, 134.375610
495, 40.000000, 35.849426, 141.379303
496, 40.000000, 28.624437, 148.168594
497, 40.000000, 35.890747, 155.172409
498, 40.000000, 28.525082, 161.740128
499, 40.000000, 28.407846, 182.538788
500, 40.000000, 35.063705, 169.877197
501, 40.000000, 35.214615, 4.786751
502, 40.000000, 35.939514, 176.011627
503, 40.000000, 35.160706, 195.095963
504, 40.000000, 29.101379, 188.628952
505, 40.000000, 28.960636, 32.686752
506, 40.000000, 27.180494, 9.802418
507, 5.854266, 40.000000, 148.258789
508, 33.841904, 40.000000, 175.785492
509, 33.861511, 40.000000, 127.575829
510, 5.883316, 40.000000, 106.879509
511, 5.917302, 40.000000, 58.603771
512, 5.897834, 40.000000, 86.189880
513, 6.231593, 40.000000, 31.737940
514, 33.956562, 40.000000, 72.403557
515, 34.006340, 40.000000, 44.809158
516, 5.845503, 40.000000, 162.052368
517, 33.838192, 40.000000, 141.368912
518, 34.027412, 40.000000, 155.172409
519, 5.863952, 40.000000, 134.465698
520, 5.873635, 40.000000, 120.672600
521, 33.885006, 40.000000, 113.782761
522, 33.908684, 40.000000, 99.989685
523, 34.031826, 40.000000, 24.124792
524, 5.972589, 40.000000, 182.758621
525, 5.972589, 40.000000, 17.241379
526, 33.952778, 40.000000, 58.600861
527, 33.932541, 40.000000, 86.196617
528, 5.907527, 40.000000, 72.396797
529, 5.927392, 40.000000, 44.811008
530, 23.333334, 40.000000, 194.226501
531, 23.787231, 40.000000, 6.091760
532, 10.098879, 40.000000, 5.166822
533, 9.712761, 40.000000, 194.609558
534, 34.480331, 40.000000, 10.393638
535, 34.167698, 40.000000, 189.566849
536, 34.114944, 40.000000, 17.243412
537, 28.088652, 40.000000, 20.668385
538, 28.057003, 40.000000, 27.551983
539, 22.355616, 40.000000, 24.086842
540, 22.356890, 40.000000, 30.966396
541, 22.085997, 40.000000, 17.387896
542, 28.089178, 40.000000, 34.443348
543, 22.102329, 40.000000, 37.851665
544, 16.192585, 40.000000, 20.623503
545, 15.899476, 40.000000, 33.661926
546, 16.283821, 40.000000, 41.145863
547, 22.057365, 40.000000, 44.721886
548, 16.315136, 40.000000, 48.134407
549, 22.023945, 40.000000, 51.627781
550, 16.297226, 40.000000, 55.047081
551, 21.997341, 40.000000, 58.528130
552, 16.265217, 40.000000, 61.946613
553, 21.963375, 40.000000, 65.425568
554, 16.236683, 40.000000, 68.843658
555, 21.929064, 40.000000, 72.322197
556, 16.201813, 40.000000, 75.740196
557, 21.893209, 40.000000, 79.218666
558, 16.172501, 40.000000, 82.636681
559, 21.858566, 40.000000, 86.115112
560, 16.137482, 40.000000, 89.533127
561, 21.822607, 40.000000, 93.011566
562, 15.825038, 40.000000, 96.428116
563, 21.740881, 40.000000, 99.907776
564, 16.021515, 40.000000, 103.325806
565, 21.735655, 40.000000, 106.804390
566, 16.029037, 40.000000, 110.222488
567, 21.712498, 40.000000, 113.700920
568, 16.008936, 40.000000, 117.119026
569, 21.680935, 40.000000, 120.597397
570, 15.975972, 40.000000, 124.015503
571, 21.646755, 40.000000, 127.493866
572, 15.947298, 40.000000, 130.912003
573, 21.611927, 40.000000, 134.390335
574, 15.912361, 40.000000, 137.808456
575, 21.576988, 40.000000, 141.286789
576, 15.883244, 40.000000, 144.704956
577, 21.541960, 40.000000, 148.183258
578, 15.848200, 40.000000, 151.601425
579, 21.495436, 40.000000, 155.079865
580, 15.817146, 40.000000, 158.497940
581, 21.457451, 40.000000, 161.975922
582, 15.784195, 40.000000, 165.395309
583, 21.547079, 40.000000, 168.869598
584, 15.461610, 40.000000, 172.283844
585, 21.474535, 40.000000, 175.752686
586, 27.535124, 40.000000, 165.291122
587, 15.693799, 40.000000, 179.155075
588, 21.269266, 40.000000, 182.484192
589, 16.727528, 40.000000, 13.096676
590, 15.884201, 40.000000, 186.023727
591, 9.763592, 40.000000, 99.844330
592, 9.393546, 40.000000, 175.698151
593, 10.099832, 40.000000, 37.782368
594, 10.090915, 40.000000, 51.588428
595, 10.026969, 40.000000, 65.381363
596, 9.963345, 40.000000, 79.174194
597, 9.804125, 40.000000, 113.656540
598, 9.741196, 40.000000, 127.449486
599, 9.677788, 40.000000, 141.242447
600, 9.614320, 40.000000, 155.035416
601, 27.305876, 40.000000, 179.214401
602, 27.097166, 40.000000, 187.322571
603, 27.563959, 40.000000, 151.673035
604, 27.602621, 40.000000, 137.878143
605, 27.663275, 40.000000, 124.085159
606, 27.721252, 40.000000, 110.292160
607, 27.778761, 40.000000, 96.499161
608, 27.848820, 40.000000, 82.706238
609, 27.911299, 40.000000, 68.913307
610, 27.978495, 40.000000, 55.118000
611, 27.692127, 40.000000, 12.681297
612, 33.426685, 40.000000, 182.794983
613, 27.696444, 40.000000, 172.242462
614, 33.705948, 40.000000, 168.826263
615, 5.772110, 40.000000, 24.251175
616, 11.926558, 40.000000, 27.564772
617, 10.313430, 40.000000, 167.719604
618, 27.491590, 40.000000, 158.505310
619, 33.714169, 40.000000, 148.261276
620, 27.639648, 40.000000, 144.775238
621, 33.726074, 40.000000, 134.466736
622, 27.685362, 40.000000, 130.981674
623, 33.766197, 40.000000, 120.673676
624, 27.738194, 40.000000, 117.188675
625, 33.870556, 40.000000, 106.874237
626, 27.792631, 40.000000, 103.394569
627, 33.899544, 40.000000, 93.081192
628, 27.856806, 40.000000, 89.601646
629, 33.930805, 40.000000, 79.288170
630, 28.020746, 40.000000, 48.221310
631, 27.911627, 40.000000, 75.808693
632, 33.956303, 40.000000, 65.493599
633, 10.568800, 40.000000, 91.859856
634, 34.025742, 40.000000, 37.912830
635, 34.033958, 40.000000, 31.016987
636, 33.993061, 40.000000, 51.699600
637, 27.959932, 40.000000, 62.013245
638, 28.050283, 40.000000, 41.326702
639, 16.888723, 40.000000, 6.274502
640, 16.293421, 40.000000, 193.230667
641, 33.613026, 40.000000, 161.908463
642, 6.395452, 40.000000, 10.203988
643, 5.256878, 40.000000, 190.138809
644, 30.037344, 40.000000, 5.677230
645, 29.875261, 40.000000, 194.356415
646, 20.773695, 40.000000, 188.696503
647, 21.436321, 40.000000, 11.106426
648, 11.520567, 40.000000, 15.242093
649, 10.276881, 40.000000, 20.984585
650, 17.746225, 40.000000, 27.380688
651, 4.451763, 40.000000, 38.038677
652, 11.743419, 40.000000, 44.692413
653, 4.387122, 40.000000, 51.690296
654, 11.719526, 40.000000, 58.513451
655, 4.376760, 40.000000, 65.517242
656, 11.667267, 40.000000, 72.307243
657, 4.335674, 40.000000, 79.310349
658, 11.747993, 40.000000, 85.878746
659, 5.084056, 40.000000, 94.016830
660, 4.146193, 40.000000, 100.148132
661, 11.500317, 40.000000, 106.785736
662, 4.233001, 40.000000, 113.793106
663, 11.480773, 40.000000, 120.582634
664, 4.191823, 40.000000, 127.586205
665, 35.013466, 40.000000, 5.046370
666, 35.013466, 40.000000, 194.953629
667, 11.428519, 40.000000, 134.375610
668, 4.150575, 40.000000, 141.379303
669, 11.375564, 40.000000, 148.168594
670, 4.109253, 40.000000, 155.172409
671, 11.474918, 40.000000, 161.740128
672, 11.592153, 40.000000, 182.538788
673, 4.936295, 40.000000, 169.877197
674, 4.785385, 40.000000, 4.786751
675, 4.060486, 40.000000, 176.011627
676, 4.839293, 40.000000, 195.095963
677, 10.898621, 40.000000, 188.628952
678, 11.039365, 40.000000, 32.686752
679, 12.819505, 40.000000, 9.802418
680, 0.000000, 33.816757, 148.262955
681, 0.000000, 5.839172, 175.843033
682, 0.000000, 5.868788, 127.569107
683, 0.000000, 33.896877, 106.886162
684, 0.000000, 5.917301, 58.603748
685, 0.000000, 6.231593, 31.737940
686, 0.000000, 5.902675, 79.293297
687, 0.000000, 34.006317, 44.809158
688, 0.000000, 33.920647, 93.093086
689, 0.000000, 33.785114, 162.052475
690, 0.000000, 5.859104, 141.362198
691, 0.000000, 5.972589, 155.172409
692, 0.000000, 33.849884, 134.472305
693, 0.000000, 33.873295, 120.679230
694, 0.000000, 5.878470, 113.776016
695, 0.000000, 5.888150, 99.982925
696, 0.000000, 33.969032, 65.491791
697, 0.000000, 34.031826, 24.124792
698, 0.000000, 5.972589, 17.241379
699, 0.000000, 33.663826, 182.652557
700, 0.000000, 33.944584, 79.300026
701, 0.000000, 5.927397, 44.811008
702, 0.000000, 16.313581, 193.222809
703, 0.000000, 23.787231, 6.091760
704, 0.000000, 10.098879, 5.166822
705, 0.000000, 29.985620, 194.112045
706, 0.000000, 34.480331, 10.393638
707, 0.000000, 5.700190, 189.030258
708, 0.000000, 34.114944, 17.243412
709, 0.000000, 28.088652, 20.668385
710, 0.000000, 28.057003, 27.551983
711, 0.000000, 22.355616, 24.086842
712, 0.000000, 22.356890, 30.966396
713, 0.000000, 22.085997, 17.387896
714, 0.000000, 28.089178, 34.443348
715, 0.000000, 22.102329, 37.851669
716, 0.000000, 16.192585, 20.623503
717, 0.000000, 15.899476, 33.661926
718, 0.000000, 16.283821, 41.145863
719, 0.000000, 22.057341, 44.721886
720, 0.000000, 16.315159, 48.134388
721, 0.000000, 22.023874, 51.627724
722, 0.000000, 16.297213, 55.046955
723, 0.000000, 21.985615, 58.518047
724, 0.000000, 16.263226, 61.944725
725, 0.000000, 21.967472, 65.393562
726, 0.000000, 15.967592, 68.836365
727, 0.000000, 21.896593, 72.295494
728, 0.000000, 27.948957, 55.109650
729, 0.000000, 16.154961, 75.734314
730, 0.000000, 21.880287, 79.212990
731, 0.000000, 16.159092, 82.634491
732, 0.000000, 21.853920, 86.113556
733, 0.000000, 15.858189, 89.530792
734, 0.000000, 21.775656, 93.010666
735, 0.000000, 16.053741, 96.428825
736, 0.000000, 21.770855, 99.907486
737, 0.000000, 16.061178, 103.325600
738, 0.000000, 21.747694, 106.804062
739, 0.000000, 16.041058, 110.222160
740, 0.000000, 21.716129, 113.700554
741, 0.000000, 16.008089, 117.118645
742, 0.000000, 21.681892, 120.597023
743, 0.000000, 15.979399, 124.015137
744, 0.000000, 21.647051, 127.493484
745, 0.000000, 15.944457, 130.911606
746, 0.000000, 21.612053, 134.389954
747, 0.000000, 15.915323, 137.808090
748, 0.000000, 21.577011, 141.286407
749, 0.000000, 15.880274, 144.704559
750, 0.000000, 21.531019, 148.182892
751, 0.000000, 15.849302, 151.601059
752, 0.000000, 21.493505, 155.079361
753, 0.000000, 15.608330, 158.496338
754, 0.000000, 21.420326, 161.974731
755, 0.000000, 15.741758, 165.391190
756, 0.000000, 21.402628, 168.867188
757, 0.000000, 15.743211, 172.280045
758, 0.000000, 21.373800, 175.751663
759, 0.000000, 15.725383, 179.156693
760, 0.000000, 21.263527, 182.486740
761, 0.000000, 27.321014, 172.341080
762, 0.000000, 16.727528, 13.096676
763, 0.000000, 15.774368, 185.895111
764, 0.000000, 9.909846, 72.258270
765, 0.000000, 9.800091, 92.947502
766, 0.000000, 9.559947, 168.825012
767, 0.000000, 10.099832, 37.782368
768, 0.000000, 10.090981, 51.588413
769, 0.000000, 9.835815, 106.759720
770, 0.000000, 9.772882, 120.552673
771, 0.000000, 9.709471, 134.345627
772, 0.000000, 9.507839, 148.119125
773, 0.000000, 9.533712, 182.554840
774, 0.000000, 27.464308, 158.561371
775, 0.000000, 27.557976, 144.774002
776, 0.000000, 27.633198, 130.981384
777, 0.000000, 27.694063, 117.188400
778, 0.000000, 27.752243, 103.395393
779, 0.000000, 27.809227, 89.602173
780, 0.000000, 27.862881, 75.789185
781, 0.000000, 27.692127, 12.681297
782, 0.000000, 27.353294, 179.187790
783, 0.000000, 27.230526, 187.234634
784, 0.000000, 33.600758, 175.804977
785, 0.000000, 5.772110, 24.251175
786, 0.000000, 11.926558, 27.564772
787, 0.000000, 33.671146, 168.930771
788, 0.000000, 28.015804, 48.219910
789, 0.000000, 10.665529, 64.272438
790, 0.000000, 27.537277, 151.667404
791, 0.000000, 33.794037, 141.356262
792, 0.000000, 33.767242, 155.148178
793, 0.000000, 27.670694, 137.876724
794, 0.000000, 33.746231, 127.570114
795, 0.000000, 27.712622, 124.084938
796, 0.000000, 33.856472, 113.770630
797, 0.000000, 27.777246, 110.290863
798, 0.000000, 33.885483, 99.977585
799, 0.000000, 27.819017, 96.497734
800, 0.000000, 33.914474, 86.184509
801, 0.000000, 27.877562, 82.700409
802, 0.000000, 33.955021, 72.365707
803, 0.000000, 27.927017, 68.853676
804, 0.000000, 10.590903, 84.962715
805, 0.000000, 34.025738, 37.912830
806, 0.000000, 34.033958, 31.016987
807, 0.000000, 5.153986, 163.170441
808, 0.000000, 34.012836, 51.718189
809, 0.000000, 33.911312, 58.602531
810, 0.000000, 28.049452, 41.326466
811, 0.000000, 27.510756, 165.454605
812, 0.000000, 16.888723, 6.274502
813, 0.000000, 23.333334, 194.226501
814, 0.000000, 27.951569, 61.994877
815, 0.000000, 6.395452, 10.203988
816, 0.000000, 34.313229, 189.603470
817, 0.000000, 30.037344, 5.677230
818, 0.000000, 10.274777, 194.385147
819, 0.000000, 20.778780, 188.638062
820, 0.000000, 21.436321, 11.106426
821, 0.000000, 11.520567, 15.242093
822, 0.000000, 10.276881, 20.984585
823, 0.000000, 17.746225, 27.380688
824, 0.000000, 4.451764, 38.038677
825, 0.000000, 11.743438, 44.692406
826, 0.000000, 4.387136, 51.690289
827, 0.000000, 11.846849, 58.291256
828, 0.000000, 5.141480, 66.430458
829, 0.000000, 4.190800, 72.561920
830, 0.000000, 11.743496, 78.976616
831, 0.000000, 5.098050, 87.120125
832, 0.000000, 4.157258, 93.251488
833, 0.000000, 11.527796, 99.888916
834, 0.000000, 4.253548, 106.896553
835, 0.000000, 11.507263, 113.685844
836, 0.000000, 4.212404, 120.689651
837, 0.000000, 11.455000, 127.478828
838, 0.000000, 35.013466, 5.046370
839, 0.000000, 4.986534, 194.953629
840, 0.000000, 4.171191, 134.482758
841, 0.000000, 11.366543, 141.232330
842, 0.000000, 4.129906, 148.275864
843, 0.000000, 11.651385, 155.062134
844, 0.000000, 10.614666, 161.019592
845, 0.000000, 4.064363, 182.758621
846, 0.000000, 4.785385, 4.786751
847, 0.000000, 4.110621, 169.153900
848, 0.000000, 35.160706, 195.095963
849, 0.000000, 11.286101, 175.701355
850, 0.000000, 11.355393, 189.124603
851, 0.000000, 11.039365, 32.686752
852, 0.000000, 12.819505, 9.802418
853, 6.348025, 16.902725, 0.000000
854, 23.260439, 6.033706, 0.000000
855, 34.024693, 23.911505, 0.000000
856, 16.721153, 34.257954, 0.000000
857, 29.971750, 34.354855, 0.000000
858, 6.037982, 29.387829, 0.000000
859, 10.494969, 6.052324, 0.000000
860, 34.446480, 9.908251, 0.000000
861, 23.337706, 34.253132, 0.000000
862, 20.009809, 28.462677, 0.000000
863, 13.293756, 28.647116, 0.000000
864, 16.661705, 22.713459, 0.000000
865, 23.140766, 22.575121, 0.000000
866, 19.967079, 17.011972, 0.000000
867, 26.666666, 16.905989, 0.000000
868, 13.449291, 17.030025, 0.000000
869, 16.780178, 10.902649, 0.000000
870, 10.042763, 23.002415, 0.000000
871, 33.272049, 16.836853, 0.000000
872, 27.677103, 27.891426, 0.000000
873, 10.204505, 34.524899, 0.000000
874, 34.451164, 30.058670, 0.000000
875, 30.115324, 5.477973, 0.000000
876, 5.497502, 10.042859, 0.000000
877, 23.120222, 12.528717, 0.000000
878, 16.773785, 4.597735, 0.000000
879, 10.513993, 12.186116, 0.000000
880, 28.480196, 11.281915, 0.000000
881, 4.465820, 23.333334, 0.000000
882, 28.839746, 22.009619, 0.000000
883, 35.119659, 4.880339, 0.000000
884, 4.880339, 4.880339, 0.000000
885, 4.880339, 35.119659, 0.000000
886, 35.119659, 35.119659, 0.000000
887, 16.721153, 34.257954, 200.000000
888, 23.260439, 6.033706, 200.000000
889, 34.024693, 23.911505, 200.000000
890, 6.700588, 16.807030, 200.000000
891, 29.971750, 34.354855, 200.000000
892, 34.446480, 9.908251, 200.000000
893, 5.719016, 30.220205, 200.000000
894, 10.494969, 6.052324, 200.000000
895, 23.337706, 34.253132, 200.000000
896, 20.009809, 28.462677, 200.000000
897, 12.339618, 27.911219, 200.000000
898, 16.666666, 22.679491, 200.000000
899, 23.141592, 22.569460, 200.000000
900, 19.968042, 17.005367, 200.000000
901, 26.666666, 16.905989, 200.000000
902, 13.702415, 16.895668, 200.000000
903, 16.798698, 10.892374, 200.000000
904, 27.677221, 27.890617, 200.000000
905, 33.272049, 16.836853, 200.000000
906, 5.986579, 23.935789, 200.000000
907, 10.052945, 34.536385, 200.000000
908, 34.451180, 30.058575, 200.000000
909, 5.561652, 10.176179, 200.000000
910, 30.115324, 5.477973, 200.000000
911, 16.777487, 4.595681, 200.000000
912, 23.124119, 12.525342, 200.000000
913, 10.651665, 12.164715, 200.000000
914, 28.480846, 11.281352, 200.000000
915, 11.139148, 21.914925, 200.000000
916, 28.839746, 22.009619, 200.000000
917, 35.119659, 4.880339, 200.000000
918, 4.880339, 4.880339, 200.000000
919, 4.880339, 35.119659, 200.000000
920, 35.119659, 35.119659, 200.000000
921, 20.001795, 20.002653, 89.602402
922, 19.999756, 19.999340, 117.122467
923, 20.000124, 20.000107, 151.622910
924, 19.999887, 19.999908, 69.280571
925, 20.000010, 20.000008, 48.523987
926, 20.003292, 19.994616, 172.303589
927, 20.000000, 20.000000, 25.663059
928, 17.217234, 17.599922, 134.372772
929, 24.961857, 15.321748, 103.362244
930, 20.753883, 14.207269, 185.689468
931, 14.441783, 25.471123, 104.688293
932, 25.704309, 14.060395, 13.977038
933, 26.368172, 26.267181, 128.037964
934, 13.646812, 20.846584, 13.386898
935, 14.375955, 13.730803, 37.093525
936, 25.634319, 26.266220, 37.093517
937, 12.999758, 27.176104, 34.001114
938, 27.004137, 12.821763, 33.990276
939, 13.729225, 13.357882, 58.902210
940, 14.491977, 26.413530, 183.352875
941, 26.312529, 26.644501, 161.964035
942, 26.278372, 26.634430, 58.902348
943, 13.653836, 13.261757, 79.442993
944, 25.762550, 26.964928, 79.440010
945, 14.590060, 13.013322, 161.962219
946, 25.490133, 27.067873, 141.498474
947, 27.090878, 13.589641, 79.244080
948, 26.820560, 13.016317, 126.267822
949, 26.807724, 12.939809, 142.490509
950, 27.158680, 13.310308, 58.562176
951, 12.848652, 26.686052, 58.552742
952, 13.157557, 27.146049, 126.029305
953, 12.918409, 26.686539, 162.013382
954, 13.088346, 12.963018, 108.452179
955, 27.303570, 26.994907, 97.919067
956, 12.613850, 26.382170, 79.247955
957, 25.052275, 27.185005, 15.732655
958, 27.309542, 24.783587, 181.929459
959, 27.172659, 12.474930, 164.517227
960, 12.696064, 26.139559, 142.930466
961, 27.844749, 27.375952, 110.528572
962, 12.207077, 12.651108, 123.859825
963, 12.225179, 12.645801, 144.883957
964, 12.072069, 12.563300, 95.922958
965, 11.703154, 13.214794, 177.802826
966, 12.555544, 28.502674, 22.290859
967, 28.313231, 11.880181, 45.813465
968, 11.687737, 28.122213, 45.822514
969, 11.934345, 12.047932, 21.477600
970, 11.646963, 28.008661, 93.179749
971, 28.343391, 11.824739, 114.340271
972, 28.285841, 12.341890, 176.495575
973, 28.340635, 11.848161, 92.392517
974, 28.947437, 28.537722, 47.874359
975, 11.053863, 11.462709, 47.873348
976, 10.731341, 17.678984, 189.243774
977, 10.622344, 10.742840, 10.769758
978, 26.192991, 10.853414, 153.477951
979, 10.823705, 26.004677, 115.203568
980, 29.412846, 29.055073, 69.220085
981, 25.880819, 29.263231, 26.507589
982, 29.550894, 18.248175, 189.923950
983, 13.864605, 29.119623, 172.704254
984, 29.159294, 10.409479, 68.950867
985, 10.832023, 29.606956, 68.923920
986, 29.485973, 29.088135, 151.633392
987, 16.080000, 9.992599, 68.893166
988, 25.282661, 29.446621, 172.370972
989, 29.521044, 15.408241, 23.899725
990, 9.852107, 18.683868, 87.520065
991, 30.093107, 21.530109, 119.469780
992, 30.097523, 21.389040, 87.176254
993, 9.871279, 18.857197, 66.922684
994, 22.017387, 30.197798, 89.564262
995, 10.046354, 23.107969, 152.598831
996, 18.008411, 30.158846, 134.828033
997, 20.026922, 30.366602, 117.141518
998, 22.203629, 29.621983, 189.765991
999, 18.395323, 30.100204, 153.789520
1000, 29.642912, 18.776537, 134.408752
1001, 9.203967, 9.116207, 30.309965
1002, 10.106290, 18.936802, 169.254379
1003, 16.156303, 30.215399, 9.809128
1004, 10.019045, 19.109770, 28.554321
1005, 18.140774, 10.052075, 88.068314
1006, 19.170643, 9.706830, 28.262270
1007, 30.027178, 20.612074, 170.111984
1008, 19.427826, 9.742373, 171.988113
1009, 19.684895, 30.089445, 51.814217
1010, 20.319838, 9.908865, 51.817554
1011, 18.578480, 9.811309, 116.434578
1012, 30.636709, 21.566547, 9.751820
1013, 10.441460, 9.655346, 134.366623
1014, 30.079300, 19.265661, 149.583771
1015, 30.153736, 19.771072, 65.581413
1016, 22.505470, 9.188114, 134.357880
1017, 20.202271, 30.270630, 65.814087
1018, 9.704474, 20.445333, 51.636364
1019, 30.292669, 19.552416, 51.638920
1020, 9.701540, 9.356636, 154.011017
1021, 9.503653, 23.447645, 134.196136
1022, 29.276279, 9.373075, 185.780731
1023, 29.869694, 31.149563, 120.457642
1024, 20.722605, 8.922992, 97.682175
1025, 9.315749, 30.456703, 190.770935
1026, 8.911386, 19.748232, 42.131683
1027, 31.092001, 20.255915, 42.139526
1028, 8.640764, 8.918147, 191.365204
1029, 30.914963, 30.992767, 86.330811
1030, 9.972519, 8.896767, 169.357697
1031, 30.976233, 22.226812, 30.354221
1032, 31.063042, 19.052828, 158.972046
1033, 30.472006, 31.054472, 8.921568
1034, 18.817013, 31.120668, 98.498077
1035, 8.832851, 8.876152, 115.858231
1036, 17.940056, 19.270452, 98.666618
1037, 30.891748, 31.004385, 134.833969
1038, 18.915852, 21.221937, 191.258469
1039, 8.947276, 8.626999, 88.093971
1040, 19.873489, 31.188581, 42.545902
1041, 20.126354, 8.810541, 42.552792
1042, 30.478966, 8.416245, 8.622056
1043, 31.118359, 8.820608, 100.761932
1044, 31.152821, 20.812452, 74.849525
1045, 31.503933, 31.519445, 32.997372
1046, 8.628966, 18.944422, 101.663994
1047, 21.579767, 20.410984, 8.785095
1048, 19.504728, 20.467871, 60.071285
1049, 21.671865, 18.779430, 160.618500
1050, 19.666206, 9.053749, 8.769212
1051, 22.063982, 18.149414, 39.705414
1052, 31.134651, 18.896849, 109.166481
1053, 31.477747, 31.441715, 191.441879
1054, 20.236076, 19.647089, 80.392685
1055, 19.682098, 31.791294, 165.446426
1056, 20.546291, 19.566980, 126.166924
1057, 31.583986, 9.876036, 135.307526
1058, 19.048523, 31.295534, 74.881966
1059, 8.869551, 21.878576, 177.792923
1060, 21.507675, 8.342803, 107.989784
1061, 20.567694, 19.524513, 142.580994
1062, 31.180941, 18.745680, 97.638412
1063, 20.224735, 8.749914, 19.152582
1064, 31.245781, 8.492371, 18.388792
1065, 20.147654, 8.825236, 147.045578
1066, 8.093659, 31.793423, 103.435333
1067, 20.161497, 31.328615, 108.261703
1068, 8.695220, 31.389771, 149.152802
1069, 20.459965, 8.214146, 76.671013
1070, 21.429756, 21.599672, 108.524284
1071, 8.722711, 20.606384, 121.950264
1072, 8.329370, 19.387053, 75.707176
1073, 31.533104, 31.978308, 103.909073
1074, 8.548235, 8.049307, 102.665001
1075, 8.381083, 31.369095, 14.602175
1076, 8.021553, 31.549170, 137.606369
1077, 32.227657, 7.961459, 27.571505
1078, 8.132033, 18.672388, 159.971436
1079, 20.493938, 8.226466, 61.420914
1080, 9.185545, 8.065310, 73.965271
1081, 7.979259, 7.760571, 55.147869
1082, 7.905456, 17.853880, 113.633202
1083, 8.221566, 21.181273, 20.244604
1084, 31.968876, 32.263424, 55.138531
1085, 21.359035, 31.300306, 180.238846
1086, 8.622814, 7.982746, 40.251553
1087, 7.933383, 30.247435, 85.566261
1088, 9.139927, 7.990111, 64.012787
1089, 19.047798, 31.801348, 145.179214
1090, 17.410439, 8.232448, 191.214233
1091, 19.648798, 8.247765, 124.940201
1092, 7.766440, 31.363834, 28.735340
1093, 20.662111, 32.051502, 32.696381
1094, 32.089447, 9.403051, 84.963402
1095, 31.393919, 31.763630, 19.981646
1096, 32.198914, 9.266208, 52.965443
1097, 20.323675, 31.779884, 125.565041
1098, 7.794445, 30.733280, 52.971184
1099, 18.141663, 8.586679, 155.495209
1100, 20.154421, 32.320854, 20.820536
1101, 8.279595, 31.755684, 179.389832
1102, 32.290993, 21.968983, 141.831360
1103, 31.540937, 31.752480, 178.300354
1104, 30.913574, 32.229698, 166.547180
1105, 7.566759, 20.332703, 7.589141
1106, 8.123955, 19.178383, 141.381607
1107, 31.640505, 22.029531, 18.490742
1108, 32.464962, 9.246117, 39.122440
1109, 7.537116, 30.757654, 39.129555
1110, 32.029610, 32.691483, 41.355408
1111, 21.828150, 8.068150, 179.943726
1112, 31.458643, 32.440369, 76.618736
1113, 20.068575, 20.818478, 180.621170
1114, 32.539597, 10.170151, 147.994278
1115, 31.341915, 32.478310, 144.169342
1116, 32.650387, 8.274804, 76.157616
1117, 25.027323, 11.933146, 192.164780
1118, 20.967846, 20.069059, 17.355711
1119, 32.382710, 8.733507, 158.922241
1120, 7.620575, 30.548761, 167.267456
1121, 32.714012, 8.166242, 61.847954
1122, 7.280637, 31.799095, 61.823017
1123, 7.335080, 18.498751, 59.186550
1124, 7.259245, 31.774101, 76.036896
1125, 16.477875, 7.833347, 139.767120
1126, 8.223426, 16.380665, 130.082626
1127, 32.609890, 9.948498, 121.192932
1128, 8.265054, 31.828707, 120.865746
1129, 20.491863, 7.702671, 164.095535
1130, 12.312000, 32.625874, 110.490730
1131, 7.472530, 30.886005, 157.353790
1132, 31.736073, 17.704851, 181.884384
1133, 15.895133, 31.951433, 84.346672
1134, 15.992787, 23.515106, 40.647671
1135, 31.735723, 7.922927, 170.084244
1136, 22.942406, 23.326595, 134.772125
1137, 17.263395, 20.302691, 33.300629
1138, 14.157099, 7.412953, 183.448700
1139, 32.396526, 20.994568, 127.170525
1140, 32.631840, 7.350026, 192.696442
1141, 32.547283, 32.574181, 158.462128
1142, 7.206360, 25.012180, 108.115654
1143, 13.629609, 16.280441, 154.690720
1144, 32.939953, 22.321632, 58.595524
1145, 7.157667, 30.924084, 129.695740
1146, 32.392925, 32.114506, 94.224876
1147, 15.277628, 16.041372, 7.493834
1148, 32.931286, 9.286839, 108.434334
1149, 7.117253, 23.834305, 185.441971
1150, 24.438147, 7.775359, 83.882706
1151, 7.341313, 33.022011, 7.019404
1152, 17.646336, 32.903511, 58.863800
1153, 23.501076, 33.185509, 158.800461
1154, 31.468241, 33.091217, 62.874516
1155, 7.208451, 12.448569, 184.352707
1156, 32.154037, 24.049780, 103.337883
1157, 8.970503, 7.464516, 161.649841
1158, 16.438044, 13.810514, 14.765276
1159, 23.454069, 14.259811, 65.332703
1160, 7.626698, 21.487194, 94.403221
1161, 23.334610, 28.002304, 7.206483
1162, 27.469452, 32.603035, 184.875473
1163, 19.193110, 24.053497, 165.740936
1164, 14.665643, 24.633284, 86.484627
1165, 25.459837, 7.151766, 119.867493
1166, 25.223253, 6.576672, 24.625340
1167, 7.128987, 17.021933, 148.769211
1168, 26.175928, 24.175137, 193.238388
1169, 32.737404, 24.314905, 176.385651
1170, 17.407934, 26.776901, 27.849981
1171, 21.753876, 7.237165, 35.139938
1172, 25.971367, 23.258007, 155.116440
1173, 6.939701, 14.716448, 16.250504
1174, 23.182285, 33.347610, 82.673454
1175, 17.282343, 26.671122, 16.634634
1176, 6.648072, 6.711298, 20.738285
1177, 7.180575, 22.211678, 35.025764
1178, 15.989738, 6.531522, 103.108070
1179, 32.524750, 24.911266, 187.554443
1180, 13.996839, 19.776106, 146.926041
1181, 13.857678, 23.434853, 72.293243
1182, 29.296293, 33.294147, 127.745285
1183, 25.289108, 15.501509, 86.417503
1184, 23.034462, 26.330912, 148.670090
1185, 14.211602, 20.903646, 110.734474
1186, 33.344658, 16.440071, 82.441238
1187, 7.754753, 6.734765, 179.197220
1188, 6.531882, 23.419365, 82.669205
1189, 23.727869, 25.165956, 121.095688
1190, 6.274911, 12.976444, 35.631248
1191, 12.210919, 23.960400, 192.933899
1192, 33.122318, 24.638382, 93.305107
1193, 6.694334, 12.764841, 82.237778
1194, 13.759858, 33.665951, 31.508287
1195, 25.959105, 13.853961, 6.641236
1196, 33.142220, 15.234929, 15.316651
1197, 15.309591, 6.574482, 56.227348
1198, 24.664934, 33.417202, 56.256573
1199, 23.121119, 14.148274, 72.861588
1200, 21.880018, 14.872333, 111.913986
1201, 33.226997, 25.924263, 80.016808
1202, 33.097321, 25.281094, 36.902187
1203, 26.292639, 19.599604, 176.568039
1204, 25.708992, 33.738033, 113.745384
1205, 32.761002, 33.014034, 111.250626
1206, 15.568439, 6.550914, 82.026672
1207, 23.789024, 33.558434, 138.166885
1208, 6.903797, 6.954872, 144.804153
1209, 10.147200, 6.406643, 127.562042
1210, 21.352066, 25.022997, 101.921204
1211, 15.630014, 24.405476, 65.100815
1212, 13.994286, 15.610641, 117.272270
1213, 15.705648, 32.613300, 187.437454
1214, 33.060020, 15.119990, 30.399239
1215, 6.670331, 24.569374, 63.415306
1216, 24.728577, 23.686394, 44.054237
1217, 15.271069, 16.315380, 44.053593
1218, 33.356228, 26.878490, 115.481735
1219, 23.487995, 25.815155, 72.416855
1220, 24.266455, 17.447798, 95.162224
1221, 13.921850, 23.928900, 6.715569
1222, 24.346001, 19.250935, 31.565012
1223, 33.491295, 25.184080, 162.169067
1224, 19.882320, 15.024302, 166.778336
1225, 14.198964, 6.202216, 92.926796
1226, 7.156280, 7.052251, 95.128227
1227, 33.767479, 16.423019, 165.318863
1228, 13.376015, 18.562557, 182.490952
1229, 6.896196, 33.191460, 21.640375
1230, 14.162191, 16.064968, 72.630836
1231, 26.866592, 22.316107, 24.143324
1232, 33.216183, 26.139126, 24.462606
1233, 21.504904, 33.212643, 13.726847
1234, 25.955151, 33.597023, 37.332752
1235, 24.428391, 33.484192, 102.651627
1236, 13.454419, 6.524288, 16.450748
1237, 33.016033, 6.937483, 179.433044
1238, 6.293671, 23.647694, 165.075867
1239, 16.466423, 6.393823, 131.279678
1240, 33.621403, 14.863791, 140.548370
1241, 6.193085, 31.739971, 96.354828
1242, 6.498308, 24.299995, 146.327667
1243, 21.652357, 14.270502, 121.297821
1244, 15.274258, 15.697005, 52.123714
1245, 14.484000, 6.817218, 34.781212
1246, 21.091263, 25.103075, 94.660767
1247, 33.670628, 15.424181, 60.959858
1248, 24.725378, 24.303692, 52.122997
1249, 32.517220, 7.200908, 128.266861
1250, 23.636913, 6.519711, 141.059952
1251, 6.529434, 12.687244, 68.965889
1252, 24.974344, 33.391693, 95.381416
1253, 17.940331, 13.518828, 103.087761
1254, 15.983827, 14.972351, 193.412796
1255, 18.889229, 14.300298, 177.625885
1256, 22.713247, 7.138649, 69.830688
1257, 17.633026, 23.812647, 157.316116
1258, 19.387178, 33.863754, 172.425064
1259, 23.839216, 33.470814, 150.370056
1260, 33.835690, 15.892408, 90.011055
1261, 33.804848, 15.979081, 116.661812
1262, 6.144993, 25.602322, 100.209602
1263, 14.202909, 33.518654, 38.719795
1264, 7.217941, 24.240124, 13.718310
1265, 14.389753, 6.644337, 176.220444
1266, 6.173469, 14.402490, 106.769073
1267, 13.734395, 6.307315, 120.587341
1268, 15.192596, 6.541061, 110.970718
1269, 22.054768, 16.529360, 54.546490
1270, 33.397167, 15.109618, 103.460114
1271, 24.236782, 33.931808, 47.838757
1272, 33.130859, 14.265436, 129.754410
1273, 15.767406, 6.070220, 47.837875
1274, 13.911676, 20.537750, 128.721985
1275, 6.286808, 6.788799, 109.418381
1276, 6.551326, 6.713864, 6.622224
1277, 25.819052, 6.911786, 55.450214
1278, 6.408499, 24.816982, 26.150589
1279, 12.270469, 33.359276, 143.177429
1280, 33.778683, 14.473454, 72.682014
1281, 33.318020, 14.120633, 154.084351
1282, 6.201324, 25.529409, 72.624207
1283, 24.451355, 24.196562, 65.447487
1284, 32.889938, 6.547348, 94.158386
1285, 13.436582, 6.304023, 148.210617
1286, 25.475290, 33.790745, 72.898666
1287, 29.608242, 6.630334, 33.622704
1288, 23.896536, 20.392942, 186.440887
1289, 6.276628, 14.113338, 120.068108
1290, 6.831382, 13.544726, 164.850250
1291, 33.724899, 24.424437, 155.048523
1292, 13.681220, 33.593636, 50.021114
1293, 23.651875, 15.772720, 136.783493
1294, 16.230701, 33.399845, 92.248322
1295, 14.179172, 33.008713, 158.833145
1296, 15.762708, 24.147276, 52.530392
1297, 14.878056, 18.563580, 20.844046
1298, 16.064310, 25.188263, 119.884460
1299, 13.840992, 34.113262, 127.454933
1300, 25.765356, 6.785525, 13.918613
1301, 19.319538, 25.819107, 129.234451
1302, 14.139463, 6.140301, 24.742458
1303, 6.341604, 14.196618, 52.502079
1304, 6.406072, 14.830491, 92.347488
1305, 7.001863, 12.263877, 140.043335
1306, 33.708996, 25.764406, 52.399231
1307, 26.108597, 20.782476, 113.717278
1308, 6.639688, 24.125910, 127.743958
1309, 33.015476, 15.100572, 7.573002
1310, 6.992648, 27.497557, 173.798386
1311, 21.520264, 24.981497, 84.834106
1312, 16.035982, 15.936831, 65.066933
1313, 33.803173, 24.538507, 134.357864
1314, 22.630344, 13.751765, 23.571613
1315, 14.872106, 33.794598, 16.268721
1316, 33.853516, 15.671678, 173.541748
1317, 33.730209, 26.617975, 169.782455

*ELEMENT, TYPE=C3D4, ELSET=ALL_ELEMENTS
1, 230, 1016, 948, 1091
2, 217, 973, 1005, 1024
3, 812, 977, 852, 1276
4, 923, 949, 978, 1065
5, 926, 1085, 983, 1113
6, 379, 1015, 980, 1144
7, 926, 988, 983, 1085
8, 728, 1018, 1098, 1123
9, 928, 962, 1056, 1091
10, 374, 967, 457, 1019
11, 728, 1123, 1098, 1215
12, 943, 921, 990, 1005
13, 928, 996, 960, 1136
14, 788, 719, 968, 1018
15, 728, 723, 1123, 1215
16, 238, 1119, 978, 1129
17, 923, 978, 949, 1014
18, 960, 996, 928, 1021
19, 230, 1091, 948, 1249
20, 948, 1016, 230, 1249
21, 928, 1056, 1016, 1091
22, 796, 979, 797, 1130
23, 242, 1129, 1008, 1135
24, 928, 962, 1091, 1239
25, 812, 1105, 977, 1276
26, 538, 523, 1045, 1095
27, 247, 1090, 1022, 1111
28, 998, 1191, 896, 1213
29, 650, 966, 1100, 1194
30, 379, 381, 980, 1015
31, 853, 977, 1105, 1276
32, 187, 977, 815, 1176
33, 945, 1078, 1002, 1163
34, 475, 1095, 1033, 1107
35, 956, 990, 943, 1164
36, 757, 1002, 965, 1030
37, 570, 568, 997, 1299
38, 178, 1193, 1039, 1206
39, 187, 815, 977, 1276
40, 852, 977, 812, 1105
41, 1098, 1123, 951, 1215
42, 964, 921, 990, 1036
43, 928, 960, 1061, 1136
44, 240, 1129, 242, 1135
45, 475, 1033, 1012, 1107
46, 943, 1054, 1005, 1150
47, 242, 1008, 972, 1135
48, 1002, 1078, 953, 1163
49, 187, 815, 698, 1176
50, 921, 964, 1005, 1220
51, 230, 227, 1091, 1249
52, 979, 797, 1130, 1142
53, 178, 1080, 1193, 1206
54, 796, 1128, 979, 1130
55, 972, 1007, 959, 1224
56, 570, 663, 568, 1299
57, 564, 1066, 1034, 1067
58, 956, 943, 1054, 1164
59, 217, 1005, 973, 1150
60, 523, 442, 1045, 1095
61, 990, 1036, 921, 1160
62, 943, 921, 1005, 1054
63, 1097, 1182, 573, 1207
64, 943, 1069, 1054, 1150
65, 944, 992, 947, 1044
66, 556, 1124, 1058, 1133
67, 972, 1203, 1007, 1224
68, 564, 1066, 1067, 1130
69, 988, 1085, 926, 1113
70, 719, 968, 1018, 1026
71, 951, 1098, 1018, 1123
72, 374, 967, 1019, 1027
73, 964, 1036, 990, 1160
74, 1023, 1139, 425, 1182
75, 949, 923, 1061, 1065
76, 947, 992, 944, 1054
77, 853, 1105, 812, 1276
78, 178, 1039, 276, 1206
79, 704, 812, 852, 1276
80, 552, 1017, 985, 1152
81, 897, 1191, 1025, 1213
82, 208, 1121, 1079, 1256
83, 964, 1024, 1005, 1220
84, 1016, 1056, 948, 1091
85, 292, 286, 701, 975
86, 879, 977, 853, 1276
87, 972, 1008, 242, 1111
88, 538, 1045, 981, 1095
89, 515, 356, 636, 974
90, 757, 965, 849, 1030
91, 897, 896, 1191, 1213
92, 506, 1012, 475, 1033
93, 582, 1055, 983, 1120
94, 876, 812, 704, 1276
95, 921, 1036, 964, 1220
96, 926, 983, 1059, 1113
97, 938, 1006, 935, 1222
98, 943, 990, 956, 1072
99, 323, 1065, 1114, 1250
100, 983, 1085, 587, 1101
101, 552, 554, 985, 1017
102, 403, 405, 496, 1291
103, 879, 853, 876, 1276
104, 256, 1057, 949, 1114
105, 933, 1139, 1023, 1182
106, 323, 1065, 978, 1114
107, 935, 1001, 1004, 1006
108, 1027, 1108, 938, 1214
109, 405, 403, 1014, 1291
110, 965, 1002, 757, 1059
111, 217, 219, 973, 1024
112, 292, 975, 701, 1081
113, 636, 974, 356, 1084
114, 1022, 1090, 930, 1111
115, 1022, 1090, 247, 1117
116, 238, 325, 1119, 1129
117, 1079, 1121, 984, 1256
118, 997, 1128, 568, 1130
119, 927, 1006, 1004, 1297
120, 947, 1044, 992, 1186
121, 970, 921, 1036, 1160
122, 1049, 1099, 978, 1129
123, 1002, 1008, 926, 1255
124, 959, 1049, 978, 1129
125, 1006, 1137, 935, 1222
126, 370, 1108, 1027, 1214
127, 810, 968, 719, 1026
128, 465, 967, 374, 1027
129, 965, 1008, 1002, 1255
130, 397, 425, 1023, 1139
131, 949, 1057, 256, 1250
132, 223, 1060, 971, 1148
133, 1005, 1150, 1054, 1183
134, 515, 356, 974, 1110
135, 960, 999, 995, 1180
136, 960, 999, 1180, 1184
137, 636, 630, 515, 974
138, 227, 1165, 1091, 1249
139, 286, 292, 205, 975
140, 796, 797, 683, 1130
141, 256, 1114, 949, 1250
142, 573, 1097, 571, 1182
143, 926, 1008, 1002, 1224
144, 964, 990, 921, 1005
145, 1007, 1203, 926, 1224
146, 496, 1102, 986, 1115
147, 662, 1128, 796, 1130
148, 979, 1067, 997, 1185
149, 374, 465, 457, 967
150, 221, 1043, 1024, 1060
151, 935, 1006, 1004, 1137
152, 292, 701, 826, 1081
153, 636, 356, 480, 1084
154, 1041, 1108, 201, 1171
155, 442, 1045, 1095, 1232
156, 972, 926, 1203, 1224
157, 1034, 1066, 931, 1067
158, 719, 810, 788, 968
159, 927, 1175, 1100, 1231
160, 1067, 1070, 997, 1185
161, 342, 967, 170, 1096
162, 923, 1014, 949, 1061
163, 587, 1101, 1085, 1213
164, 1004, 1006, 927, 1137
165, 969, 1004, 1006, 1297
166, 687, 968, 529, 1098
167, 609, 1017, 553, 1154
168, 853, 812, 876, 1276
169, 759, 965, 757, 1059
170, 293, 1035, 836, 1209
171, 1139, 1182, 933, 1313
172, 786, 1001, 969, 1004
173, 201, 1171, 1108, 1287
174, 945, 1163, 1049, 1257
175, 950, 1015, 942, 1048
176, 1091, 1165, 948, 1249
177, 928, 1091, 1016, 1239
178, 978, 1119, 959, 1129
179, 1054, 1069, 947, 1150
180, 931, 970, 1036, 1160
181, 963, 1061, 928, 1106
182, 935, 1006, 938, 1171
183, 397, 1023, 991, 1139
184, 1100, 927, 1170, 1175
185, 940, 1059, 983, 1113
186, 956, 1072, 990, 1188
187, 797, 1066, 683, 1130
188, 992, 1192, 994, 1246
189, 457, 1019, 967, 1096
190, 928, 1056, 962, 1274
191, 944, 1044, 947, 1054
192, 716, 1004, 969, 1083
193, 788, 1018, 968, 1098
194, 996, 1097, 573, 1207
195, 1100, 1170, 927, 1231
196, 928, 1013, 962, 1239
197, 273, 171, 1013, 1305
198, 797, 796, 777, 979
199, 901, 1117, 1038, 1168
200, 964, 1036, 1024, 1220
201, 897, 1025, 887, 1213
202, 1002, 1008, 965, 1030
203, 465, 967, 1027, 1108
204, 1066, 1130, 797, 1142
205, 187, 698, 189, 1176
206, 1017, 1154, 609, 1286
207, 810, 968, 1026, 1109
208, 793, 1106, 1021, 1242
209, 853, 977, 879, 1105
210, 971, 1060, 223, 1165
211, 970, 921, 1160, 1164
212, 650, 616, 966, 1194
213, 1033, 1095, 957, 1107
214, 931, 1036, 1046, 1160
215, 967, 1010, 203, 1277
216, 587, 1085, 983, 1258
217, 928, 1016, 1056, 1293
218, 825, 1026, 975, 1086
219, 969, 1004, 1001, 1006
220, 938, 1031, 1027, 1214
221, 342, 170, 967, 1108
222, 457, 967, 342, 1096
223, 553, 1017, 609, 1286
224, 897, 887, 896, 1213
225, 786, 716, 823, 1004
226, 887, 998, 896, 1213
227, 582, 1055, 1120, 1295
228, 890, 976, 813, 1191
229, 376, 374, 457, 1019
230, 344, 1057, 1114, 1240
231, 203, 1010, 967, 1041
232, 960, 928, 1061, 1106
233, 529, 968, 687, 1109
234, 942, 1015, 950, 1144
235, 931, 1067, 1066, 1130
236, 959, 1119, 325, 1129
237, 425, 1182, 1139, 1313
238, 788, 968, 687, 1098
239, 788, 721, 719, 1018
240, 948, 1056, 1016, 1293
241, 994, 1192, 955, 1246
242, 963, 928, 1061, 1125
243, 930, 1090, 1022, 1117
244, 312, 973, 217, 1284
245, 217, 973, 312, 1150
246, 582, 983, 1055, 1258
247, 570, 997, 1097, 1299
248, 518, 986, 497, 1141
249, 1065, 1143, 923, 1180
250, 793, 1021, 1076, 1242
251, 678, 1109, 513, 1194
252, 300, 1090, 247, 1111
253, 978, 1099, 238, 1129
254, 796, 777, 979, 1128
255, 990, 1160, 921, 1164
256, 940, 983, 1085, 1113
257, 506, 416, 475, 1012
258, 499, 1162, 1103, 1179
259, 967, 1010, 925, 1041
260, 995, 999, 960, 1068
261, 479, 1027, 974, 1202
262, 1061, 1106, 963, 1180
263, 212, 1116, 1069, 1150
264, 1027, 1031, 938, 1222
265, 786, 969, 716, 1004
266, 970, 1160, 931, 1262
267, 942, 1144, 950, 1269
268, 942, 950, 1048, 1269
269, 939, 1123, 1048, 1244
270, 900, 1038, 901, 1117
271, 1048, 1244, 1123, 1296
272, 947, 1054, 1150, 1183
273, 922, 997, 1070, 1185
274, 1008, 1030, 1002, 1224
275, 948, 1243, 991, 1261
276, 422, 379, 381, 980
277, 342, 967, 457, 1108
278, 940, 1085, 1101, 1213
279, 856, 532, 873, 1151
280, 479, 974, 1110, 1202
281, 469, 352, 534, 1033
282, 242, 249, 972, 1111
283, 351, 1053, 1162, 1179
284, 963, 1143, 1065, 1180
285, 1008, 1129, 959, 1135
286, 1009, 1040, 925, 1296
287, 596, 1124, 556, 1133
288, 923, 978, 1049, 1099
289, 687, 968, 788, 1109
290, 1123, 1244, 1018, 1296
291, 992, 1054, 947, 1183
292, 999, 923, 1180, 1184
293, 925, 967, 1041, 1051
294, 784, 675, 1101, 1310
295, 973, 1094, 312, 1150
296, 957, 1100, 1175, 1231
297, 1128, 1298, 997, 1299
298, 582, 983, 617, 1120
299, 968, 1040, 1009, 1296
300, 312, 1094, 973, 1284
301, 552, 985, 595, 1152
302, 992, 1029, 994, 1192
303, 622, 573, 571, 1182
304, 949, 1125, 1061, 1293
305, 359, 466, 506, 1033
306, 985, 1122, 595, 1152
307, 949, 1065, 1061, 1125
308, 997, 1298, 1097, 1299
309, 941, 1032, 1007, 1049
310, 973, 1024, 219, 1284
311, 217, 1005, 218, 1024
312, 981, 1170, 1100, 1231
313, 926, 983, 1002, 1059
314, 951, 1152, 1048, 1296
315, 351, 1162, 499, 1179
316, 962, 1013, 928, 1126
317, 1024, 1043, 219, 1284
318, 959, 1008, 972, 1224
319, 252, 1121, 208, 1256
320, 1007, 1163, 1049, 1224
321, 325, 1119, 959, 1135
322, 636, 630, 974, 1084
323, 1034, 1066, 591, 1241
324, 960, 1089, 999, 1184
325, 1034, 1241, 591, 1294
326, 1046, 931, 1160, 1262
327, 1058, 1124, 956, 1133
328, 292, 205, 975, 1081
329, 240, 959, 1129, 1135
330, 931, 1036, 970, 1246
331, 926, 1228, 1059, 1255
332, 931, 970, 1034, 1246
333, 905, 982, 357, 1140
334, 306, 203, 967, 1041
335, 836, 1035, 770, 1209
336, 928, 963, 1106, 1305
337, 914, 1117, 982, 1140
338, 515, 974, 630, 1110
339, 952, 1298, 1128, 1299
340, 1048, 1123, 951, 1296
341, 622, 573, 1182, 1207
342, 991, 1243, 971, 1261
343, 946, 996, 960, 1089
344, 300, 1090, 1111, 1138
345, 184, 878, 859, 1050
346, 325, 240, 959, 1129
347, 352, 536, 1033, 1095
348, 184, 977, 859, 1276
349, 952, 1097, 1298, 1299
350, 843, 1078, 1020, 1167
351, 861, 639, 856, 1003
352, 995, 999, 923, 1180
353, 523, 442, 635, 1045
354, 1118, 1175, 927, 1231
355, 967, 1041, 938, 1108
356, 921, 970, 1036, 1246
357, 1061, 1065, 923, 1180
358, 225, 223, 1060, 1165
359, 901, 982, 1117, 1168
360, 849, 757, 759, 965
361, 466, 1012, 506, 1033
362, 972, 1008, 926, 1224
363, 252, 984, 1121, 1256
364, 544, 650, 966, 1100
365, 242, 972, 249, 1135
366, 941, 1049, 1007, 1163
367, 291, 247, 1090, 1117
368, 720, 975, 825, 1026
369, 928, 960, 1021, 1106
370, 223, 971, 248, 1148
371, 475, 1012, 416, 1107
372, 1007, 1032, 959, 1049
373, 184, 859, 977, 1050
374, 375, 974, 479, 1027
375, 171, 1208, 1013, 1305
376, 650, 1100, 1093, 1194
377, 945, 1163, 1002, 1224
378, 980, 1154, 1017, 1286
379, 1059, 1228, 965, 1255
380, 459, 309, 984, 1121
381, 529, 1098, 968, 1292
382, 236, 978, 323, 1065
383, 979, 1130, 1067, 1185
384, 940, 1085, 983, 1101
385, 582, 1120, 671, 1295
386, 432, 1139, 1127, 1272
387, 170, 967, 306, 1096
388, 475, 352, 1033, 1095
389, 370, 1027, 1202, 1214
390, 833, 1046, 964, 1304
391, 956, 1058, 1054, 1219
392, 352, 536, 534, 1033
393, 752, 995, 774, 1078
394, 774, 1078, 995, 1131
395, 779, 1087, 1160, 1188
396, 956, 1054, 1181, 1219
397, 562, 1034, 591, 1294
398, 696, 655, 985, 1122
399, 437, 376, 1019, 1247
400, 1012, 1033, 957, 1107
401, 1069, 1116, 212, 1256
402, 225, 1060, 1011, 1165
403, 1044, 1199, 1054, 1219
404, 979, 1128, 997, 1130
405, 592, 1101, 675, 1310
406, 1065, 1099, 923, 1143
407, 943, 956, 1054, 1072
408, 938, 1108, 1041, 1171
409, 923, 1065, 978, 1099
410, 639, 532, 856, 1151
411, 942, 980, 1144, 1154
412, 922, 997, 1185, 1298
413, 770, 1209, 1035, 1289
414, 930, 976, 1090, 1254
415, 351, 1103, 499, 1162
416, 437, 1019, 1096, 1247
417, 1002, 1030, 757, 1290
418, 964, 1046, 833, 1074
419, 345, 1114, 324, 1119
420, 242, 245, 249, 1111
421, 490, 397, 425, 1023
422, 879, 1105, 977, 1147
423, 1031, 1202, 1027, 1214
424, 956, 1181, 1058, 1219
425, 942, 1048, 1015, 1283
426, 1054, 1058, 956, 1311
427, 686, 1039, 178, 1193
428, 906, 890, 813, 1191
429, 376, 1019, 457, 1096
430, 552, 554, 595, 985
431, 1061, 1125, 928, 1293
432, 451, 971, 348, 1127
433, 931, 1185, 1046, 1253
434, 997, 1067, 979, 1130
435, 721, 1018, 788, 1098
436, 1038, 1117, 982, 1168
437, 967, 1027, 938, 1051
438, 355, 980, 514, 1154
439, 960, 1021, 1106, 1242
440, 451, 348, 971, 1148
441, 926, 1163, 1007, 1224
442, 786, 822, 969, 1176
443, 284, 178, 686, 1039
444, 1037, 1182, 933, 1207
445, 944, 1058, 1054, 1311
446, 1061, 1065, 963, 1125
447, 286, 701, 975, 1086
448, 696, 528, 802, 985
449, 813, 976, 819, 1149
450, 889, 982, 1168, 1179
451, 958, 998, 1113, 1288
452, 967, 938, 1041, 1051
453, 241, 1030, 1008, 1129
454, 656, 985, 1058, 1124
455, 928, 1021, 996, 1301
456, 958, 1085, 988, 1113
457, 849, 1030, 965, 1187
458, 784, 673, 675, 1310
459, 1100, 1170, 1093, 1194
460, 997, 1023, 569, 1097
461, 957, 1175, 1118, 1231
462, 999, 1068, 578, 1089
463, 740, 979, 742, 1071
464, 930, 1090, 976, 1138
465, 950, 1144, 1019, 1269
466, 925, 1019, 967, 1216
467, 381, 980, 1015, 1044
468, 241, 244, 1030, 1129
469, 960, 1076, 1021, 1242
470, 1212, 1274, 1056, 1298
471, 716, 823, 1004, 1083
472, 224, 225, 223, 1060
473, 923, 1099, 1049, 1143
474, 639, 856, 1003, 1151
475, 998, 1085, 958, 1113
476, 940, 1085, 998, 1113
477, 696, 655, 528, 985
478, 914, 982, 905, 1140
479, 972, 1008, 959, 1135
480, 988, 1055, 583, 1104
481, 540, 538, 542, 1234
482, 980, 1015, 942, 1144
483, 843, 751, 1078, 1167
484, 538, 523, 635, 1045
485, 289, 1069, 211, 1080
486, 205, 286, 975, 1086
487, 827, 1088, 1081, 1123
488, 930, 1138, 976, 1228
489, 992, 1220, 1192, 1246
490, 938, 1027, 967, 1108
491, 936, 1170, 981, 1222
492, 960, 1106, 1061, 1180
493, 948, 1056, 1000, 1139
494, 980, 1044, 483, 1201
495, 518, 334, 497, 986
496, 931, 1034, 970, 1066
497, 926, 1113, 1059, 1228
498, 1029, 1146, 994, 1192
499, 931, 1046, 1036, 1253
500, 988, 1113, 926, 1203
501, 843, 751, 753, 1078
502, 1096, 1269, 967, 1277
503, 955, 994, 1146, 1192
504, 966, 1170, 1100, 1194
505, 960, 1068, 999, 1089
506, 403, 1102, 496, 1115
507, 211, 1069, 987, 1080
508, 224, 1011, 225, 1060
509, 821, 977, 1173, 1176
510, 310, 212, 1116, 1256
511, 970, 1241, 1034, 1294
512, 958, 1113, 988, 1203
513, 777, 795, 1071, 1128
514, 702, 813, 890, 976
515, 1007, 1049, 959, 1224
516, 978, 923, 1049, 1172
517, 935, 938, 1051, 1171
518, 538, 1045, 542, 1234
519, 597, 1128, 662, 1130
520, 941, 1007, 988, 1163
521, 861, 531, 1003, 1161
522, 950, 1269, 1096, 1277
523, 991, 1056, 948, 1139
524, 777, 742, 740, 979
525, 619, 334, 518, 986
526, 981, 1095, 1045, 1232
527, 1071, 1274, 1212, 1298
528, 779, 1160, 732, 1188
529, 375, 974, 1027, 1306
530, 488, 961, 1156, 1218
531, 275, 209, 1079, 1088
532, 314, 219, 1043, 1284
533, 855, 1012, 466, 1033
534, 855, 466, 359, 1033
535, 1079, 1121, 208, 1277
536, 942, 1048, 1017, 1152
537, 931, 1067, 1130, 1185
538, 976, 1149, 813, 1191
539, 777, 1071, 979, 1128
540, 1000, 1056, 948, 1293
541, 582, 617, 983, 1258
542, 437, 1019, 376, 1096
543, 465, 457, 967, 1108
544, 249, 972, 1111, 1237
545, 937, 1093, 1134, 1137
546, 720, 975, 1026, 1303
547, 179, 1001, 685, 1086
548, 434, 973, 1043, 1062
549, 933, 1000, 1056, 1139
550, 592, 1120, 983, 1310
551, 949, 1114, 1065, 1250
552, 500, 1103, 508, 1104
553, 998, 940, 1113, 1288
554, 986, 1102, 1014, 1184
555, 179, 287, 685, 1001
556, 656, 1058, 556, 1124
557, 810, 788, 968, 1109
558, 539, 981, 1093, 1100
559, 312, 217, 254, 1284
560, 178, 284, 276, 1039
561, 960, 1061, 946, 1089
562, 488, 1156, 393, 1218
563, 978, 1049, 1032, 1172
564, 929, 1156, 1062, 1210
565, 248, 971, 223, 1165
566, 861, 1003, 856, 1161
567, 987, 1079, 209, 1088
568, 1010, 967, 1269, 1277
569, 972, 930, 1132, 1203
570, 531, 1003, 1161, 1233
571, 721, 728, 1018, 1098
572, 1070, 1156, 929, 1210
573, 889, 467, 982, 1179
574, 946, 1102, 1061, 1293
575, 1018, 1217, 968, 1296
576, 1024, 1043, 929, 1060
577, 946, 1061, 1136, 1293
578, 554, 985, 1017, 1058
579, 973, 1043, 1024, 1284
580, 925, 1051, 1041, 1217
581, 531, 639, 861, 1003
582, 539, 1093, 650, 1100
583, 451, 1148, 971, 1261
584, 986, 946, 1102, 1184
585, 699, 524, 1025, 1101
586, 1018, 951, 1123, 1296
587, 949, 1114, 1057, 1240
588, 970, 1066, 1034, 1241
589, 928, 1106, 1021, 1126
590, 586, 583, 1055, 1104
591, 774, 1078, 1131, 1238
592, 979, 1185, 997, 1298
593, 946, 1136, 1102, 1293
594, 949, 1061, 1014, 1102
595, 659, 688, 1087, 1241
596, 858, 1151, 1105, 1221
597, 469, 475, 352, 1033
598, 786, 969, 1001, 1176
599, 592, 983, 1101, 1310
600, 793, 748, 1106, 1242
601, 1030, 1129, 244, 1157
602, 968, 1217, 1134, 1296
603, 924, 1015, 1044, 1199
604, 890, 976, 913, 1028
605, 201, 1108, 250, 1287
606, 791, 668, 1068, 1279
607, 324, 1114, 257, 1119
608, 925, 1040, 1009, 1216
609, 983, 1002, 953, 1163
610, 729, 1080, 1072, 1193
611, 357, 982, 429, 1140
612, 957, 1095, 1033, 1233
613, 822, 716, 786, 969
614, 925, 1041, 1010, 1217
615, 481, 1144, 379, 1154
616, 992, 1044, 944, 1201
617, 955, 1192, 1220, 1246
618, 451, 971, 1127, 1261
619, 979, 1071, 740, 1082
620, 980, 483, 1112, 1201
621, 936, 1093, 981, 1170
622, 900, 899, 901, 1038
623, 679, 532, 639, 1151
624, 1043, 1060, 277, 1148
625, 253, 1116, 212, 1150
626, 637, 609, 553, 1154
627, 972, 930, 1022, 1132
628, 293, 1035, 1209, 1267
629, 933, 996, 1136, 1207
630, 936, 1134, 1093, 1137
631, 928, 962, 1126, 1274
632, 434, 1043, 973, 1284
633, 775, 791, 1068, 1076
634, 702, 976, 890, 1028
635, 899, 901, 1038, 1168
636, 323, 234, 1065, 1250
637, 483, 980, 381, 1044
638, 746, 1021, 1106, 1126
639, 1103, 1104, 500, 1317
640, 943, 1005, 990, 1039
641, 963, 1065, 1061, 1180
642, 742, 979, 777, 1071
643, 992, 1246, 994, 1311
644, 977, 1105, 852, 1173
645, 703, 1105, 1151, 1264
646, 1027, 938, 1051, 1222
647, 221, 277, 1043, 1060
648, 569, 1023, 997, 1204
649, 944, 1054, 1058, 1219
650, 716, 1083, 969, 1173
651, 746, 1106, 747, 1126
652, 997, 1070, 961, 1307
653, 673, 784, 1120, 1310
654, 613, 988, 583, 1104
655, 321, 230, 1016, 1249
656, 742, 777, 795, 1071
657, 609, 632, 514, 1154
658, 982, 1022, 429, 1140
659, 922, 1070, 997, 1307
660, 998, 1038, 896, 1191
661, 1132, 1203, 930, 1288
662, 587, 672, 1101, 1213
663, 646, 1085, 1162, 1213
664, 936, 1031, 1027, 1222
665, 578, 1089, 1068, 1279
666, 1102, 1136, 1000, 1293
667, 288, 1086, 1041, 1245
668, 936, 1027, 1031, 1202
669, 926, 988, 1007, 1163
670, 613, 508, 1103, 1104
671, 1017, 1152, 1048, 1211
672, 990, 1160, 1087, 1188
673, 1072, 1080, 729, 1251
674, 500, 508, 614, 1104
675, 584, 587, 983, 1258
676, 533, 640, 907, 1025
677, 775, 1076, 1068, 1242
678, 931, 1210, 1036, 1246
679, 1054, 1072, 956, 1181
680, 646, 1162, 998, 1213
681, 983, 988, 926, 1163
682, 497, 986, 427, 1141
683, 592, 675, 673, 1310
684, 837, 962, 1126, 1209
685, 779, 1087, 970, 1160
686, 953, 1002, 983, 1238
687, 928, 996, 1136, 1301
688, 434, 973, 1062, 1260
689, 171, 690, 1208, 1305
690, 578, 1068, 999, 1295
691, 824, 179, 685, 1086
692, 925, 967, 1051, 1216
693, 656, 985, 554, 1058
694, 989, 1031, 366, 1232
695, 955, 1210, 961, 1235
696, 300, 1111, 246, 1138
697, 1070, 1185, 931, 1253
698, 679, 639, 1003, 1151
699, 488, 1205, 961, 1218
700, 1041, 1086, 288, 1273
701, 962, 1209, 837, 1289
702, 223, 277, 1060, 1148
703, 933, 1136, 1037, 1207
704, 959, 1032, 978, 1049
705, 356, 974, 421, 1084
706, 361, 1042, 295, 1064
707, 330, 1022, 1117, 1140
708, 702, 819, 813, 976
709, 230, 255, 227, 1249
710, 925, 1134, 1040, 1216
711, 1036, 1070, 931, 1253
712, 963, 1065, 1143, 1285
713, 701, 975, 768, 1081
714, 924, 1044, 1015, 1219
715, 459, 341, 436, 984
716, 1018, 1026, 968, 1217
717, 1019, 1027, 967, 1216
718, 931, 1034, 1210, 1246
719, 650, 616, 544, 966
720, 926, 1002, 983, 1163
721, 996, 1076, 667, 1299
722, 976, 1090, 1028, 1138
723, 1033, 1095, 611, 1233
724, 564, 591, 1034, 1066
725, 783, 1101, 1025, 1149
726, 955, 1062, 1156, 1210
727, 465, 342, 457, 1108
728, 1072, 1181, 1054, 1230
729, 1105, 1221, 1151, 1264
730, 997, 1067, 961, 1070
731, 954, 1046, 1185, 1253
732, 582, 584, 617, 1258
733, 306, 967, 170, 1108
734, 484, 1029, 629, 1112
735, 1056, 1139, 991, 1189
736, 605, 569, 1023, 1097
737, 640, 998, 887, 1213
738, 592, 673, 1120, 1310
739, 990, 1005, 964, 1039
740, 1048, 1211, 1123, 1312
741, 586, 613, 583, 1104
742, 810, 1109, 1026, 1177
743, 480, 356, 421, 1084
744, 802, 803, 696, 985
745, 652, 968, 529, 1109
746, 810, 687, 788, 1109
747, 962, 1056, 1212, 1274
748, 925, 1134, 1217, 1296
749, 171, 261, 1013, 1208
750, 1099, 1143, 1065, 1285
751, 323, 1114, 256, 1250
752, 701, 768, 826, 1081
753, 654, 1122, 1098, 1152
754, 929, 1070, 1052, 1156
755, 943, 1072, 1054, 1230
756, 291, 247, 300, 1090
757, 264, 1028, 1138, 1187
758, 830, 1080, 729, 1193
759, 978, 1014, 923, 1172
760, 249, 1111, 245, 1237
761, 686, 178, 1080, 1193
762, 465, 1027, 370, 1108
763, 955, 1156, 961, 1210
764, 584, 983, 617, 1258
765, 970, 931, 1066, 1262
766, 925, 967, 1019, 1269
767, 929, 1060, 1043, 1148
768, 947, 1054, 1044, 1199
769, 426, 1102, 1037, 1313
770, 1037, 1102, 426, 1115
771, 703, 1105, 858, 1151
772, 951, 1123, 1048, 1211
773, 205, 1086, 975, 1273
774, 321, 1016, 1057, 1249
775, 361, 295, 181, 1064
776, 964, 1074, 833, 1226
777, 1137, 1170, 936, 1222
778, 837, 1126, 1013, 1209
779, 837, 1126, 962, 1289
780, 1028, 1155, 1138, 1187
781, 957, 981, 1100, 1231
782, 933, 1139, 1056, 1189
783, 531, 647, 639, 1233
784, 822, 1173, 969, 1176
785, 1048, 1152, 951, 1211
786, 1061, 1089, 960, 1184
787, 488, 1156, 961, 1205
788, 582, 617, 671, 1120
789, 950, 1079, 984, 1159
790, 359, 874, 855, 1033
791, 218, 1024, 1005, 1225
792, 573, 996, 572, 1097
793, 1069, 1199, 1116, 1256
794, 244, 1129, 239, 1157
795, 524, 677, 1025, 1101
796, 932, 1107, 1012, 1118
797, 942, 1015, 980, 1283
798, 942, 1009, 1248, 1296
799, 261, 1125, 1013, 1208
800, 793, 748, 1021, 1106
801, 955, 961, 1073, 1235
802, 791, 1068, 1076, 1279
803, 945, 1099, 1049, 1129
804, 429, 1022, 1132, 1237
805, 524, 643, 816, 1025
806, 942, 1248, 1048, 1296
807, 612, 351, 1053, 1162
808, 986, 1102, 946, 1115
809, 964, 1226, 833, 1304
810, 273, 840, 1013, 1209
811, 984, 1079, 950, 1121
812, 758, 757, 1002, 1059
813, 926, 1008, 972, 1255
814, 948, 1056, 991, 1243
815, 257, 1114, 978, 1119
816, 959, 1007, 972, 1316
817, 393, 1156, 1052, 1218
818, 1008, 1030, 241, 1265
819, 716, 969, 822, 1173
820, 947, 1116, 1069, 1199
821, 985, 951, 1122, 1152
822, 529, 968, 652, 1292
823, 976, 1028, 850, 1155
824, 330, 1117, 291, 1140
825, 816, 699, 524, 1025
826, 925, 1010, 967, 1269
827, 929, 1210, 1062, 1220
828, 1116, 1199, 984, 1256
829, 1015, 1048, 950, 1159
830, 425, 1037, 1182, 1313
831, 1026, 1134, 968, 1217
832, 1052, 1156, 961, 1218
833, 1000, 1136, 1056, 1293
834, 985, 951, 1152, 1211
835, 929, 971, 1060, 1148
836, 923, 999, 995, 1257
837, 640, 887, 1025, 1213
838, 946, 1089, 1061, 1184
839, 369, 1108, 370, 1214
840, 553, 1017, 1152, 1198
841, 613, 1103, 988, 1104
842, 1005, 1054, 921, 1183
843, 985, 1152, 1017, 1211
844, 530, 895, 998, 1053
845, 735, 1046, 833, 1304
846, 913, 1028, 976, 1254
847, 531, 639, 1003, 1233
848, 162, 266, 847, 1030
849, 758, 1002, 756, 1310
850, 945, 1143, 1078, 1257
851, 323, 978, 257, 1114
852, 571, 573, 572, 1097
853, 566, 567, 997, 1067
854, 442, 340, 635, 1045
855, 1061, 1102, 949, 1293
856, 248, 1127, 971, 1165
857, 945, 1002, 1030, 1224
858, 806, 1092, 513, 1109
859, 965, 1059, 759, 1155
860, 889, 1168, 1053, 1179
861, 961, 955, 1073, 1156
862, 926, 1113, 1228, 1255
863, 957, 1012, 1107, 1118
864, 942, 1017, 1154, 1198
865, 953, 1120, 1055, 1295
866, 275, 1088, 1079, 1197
867, 933, 1056, 1000, 1136
868, 566, 1067, 997, 1130
869, 944, 1044, 1054, 1219
870, 989, 366, 1107, 1232
871, 978, 1032, 1014, 1172
872, 1069, 1116, 947, 1150
873, 513, 1109, 1092, 1194
874, 505, 1045, 1031, 1202
875, 179, 198, 287, 1001
876, 992, 1186, 1044, 1201
877, 983, 1085, 988, 1258
878, 291, 910, 186, 1140
879, 813, 1149, 1025, 1191
880, 587, 592, 983, 1101
881, 1049, 1163, 945, 1224
882, 982, 1022, 930, 1288
883, 301, 1063, 1050, 1236
884, 1127, 1139, 948, 1272
885, 613, 614, 508, 1104
886, 265, 241, 1030, 1265
887, 1098, 1122, 728, 1215
888, 916, 889, 982, 1168
889, 378, 1019, 376, 1247
890, 308, 208, 1121, 1277
891, 479, 373, 1027, 1202
892, 867, 1012, 882, 1047
893, 719, 1018, 720, 1026
894, 238, 978, 236, 1099
895, 901, 982, 914, 1117
896, 936, 1137, 1093, 1170
897, 375, 479, 974, 1306
898, 366, 1031, 989, 1214
899, 944, 1054, 992, 1311
900, 1059, 1149, 760, 1155
901, 758, 1059, 1002, 1310
902, 1050, 1063, 301, 1300
903, 198, 1001, 179, 1086
904, 374, 1019, 375, 1027
905, 702, 850, 976, 1028
906, 289, 1069, 1080, 1206
907, 553, 1152, 551, 1198
908, 992, 921, 1246, 1311
909, 570, 997, 569, 1097
910, 932, 989, 1107, 1118
911, 300, 247, 246, 1111
912, 930, 1203, 972, 1255
913, 616, 649, 966, 1229
914, 952, 1021, 996, 1145
915, 396, 432, 398, 1139
916, 652, 968, 1109, 1263
917, 592, 584, 587, 983
918, 827, 724, 789, 1123
919, 869, 977, 859, 1050
920, 795, 1071, 1128, 1308
921, 646, 1085, 588, 1162
922, 966, 1170, 1004, 1297
923, 1056, 922, 1212, 1298
924, 763, 976, 850, 1155
925, 568, 566, 997, 1130
926, 806, 513, 805, 1109
927, 654, 1152, 1098, 1292
928, 936, 1027, 1051, 1222
929, 878, 869, 859, 1050
930, 240, 242, 269, 1135
931, 616, 1092, 966, 1194
932, 959, 1032, 1007, 1227
933, 646, 588, 1085, 1213
934, 640, 887, 907, 1025
935, 633, 1087, 970, 1241
936, 366, 1031, 477, 1232
937, 485, 1029, 992, 1192
938, 995, 1257, 999, 1295
939, 620, 1207, 1115, 1259
940, 759, 1059, 760, 1155
941, 962, 1212, 1071, 1274
942, 940, 1191, 1038, 1213
943, 217, 218, 219, 1024
944, 802, 985, 528, 1124
945, 514, 980, 355, 1112
946, 566, 567, 568, 997
947, 1099, 1129, 945, 1157
948, 758, 759, 757, 1059
949, 808, 687, 529, 1098
950, 1081, 1088, 939, 1123
951, 1012, 1047, 867, 1195
952, 973, 1260, 434, 1284
953, 842, 1020, 271, 1208
954, 225, 248, 223, 1165
955, 214, 211, 987, 1080
956, 568, 569, 570, 997
957, 783, 699, 1025, 1101
958, 387, 485, 992, 1192
959, 997, 1128, 979, 1298
960, 671, 1120, 1131, 1295
961, 827, 789, 1088, 1123
962, 1048, 1123, 939, 1312
963, 1011, 1060, 971, 1165
964, 818, 702, 909, 1028
965, 282, 828, 1080, 1088
966, 928, 1274, 1021, 1301
967, 341, 984, 169, 1116
968, 1046, 1074, 964, 1253
969, 539, 540, 650, 1093
970, 956, 990, 1164, 1188
971, 578, 1068, 669, 1279
972, 933, 996, 1097, 1301
973, 683, 1066, 510, 1130
974, 999, 1068, 995, 1131
975, 381, 1015, 382, 1044
976, 524, 672, 677, 1101
977, 954, 1074, 1046, 1253
978, 747, 1126, 1106, 1305
979, 1078, 1143, 1020, 1167
980, 282, 281, 828, 1088
981, 1022, 1132, 930, 1288
982, 770, 837, 1209, 1289
983, 998, 1162, 1085, 1213
984, 935, 1086, 1041, 1217
985, 953, 983, 1120, 1238
986, 1021, 1076, 996, 1145
987, 921, 1220, 992, 1246
988, 905, 357, 892, 1140
989, 619, 334, 986, 1115
990, 429, 1022, 982, 1132
991, 858, 703, 881, 1105
992, 955, 1062, 1210, 1220
993, 995, 953, 1257, 1295
994, 982, 1132, 1022, 1288
995, 887, 640, 530, 998
996, 1005, 1024, 973, 1220
997, 998, 1038, 1191, 1213
998, 370, 1202, 1031, 1214
999, 1123, 1211, 993, 1312
1000, 913, 976, 890, 1254
1001, 976, 1138, 1028, 1155
1002, 287, 177, 785, 1001
1003, 908, 360, 889, 1053
1004, 978, 1065, 949, 1114
1005, 171, 261, 273, 1013
1006, 994, 1029, 992, 1311
1007, 1151, 1221, 1075, 1264
1008, 825, 975, 720, 1303
1009, 945, 1129, 1030, 1157
1010, 703, 1151, 817, 1264
1011, 495, 517, 1037, 1115
1012, 633, 659, 1087, 1241
1013, 583, 1055, 988, 1258
1014, 597, 568, 1128, 1130
1015, 927, 1006, 1297, 1314
1016, 971, 1243, 991, 1307
1017, 531, 1161, 1033, 1233
1018, 404, 1114, 1014, 1240
1019, 197, 184, 977, 1050
1020, 995, 1078, 953, 1131
1021, 347, 623, 1023, 1182
1022, 398, 1139, 432, 1272
1023, 998, 1038, 940, 1288
1024, 961, 1156, 1070, 1210
1025, 214, 987, 209, 1088
1026, 574, 1089, 996, 1207
1027, 505, 443, 1031, 1045
1028, 1119, 1135, 413, 1227
1029, 990, 732, 1160, 1188
1030, 168, 1119, 325, 1135
1031, 956, 1058, 1133, 1311
1032, 771, 1013, 840, 1209
1033, 953, 1131, 1078, 1238
1034, 512, 659, 688, 1087
1035, 1027, 1051, 967, 1216
1036, 892, 357, 472, 1140
1037, 1044, 924, 1199, 1219
1038, 574, 996, 1089, 1279
1039, 249, 1135, 972, 1237
1040, 562, 564, 591, 1034
1041, 849, 965, 759, 1155
1042, 1040, 1093, 936, 1134
1043, 929, 1024, 973, 1043
1044, 437, 378, 376, 1247
1045, 984, 436, 1247, 1280
1046, 889, 1053, 467, 1179
1047, 257, 978, 238, 1119
1048, 774, 752, 790, 995
1049, 939, 1048, 1079, 1269
1050, 974, 936, 1202, 1216
1051, 974, 936, 1110, 1202
1052, 1035, 1209, 962, 1289
1053, 1044, 1199, 1015, 1280
1054, 720, 1026, 1018, 1303
1055, 740, 1071, 742, 1082
1056, 184, 859, 298, 1276
1057, 362, 1022, 296, 1140
1058, 1003, 1075, 1151, 1221
1059, 787, 673, 784, 1120
1060, 791, 1076, 668, 1279
1061, 976, 1138, 1155, 1228
1062, 347, 1023, 623, 1205
1063, 833, 1074, 1046, 1266
1064, 529, 653, 808, 1098
1065, 949, 1065, 1125, 1250
1066, 197, 1050, 977, 1236
1067, 497, 334, 427, 986
1068, 518, 603, 619, 986
1069, 617, 983, 592, 1120
1070, 1115, 1207, 1089, 1259
1071, 923, 1014, 1061, 1184
1072, 686, 831, 284, 1039
1073, 612, 351, 535, 1053
1074, 685, 1086, 1001, 1190
1075, 870, 858, 1105, 1221
1076, 998, 940, 1038, 1213
1077, 688, 800, 512, 1087
1078, 266, 847, 1030, 1157
1079, 936, 974, 1110, 1234
1080, 530, 895, 887, 998
1081, 214, 289, 211, 1080
1082, 620, 1089, 1207, 1259
1083, 779, 1160, 970, 1241
1084, 1061, 960, 1180, 1184
1085, 499, 1103, 1169, 1179
1086, 999, 1131, 995, 1295
1087, 966, 1175, 1170, 1297
1088, 949, 1250, 1125, 1293
1089, 982, 1117, 1038, 1288
1090, 810, 1026, 715, 1177
1091, 895, 645, 891, 1053
1092, 585, 988, 601, 1085
1093, 962, 1209, 1035, 1267
1094, 992, 1029, 485, 1201
1095, 633, 970, 1087, 1294
1096, 585, 988, 1085, 1258
1097, 869, 879, 859, 977
1098, 909, 702, 890, 1028
1099, 900, 1038, 1117, 1254
1100, 413, 1119, 468, 1135
1101, 965, 1155, 849, 1187
1102, 1001, 1004, 786, 1190
1103, 771, 837, 1013, 1209
1104, 888, 291, 1117, 1140
1105, 1056, 1091, 962, 1243
1106, 1095, 1100, 537, 1233
1107, 375, 1027, 1019, 1306
1108, 971, 929, 1052, 1148
1109, 681, 162, 847, 1030
1110, 1012, 1047, 932, 1118
1111, 363, 361, 181, 1064
1112, 938, 989, 1166, 1314
1113, 1000, 948, 1057, 1293
1114, 882, 1047, 1012, 1161
1115, 926, 972, 1203, 1255
1116, 367, 370, 1031, 1214
1117, 953, 995, 1131, 1295
1118, 1092, 1109, 714, 1177
1119, 616, 649, 544, 966
1120, 1037, 933, 1182, 1313
1121, 1048, 1159, 1079, 1269
1122, 955, 1146, 994, 1252
1123, 752, 1078, 751, 1167
1124, 1054, 1199, 924, 1219
1125, 236, 323, 234, 1065
1126, 601, 1085, 988, 1103
1127, 996, 1145, 1076, 1299
1128, 251, 170, 306, 1096
1129, 551, 637, 553, 1198
1130, 939, 1079, 1048, 1312
1131, 442, 443, 1045, 1232
1132, 709, 1229, 1083, 1264
1133, 1087, 1164, 990, 1188
1134, 646, 998, 640, 1213
1135, 975, 1081, 205, 1273
1136, 957, 1047, 1012, 1118
1137, 959, 972, 1135, 1316
1138, 937, 1093, 1040, 1134
1139, 756, 758, 757, 1002
1140, 382, 1044, 1015, 1280
1141, 974, 1084, 630, 1271
1142, 924, 1219, 1015, 1283
1143, 927, 1137, 1006, 1222
1144, 242, 241, 1008, 1129
1145, 678, 593, 513, 1109
1146, 1016, 1057, 948, 1293
1147, 250, 201, 306, 1108
1148, 984, 436, 1121, 1247
1149, 369, 462, 1108, 1287
1150, 774, 995, 790, 1131
1151, 351, 470, 535, 1053
1152, 422, 481, 379, 1154
1153, 895, 904, 998, 1053
1154, 1089, 1115, 946, 1207
1155, 931, 1070, 1067, 1185
1156, 378, 1144, 1019, 1247
1157, 1170, 1175, 927, 1297
1158, 763, 702, 850, 976
1159, 1079, 1159, 1048, 1312
1160, 978, 1065, 236, 1099
1161, 1087, 1124, 596, 1133
1162, 1107, 1118, 989, 1231
1163, 488, 1073, 1156, 1205
1164, 508, 500, 502, 1103
1165, 1016, 1125, 928, 1239
1166, 1084, 1144, 481, 1154
1167, 700, 657, 1087, 1124
1168, 436, 984, 341, 1280
1169, 961, 1189, 1023, 1204
1170, 784, 787, 1120, 1310
1171, 333, 1042, 290, 1300
1172, 1042, 1050, 290, 1300
1173, 984, 1015, 1199, 1280
1174, 786, 1004, 823, 1190
1175, 854, 290, 1042, 1050
1176, 942, 1017, 980, 1154
1177, 586, 1104, 1055, 1153
1178, 972, 1022, 930, 1111
1179, 434, 1062, 1043, 1270
1180, 791, 668, 507, 1068
1181, 657, 800, 700, 1087
1182, 901, 905, 914, 982
1183, 629, 339, 527, 1029
1184, 752, 995, 1078, 1167
1185, 990, 1072, 943, 1193
1186, 869, 879, 977, 1147
1187, 383, 483, 1044, 1201
1188, 554, 1017, 555, 1058
1189, 988, 1007, 941, 1317
1190, 624, 1023, 569, 1204
1191, 1083, 966, 1229, 1278
1192, 1098, 1122, 951, 1152
1193, 906, 813, 1025, 1191
1194, 974, 1202, 1027, 1216
1195, 663, 597, 568, 1128
1196, 720, 825, 718, 1026
1197, 484, 339, 629, 1029
1198, 779, 734, 732, 1160
1199, 1108, 1214, 369, 1287
1200, 275, 214, 209, 1088
1201, 1146, 1156, 955, 1192
1202, 970, 921, 1164, 1246
1203, 946, 1115, 1089, 1259
1204, 983, 988, 1163, 1258
1205, 865, 1047, 882, 1161
1206, 805, 513, 651, 1109
1207, 1002, 983, 1238, 1310
1208, 537, 1095, 981, 1100
1209, 459, 984, 436, 1121
1210, 989, 1107, 366, 1196
1211, 375, 479, 373, 1027
1212, 803, 985, 802, 1282
1213, 467, 473, 982, 1179
1214, 367, 1031, 370, 1202
1215, 939, 1088, 993, 1123
1216, 361, 438, 1042, 1064
1217, 696, 985, 803, 1122
1218, 929, 973, 1024, 1220
1219, 509, 491, 346, 1182
1220, 602, 1053, 998, 1162
1221, 536, 611, 1033, 1095
1222, 605, 1097, 1023, 1182
1223, 1028, 1090, 976, 1254
1224, 889, 905, 916, 982
1225, 1006, 969, 1297, 1314
1226, 296, 362, 180, 1022
1227, 369, 1077, 462, 1287
1228, 1013, 928, 1125, 1239
1229, 1113, 930, 1203, 1288
1230, 288, 1041, 199, 1245
1231, 429, 982, 473, 1132
1232, 840, 1013, 771, 1305
1233, 938, 989, 1077, 1166
1234, 929, 1060, 971, 1200
1235, 1075, 1221, 1003, 1264
1236, 621, 509, 346, 1182
1237, 1056, 1189, 991, 1243
1238, 425, 1139, 399, 1313
1239, 1007, 1032, 941, 1223
1240, 719, 721, 720, 1018
1241, 943, 1039, 990, 1193
1242, 621, 346, 1037, 1182
1243, 375, 374, 376, 1019
1244, 1077, 369, 1214, 1287
1245, 1109, 1134, 1026, 1177
1246, 244, 239, 270, 1157
1247, 381, 380, 382, 1015
1248, 419, 1103, 500, 1317
1249, 980, 1112, 514, 1286
1250, 468, 1119, 168, 1135
1251, 467, 889, 360, 1053
1252, 613, 601, 585, 988
1253, 367, 372, 1031, 1202
1254, 539, 537, 981, 1100
1255, 429, 1132, 428, 1237
1256, 1026, 1137, 935, 1177
1257, 942, 980, 1017, 1283
1258, 174, 316, 248, 1127
1259, 793, 748, 746, 1021
1260, 507, 680, 791, 1068
1261, 405, 403, 404, 1014
1262, 975, 1086, 1026, 1217
1263, 955, 1146, 1073, 1156
1264, 946, 1102, 1037, 1115
1265, 1001, 1086, 198, 1245
1266, 1149, 1155, 1059, 1228
1267, 418, 1156, 1146, 1192
1268, 913, 890, 902, 1254
1269, 888, 1117, 910, 1140
1270, 1087, 1133, 658, 1294
1271, 941, 1055, 1153, 1257
1272, 983, 1055, 953, 1120
1273, 877, 866, 1147, 1195
1274, 376, 1019, 378, 1144
1275, 616, 966, 1092, 1229
1276, 848, 676, 919, 1025
1277, 612, 1053, 535, 1162
1278, 1052, 1070, 961, 1156
1279, 177, 785, 1001, 1176
1280, 473, 357, 467, 982
1281, 815, 852, 821, 977
1282, 194, 1063, 301, 1236
1283, 978, 1032, 959, 1119
1284, 1108, 1171, 938, 1287
1285, 628, 994, 1029, 1252
1286, 630, 1110, 974, 1271
1287, 479, 974, 356, 1110
1288, 628, 1029, 994, 1174
1289, 265, 241, 244, 1030
1290, 961, 997, 1189, 1204
1291, 163, 293, 836, 1209
1292, 1153, 1257, 1055, 1295
1293, 947, 992, 1183, 1186
1294, 1048, 1159, 1015, 1283
1295, 906, 705, 893, 1025
1296, 984, 1116, 341, 1280
1297, 888, 910, 291, 1140
1298, 385, 387, 485, 992
1299, 985, 1124, 802, 1282
1300, 938, 1171, 1166, 1287
1301, 564, 661, 1066, 1130
1302, 929, 1043, 973, 1062
1303, 578, 600, 1068, 1295
1304, 162, 1030, 681, 1187
1305, 202, 1041, 288, 1273
1306, 640, 646, 530, 998
1307, 993, 1123, 1088, 1251
1308, 252, 984, 309, 1121
1309, 161, 257, 324, 1114
1310, 937, 1134, 1109, 1177
1311, 961, 1023, 1189, 1218
1312, 726, 993, 727, 1072
1313, 999, 1257, 1153, 1295
1314, 825, 975, 701, 1086
1315, 1026, 1086, 935, 1217
1316, 242, 240, 241, 1129
1317, 961, 1156, 1073, 1205
1318, 197, 301, 1050, 1236
1319, 681, 1030, 849, 1187
1320, 475, 476, 1095, 1107
1321, 828, 829, 282, 1080
1322, 394, 1218, 1052, 1261
1323, 1008, 1030, 945, 1129
1324, 703, 858, 817, 1151
1325, 1134, 1137, 1026, 1177
1326, 248, 317, 1127, 1165
1327, 961, 1189, 997, 1307
1328, 1049, 1099, 945, 1143
1329, 828, 1080, 1088, 1251
1330, 970, 1087, 779, 1241
1331, 775, 793, 1076, 1242
1332, 602, 530, 998, 1053
1333, 1110, 1234, 974, 1271
1334, 1068, 1242, 1076, 1279
1335, 1073, 1204, 606, 1235
1336, 592, 617, 584, 983
1337, 827, 1123, 1081, 1303
1338, 1054, 1069, 943, 1199
1339, 913, 1090, 1028, 1254
1340, 1058, 1174, 1133, 1311
1341, 824, 1086, 685, 1190
1342, 872, 1012, 855, 1033
1343, 1055, 1163, 988, 1258
1344, 915, 976, 890, 1191
1345, 973, 1183, 1005, 1220
1346, 601, 988, 613, 1103
1347, 603, 1141, 1153, 1259
1348, 766, 757, 849, 1030
1349, 595, 985, 655, 1122
1350, 649, 966, 1229, 1315
1351, 1004, 1083, 966, 1297
1352, 951, 1122, 1098, 1215
1353, 973, 929, 1062, 1220
1354, 422, 980, 355, 1154
1355, 930, 1113, 1203, 1255
1356, 1095, 1107, 476, 1232
1357, 717, 823, 1004, 1190
1358, 984, 310, 1116, 1256
1359, 197, 977, 187, 1236
1360, 537, 538, 539, 981
1361, 282, 1080, 214, 1088
1362, 709, 1075, 1229, 1264
1363, 898, 896, 1038, 1191
1364, 306, 201, 203, 1041
1365, 1073, 1146, 418, 1156
1366, 385, 992, 485, 1201
1367, 1026, 1109, 968, 1134
1368, 996, 1021, 960, 1076
1369, 752, 774, 754, 1078
1370, 203, 1010, 1041, 1273
1371, 806, 714, 1092, 1109
1372, 861, 1033, 531, 1161
1373, 461, 1108, 462, 1287
1374, 983, 1163, 1055, 1258
1375, 909, 890, 913, 1028
1376, 603, 986, 518, 1141
1377, 477, 1031, 366, 1214
1378, 1026, 1134, 935, 1137
1379, 282, 214, 281, 1088
1380, 1076, 1145, 667, 1299
1381, 482, 422, 355, 1154
1382, 799, 1160, 779, 1241
1383, 935, 1051, 1041, 1171
1384, 1040, 1093, 937, 1263
1385, 572, 1097, 996, 1299
1386, 321, 1057, 1016, 1250
1387, 671, 1120, 516, 1131
1388, 950, 1121, 1079, 1277
1389, 380, 1247, 436, 1280
1390, 868, 1105, 879, 1147
1391, 676, 533, 919, 1025
1392, 890, 915, 902, 976
1393, 620, 1089, 575, 1207
1394, 852, 977, 815, 1276
1395, 668, 507, 1068, 1279
1396, 837, 771, 1013, 1126
1397, 538, 981, 537, 1095
1398, 505, 1031, 372, 1202
1399, 752, 753, 751, 1078
1400, 879, 859, 977, 1276
1401, 1120, 1238, 983, 1310
1402, 465, 374, 370, 1027
1403, 810, 719, 715, 1026
1404, 952, 1145, 996, 1299
1405, 382, 1015, 380, 1280
1406, 347, 1023, 425, 1182
1407, 936, 981, 1031, 1222
1408, 1054, 924, 1181, 1219
1409, 956, 1058, 985, 1124
1410, 197, 301, 184, 1050
1411, 619, 986, 603, 1115
1412, 1000, 1057, 948, 1272
1413, 774, 754, 1078, 1238
1414, 940, 976, 1038, 1191
1415, 940, 1038, 976, 1228
1416, 556, 558, 596, 1133
1417, 243, 242, 1008, 1111
1418, 257, 323, 236, 978
1419, 439, 180, 362, 1022
1420, 1189, 1218, 991, 1307
1421, 686, 831, 1039, 1193
1422, 1056, 962, 1212, 1243
1423, 902, 976, 915, 1191
1424, 945, 1049, 1143, 1257
1425, 785, 685, 287, 1001
1426, 524, 677, 643, 1025
1427, 961, 1218, 1189, 1307
1428, 957, 1100, 1095, 1233
1429, 942, 1017, 1048, 1283
1430, 1054, 1183, 992, 1311
1431, 196, 301, 1063, 1300
1432, 221, 1060, 1024, 1178
1433, 877, 1147, 1050, 1195
1434, 1041, 1051, 938, 1171
1435, 817, 1151, 781, 1264
1436, 555, 1058, 1017, 1286
1437, 264, 1028, 259, 1138
1438, 958, 1169, 1103, 1179
1439, 612, 1103, 351, 1162
1440, 367, 370, 372, 1202
1441, 603, 986, 1141, 1259
1442, 484, 423, 1029, 1112
1443, 930, 972, 1111, 1255
1444, 393, 1052, 394, 1218
1445, 937, 1109, 1092, 1177
1446, 941, 1163, 1055, 1257
1447, 429, 357, 473, 982
1448, 1023, 1205, 347, 1218
1449, 649, 544, 966, 1315
1450, 892, 914, 905, 1140
1451, 762, 852, 1105, 1173
1452, 633, 1087, 658, 1294
1453, 922, 997, 1189, 1307
1454, 380, 1015, 1247, 1280
1455, 608, 629, 1029, 1112
1456, 383, 483, 381, 1044
1457, 1059, 1113, 940, 1228
1458, 950, 1096, 1019, 1247
1459, 1092, 1177, 714, 1278
1460, 890, 976, 902, 1254
1461, 932, 989, 1118, 1314
1462, 606, 1204, 1073, 1205
1463, 709, 1083, 1229, 1278
1464, 447, 1114, 404, 1240
1465, 1076, 1242, 960, 1279
1466, 679, 1003, 1075, 1151
1467, 1014, 1102, 404, 1240
1468, 947, 1069, 1054, 1199
1469, 869, 977, 1050, 1147
1470, 236, 238, 257, 978
1471, 583, 988, 613, 1258
1472, 938, 1166, 1006, 1314
1473, 613, 988, 585, 1258
1474, 915, 890, 906, 1191
1475, 624, 605, 569, 1023
1476, 836, 770, 682, 1209
1477, 554, 553, 555, 1017
1478, 948, 1091, 1056, 1243
1479, 1020, 1143, 1099, 1285
1480, 949, 1014, 978, 1114
1481, 944, 1174, 1058, 1311
1482, 346, 495, 517, 1037
1483, 746, 1021, 748, 1106
1484, 990, 1188, 1072, 1193
1485, 929, 971, 1052, 1200
1486, 943, 1193, 1080, 1206
1487, 533, 907, 919, 1025
1488, 937, 1170, 1004, 1278
1489, 945, 1030, 1008, 1224
1490, 1005, 1183, 921, 1220
1491, 652, 968, 1263, 1292
1492, 491, 347, 425, 1182
1493, 857, 644, 531, 1033
1494, 322, 344, 173, 1057
1495, 187, 977, 197, 1276
1496, 904, 998, 1053, 1168
1497, 223, 248, 277, 1148
1498, 437, 376, 457, 1096
1499, 295, 1042, 302, 1064
1500, 531, 861, 857, 1033
1501, 404, 1014, 403, 1102
1502, 472, 357, 429, 1140
1503, 986, 1153, 1141, 1259
1504, 227, 255, 1165, 1249
1505, 288, 202, 199, 1041
1506, 1004, 1170, 966, 1278
1507, 1004, 1170, 927, 1297
1508, 976, 1038, 930, 1228
1509, 926, 1007, 988, 1203
1510, 396, 1139, 991, 1261
1511, 952, 996, 1021, 1301
1512, 1001, 1006, 935, 1245
1513, 959, 1135, 1119, 1227
1514, 1068, 1131, 999, 1295
1515, 169, 309, 252, 984
1516, 530, 645, 895, 1053
1517, 963, 1143, 1020, 1285
1518, 930, 1111, 1090, 1138
1519, 964, 1046, 1036, 1160
1520, 705, 906, 813, 1025
1521, 768, 701, 825, 975
1522, 356, 479, 421, 974
1523, 872, 1012, 1033, 1161
1524, 261, 272, 1125, 1208
1525, 235, 236, 1065, 1099
1526, 611, 1095, 537, 1233
1527, 326, 1111, 1022, 1237
1528, 721, 788, 728, 1098
1529, 200, 1166, 1171, 1287
1530, 1014, 1032, 978, 1281
1531, 541, 537, 1100, 1233
1532, 473, 1132, 982, 1179
1533, 894, 1028, 913, 1090
1534, 536, 611, 534, 1033
1535, 858, 881, 870, 1105
1536, 934, 1175, 1047, 1221
1537, 346, 517, 621, 1037
1538, 771, 840, 682, 1209
1539, 872, 882, 855, 1012
1540, 865, 867, 882, 1047
1541, 512, 633, 659, 1087
1542, 1063, 1064, 932, 1314
1543, 368, 366, 1107, 1196
1544, 205, 288, 1086, 1273
1545, 772, 1020, 842, 1208
1546, 463, 457, 342, 1096
1547, 766, 757, 1030, 1290
1548, 448, 173, 344, 1057
1549, 1070, 1200, 1185, 1253
1550, 607, 1146, 1073, 1252
1551, 218, 217, 216, 1005
1552, 1025, 1101, 940, 1149
1553, 302, 1064, 1042, 1300
1554, 932, 1047, 1050, 1158
1555, 1018, 1026, 975, 1303
1556, 948, 1057, 1016, 1249
1557, 667, 572, 996, 1299
1558, 1013, 1208, 1125, 1305
1559, 819, 702, 763, 976
1560, 956, 1124, 1087, 1133
1561, 655, 595, 528, 985
1562, 776, 793, 1021, 1076
1563, 194, 196, 301, 1063
1564, 934, 1105, 977, 1173
1565, 855, 466, 1012, 1309
1566, 275, 209, 207, 1079
1567, 937, 1134, 1040, 1263
1568, 946, 1136, 1037, 1313
1569, 426, 1102, 403, 1115
1570, 177, 1001, 191, 1302
1571, 788, 687, 808, 1098
1572, 275, 1079, 207, 1197
1573, 205, 288, 286, 1086
1574, 926, 1002, 1163, 1224
1575, 993, 1072, 726, 1251
1576, 940, 1101, 1025, 1213
1577, 848, 919, 893, 1025
1578, 971, 1165, 1127, 1243
1579, 269, 168, 325, 1135
1580, 679, 1075, 1003, 1315
1581, 954, 1185, 1200, 1253
1582, 935, 1086, 1026, 1190
1583, 1153, 1172, 941, 1257
1584, 986, 1153, 999, 1172
1585, 451, 433, 1148, 1261
1586, 1054, 1199, 943, 1230
1587, 972, 1132, 1237, 1316
1588, 999, 1172, 1153, 1257
1589, 772, 1167, 1020, 1208
1590, 922, 991, 1189, 1243
1591, 854, 1050, 1042, 1195
1592, 961, 1204, 1073, 1235
1593, 1004, 1083, 823, 1278
1594, 364, 365, 989, 1077
1595, 596, 1087, 657, 1124
1596, 235, 237, 236, 1099
1597, 177, 1176, 1001, 1302
1598, 1046, 1185, 1142, 1266
1599, 315, 452, 1043, 1148
1600, 819, 976, 763, 1149
1601, 495, 1037, 426, 1115
1602, 285, 1074, 1178, 1225
1603, 682, 770, 837, 1209
1604, 564, 1067, 1034, 1235
1605, 256, 161, 322, 1114
1606, 948, 1127, 1165, 1243
1607, 987, 1069, 943, 1080
1608, 725, 727, 993, 1282
1609, 688, 779, 1087, 1241
1610, 586, 1141, 1104, 1153
1611, 1093, 1137, 937, 1170
1612, 607, 522, 1073, 1146
1613, 1000, 949, 1102, 1293
1614, 966, 1083, 1004, 1278
1615, 983, 1059, 940, 1101
1616, 1017, 1058, 985, 1181
1617, 266, 807, 847, 1157
1618, 680, 775, 791, 1068
1619, 245, 1111, 326, 1237
1620, 725, 727, 726, 993
1621, 756, 1002, 1238, 1310
1622, 776, 1076, 1021, 1145
1623, 933, 1136, 996, 1301
1624, 935, 1177, 1004, 1190
1625, 872, 882, 1012, 1161
1626, 185, 875, 854, 1042
1627, 990, 1039, 964, 1304
1628, 796, 662, 693, 1128
1629, 574, 575, 1089, 1207
1630, 979, 1082, 740, 1142
1631, 823, 1004, 712, 1177
1632, 1004, 935, 1137, 1177
1633, 1092, 1170, 937, 1278
1634, 345, 1114, 1119, 1281
1635, 868, 853, 879, 1105
1636, 728, 1122, 814, 1215
1637, 1006, 1166, 938, 1171
1638, 553, 555, 1017, 1286
1639, 1016, 1091, 230, 1239
1640, 856, 1003, 862, 1161
1641, 289, 213, 1069, 1206
1642, 608, 629, 527, 1029
1643, 955, 1192, 1062, 1220
1644, 603, 1141, 618, 1153
1645, 658, 1087, 596, 1133
1646, 311, 354, 456, 1094
1647, 364, 989, 1064, 1077
1648, 982, 1038, 1168, 1288
1649, 1072, 1080, 943, 1193
1650, 830, 764, 729, 1080
1651, 620, 577, 575, 1089
1652, 451, 433, 348, 1148
1653, 854, 290, 185, 1042
1654, 1019, 1027, 974, 1306
1655, 828, 829, 1080, 1251
1656, 771, 1126, 747, 1305
1657, 414, 499, 1169, 1179
1658, 1003, 1047, 1161, 1175
1659, 988, 941, 1104, 1317
1660, 1093, 1100, 981, 1170
1661, 289, 213, 211, 1069
1662, 924, 1159, 1015, 1199
1663, 1042, 1064, 438, 1196
1664, 682, 163, 836, 1209
1665, 984, 1247, 1015, 1280
1666, 863, 1151, 858, 1221
1667, 852, 821, 977, 1173
1668, 603, 1115, 986, 1259
1669, 468, 168, 441, 1135
1670, 256, 1057, 321, 1250
1671, 944, 992, 1029, 1311
1672, 1055, 1257, 953, 1295
1673, 185, 290, 333, 1042
1674, 656, 554, 556, 1058
1675, 622, 1182, 1037, 1207
1676, 1047, 1147, 1050, 1158
1677, 1006, 1222, 938, 1314
1678, 577, 1089, 620, 1259
1679, 1067, 961, 1210, 1235
1680, 1047, 1175, 1003, 1221
1681, 1011, 1060, 224, 1268
1682, 942, 1144, 1084, 1154
1683, 180, 1022, 439, 1237
1684, 643, 676, 848, 1025
1685, 896, 1038, 998, 1168
1686, 978, 1032, 1119, 1281
1687, 969, 1006, 1001, 1302
1688, 628, 994, 559, 1174
1689, 895, 891, 904, 1053
1690, 930, 1138, 1228, 1255
1691, 763, 1149, 976, 1155
1692, 1015, 1044, 980, 1219
1693, 181, 295, 302, 1064
1694, 887, 897, 907, 1025
1695, 763, 760, 1149, 1155
1696, 995, 1068, 790, 1131
1697, 1014, 1114, 404, 1281
1698, 886, 501, 665, 1033
1699, 1002, 1059, 983, 1310
1700, 727, 1072, 993, 1282
1701, 935, 1004, 1001, 1190
1702, 945, 1129, 1049, 1224
1703, 546, 1263, 1040, 1292
1704, 764, 729, 1080, 1251
1705, 214, 1080, 987, 1088
1706, 344, 1114, 447, 1240
1707, 366, 989, 365, 1214
1708, 1135, 1237, 440, 1316
1709, 999, 1153, 986, 1259
1710, 576, 1089, 578, 1279
1711, 279, 1268, 262, 1275
1712, 305, 1108, 461, 1287
1713, 1068, 960, 1242, 1279
1714, 270, 1099, 1020, 1157
1715, 1056, 1136, 928, 1293
1716, 957, 1161, 1047, 1175
1717, 421, 1084, 974, 1306
1718, 998, 1168, 958, 1179
1719, 771, 682, 837, 1209
1720, 1041, 1086, 935, 1245
1721, 188, 259, 264, 1028
1722, 724, 1123, 993, 1251
1723, 657, 512, 800, 1087
1724, 262, 1268, 1074, 1275
1725, 1142, 1185, 1082, 1266
1726, 285, 1074, 1225, 1226
1727, 813, 783, 1025, 1149
1728, 982, 1117, 1022, 1140
1729, 1058, 1181, 1017, 1219
1730, 703, 817, 781, 1264
1731, 806, 805, 714, 1109
1732, 966, 1170, 1092, 1278
1733, 608, 1112, 1029, 1174
1734, 768, 1081, 975, 1303
1735, 882, 1012, 867, 1309
1736, 989, 932, 1064, 1314
1737, 930, 1022, 982, 1117
1738, 816, 783, 699, 1025
1739, 353, 463, 307, 1096
1740, 670, 792, 680, 1068
1741, 461, 369, 462, 1108
1742, 809, 808, 653, 1098
1743, 389, 1156, 418, 1192
1744, 772, 843, 1020, 1167
1745, 364, 989, 366, 1196
1746, 888, 291, 1090, 1117
1747, 1052, 1148, 929, 1270
1748, 1062, 1192, 992, 1220
1749, 607, 1073, 1235, 1252
1750, 421, 974, 479, 1306
1751, 1049, 1129, 959, 1224
1752, 942, 1048, 1248, 1269
1753, 633, 1241, 970, 1294
1754, 502, 500, 419, 1103
1755, 1056, 1212, 922, 1243
1756, 993, 1088, 939, 1312
1757, 1003, 1175, 1075, 1264
1758, 618, 1141, 586, 1153
1759, 989, 938, 1222, 1314
1760, 939, 1079, 987, 1088
1761, 1054, 1181, 924, 1230
1762, 977, 1105, 934, 1147
1763, 771, 745, 747, 1126
1764, 311, 1094, 456, 1116
1765, 395, 991, 397, 1218
1766, 771, 1013, 1126, 1305
1767, 1038, 1113, 940, 1288
1768, 811, 1131, 1120, 1238
1769, 930, 1038, 976, 1254
1770, 216, 1005, 217, 1150
1771, 611, 531, 1033, 1233
1772, 940, 1113, 1038, 1228
1773, 475, 469, 506, 1033
1774, 559, 628, 561, 994
1775, 988, 1104, 1103, 1317
1776, 442, 443, 340, 1045
1777, 951, 1123, 1211, 1215
1778, 1127, 1165, 317, 1249
1779, 175, 452, 349, 1043
1780, 441, 413, 468, 1135
1781, 248, 317, 174, 1127
1782, 664, 794, 1128, 1145
1783, 991, 1243, 922, 1307
1784, 768, 975, 825, 1303
1785, 945, 1008, 1129, 1224
1786, 591, 1241, 633, 1294
1787, 932, 1050, 1047, 1195
1788, 792, 1068, 670, 1131
1789, 177, 287, 191, 1001
1790, 305, 342, 461, 1108
1791, 731, 1072, 1188, 1193
1792, 1016, 928, 1125, 1293
1793, 1167, 1208, 749, 1305
1794, 687, 805, 651, 1109
1795, 981, 957, 1095, 1231
1796, 238, 236, 237, 1099
1797, 1038, 1113, 930, 1228
1798, 544, 1100, 966, 1315
1799, 365, 989, 1077, 1214
1800, 350, 181, 267, 1064
1801, 998, 958, 1162, 1179
1802, 1046, 1074, 954, 1266
1803, 804, 1039, 831, 1193
1804, 966, 1175, 1083, 1264
1805, 950, 1079, 1159, 1269
1806, 984, 1015, 1159, 1199
1807, 726, 724, 725, 993
1808, 1007, 959, 1227, 1316
1809, 628, 1029, 1146, 1252
1810, 989, 932, 1107, 1196
1811, 993, 1211, 1123, 1215
1812, 372, 505, 443, 1031
1813, 401, 1102, 426, 1313
1814, 984, 1159, 1079, 1256
1815, 953, 1078, 1002, 1238
1816, 576, 578, 669, 1279
1817, 1023, 1189, 997, 1204
1818, 178, 282, 829, 1080
1819, 574, 667, 572, 996
1820, 252, 308, 208, 1121
1821, 835, 1082, 1035, 1266
1822, 517, 604, 1037, 1115
1823, 433, 1052, 1148, 1261
1824, 496, 986, 334, 1115
1825, 994, 1146, 1029, 1252
1826, 1037, 1136, 933, 1313
1827, 247, 1022, 326, 1111
1828, 936, 1031, 981, 1045
1829, 764, 1080, 829, 1251
1830, 941, 1055, 988, 1104
1831, 400, 1000, 1240, 1313
1832, 1010, 1217, 1041, 1273
1833, 731, 732, 733, 990
1834, 591, 633, 562, 1294
1835, 366, 364, 365, 989
1836, 823, 712, 717, 1177
1837, 1009, 1216, 1040, 1271
1838, 596, 656, 556, 1124
1839, 253, 1094, 1116, 1150
1840, 464, 1121, 436, 1247
1841, 803, 1122, 985, 1215
1842, 546, 652, 1263, 1292
1843, 707, 845, 773, 1155
1844, 323, 257, 161, 1114
1845, 400, 1240, 1102, 1313
1846, 546, 1040, 548, 1292
1847, 646, 602, 530, 998
1848, 970, 1066, 1241, 1262
1849, 943, 1080, 1069, 1206
1850, 1015, 1219, 980, 1283
1851, 283, 205, 1081, 1273
1852, 867, 1012, 1195, 1309
1853, 998, 958, 1168, 1288
1854, 527, 1029, 339, 1146
1855, 404, 1014, 406, 1291
1856, 939, 1079, 1010, 1269
1857, 794, 693, 664, 1128
1858, 1055, 1104, 941, 1153
1859, 893, 705, 848, 1025
1860, 965, 1228, 1138, 1255
1861, 262, 1178, 1074, 1268
1862, 1037, 1136, 946, 1207
1863, 527, 339, 627, 1146
1864, 325, 238, 240, 1129
1865, 823, 717, 1004, 1177
1866, 1079, 1088, 939, 1197
1867, 1047, 1161, 864, 1221
1868, 1063, 1166, 1064, 1314
1869, 836, 293, 280, 1035
1870, 351, 504, 470, 1053
1871, 981, 1095, 957, 1100
1872, 725, 993, 724, 1123
1873, 985, 1058, 956, 1181
1874, 711, 823, 1083, 1278
1875, 755, 756, 757, 1002
1876, 986, 1172, 999, 1184
1877, 999, 1089, 578, 1259
1878, 1005, 1039, 943, 1206
1879, 895, 896, 887, 998
1880, 863, 1003, 1151, 1221
1881, 304, 200, 1166, 1171
1882, 630, 1084, 610, 1271
1883, 957, 1107, 1095, 1231
1884, 1038, 1117, 930, 1288
1885, 355, 980, 483, 1112
1886, 379, 380, 381, 1015
1887, 487, 1073, 522, 1146
1888, 927, 1222, 1006, 1314
1889, 361, 363, 438, 1064
1890, 239, 238, 1099, 1129
1891, 257, 238, 325, 1119
1892, 743, 1071, 744, 1126
1893, 429, 439, 1022, 1237
1894, 733, 731, 990, 1193
1895, 253, 310, 212, 1116
1896, 747, 745, 746, 1126
1897, 936, 1045, 981, 1093
1898, 962, 1013, 1209, 1239
1899, 925, 1217, 1010, 1244
1900, 913, 903, 1090, 1254
1901, 270, 260, 1020, 1099
1902, 855, 871, 466, 1309
1903, 1023, 1097, 997, 1189
1904, 681, 766, 849, 1030
1905, 717, 786, 823, 1190
1906, 925, 1216, 1009, 1248
1907, 904, 1053, 889, 1168
1908, 900, 901, 912, 1117
1909, 979, 1071, 952, 1128
1910, 628, 561, 994, 1252
1911, 690, 840, 771, 1305
1912, 924, 1199, 1054, 1230
1913, 752, 790, 995, 1242
1914, 938, 1166, 1077, 1287
1915, 529, 594, 1098, 1292
1916, 1032, 1227, 1119, 1281
1917, 731, 1072, 730, 1188
1918, 912, 1117, 1090, 1254
1919, 1073, 1204, 961, 1205
1920, 811, 774, 1131, 1238
1921, 606, 1204, 565, 1235
1922, 861, 857, 1033, 1161
1923, 864, 1047, 865, 1161
1924, 189, 197, 187, 1236
1925, 752, 750, 790, 1242
1926, 581, 586, 1055, 1153
1927, 930, 1113, 1038, 1288
1928, 299, 1028, 894, 1090
1929, 211, 209, 214, 987
1930, 941, 988, 1055, 1163
1931, 1010, 975, 1217, 1273
1932, 516, 1120, 689, 1131
1933, 335, 440, 1135, 1237
1934, 689, 1120, 811, 1131
1935, 725, 993, 1215, 1282
1936, 724, 993, 726, 1251
1937, 737, 833, 1046, 1266
1938, 399, 425, 397, 1139
1939, 429, 1022, 362, 1140
1940, 744, 1126, 1071, 1308
1941, 1009, 974, 1216, 1271
1942, 1020, 1167, 963, 1208
1943, 1083, 1175, 934, 1264
1944, 1020, 1078, 945, 1143
1945, 1102, 1240, 1000, 1313
1946, 902, 976, 1191, 1254
1947, 989, 1231, 1118, 1314
1948, 452, 175, 315, 1043
1949, 1017, 1181, 1211, 1219
1950, 960, 1068, 1089, 1279
1951, 970, 1164, 994, 1246
1952, 773, 1155, 845, 1187
1953, 847, 766, 681, 1030
1954, 772, 751, 843, 1167
1955, 999, 986, 1184, 1259
1956, 550, 1152, 654, 1292
1957, 483, 422, 381, 980
1958, 997, 1067, 567, 1204
1959, 952, 1071, 979, 1298
1960, 565, 1204, 1067, 1235
1961, 755, 1002, 757, 1290
1962, 1119, 1227, 445, 1281
1963, 1052, 1218, 991, 1261
1964, 1017, 1181, 985, 1211
1965, 564, 1067, 566, 1130
1966, 475, 371, 476, 1107
1967, 732, 990, 731, 1188
1968, 533, 677, 640, 1025
1969, 1031, 1045, 443, 1232
1970, 738, 1142, 1082, 1266
1971, 1098, 1152, 951, 1292
1972, 397, 991, 396, 1139
1973, 1135, 1227, 959, 1316
1974, 587, 1085, 588, 1213
1975, 743, 1126, 837, 1289
1976, 964, 1178, 1074, 1225
1977, 363, 181, 350, 1064
1978, 323, 161, 256, 1114
1979, 1038, 930, 1117, 1254
1980, 394, 395, 1218, 1261
1981, 1017, 1211, 1048, 1283
1982, 710, 1092, 714, 1278
1983, 936, 1051, 1134, 1137
1984, 304, 1166, 1006, 1171
1985, 267, 350, 1064, 1077
1986, 552, 553, 554, 1017
1987, 385, 386, 387, 992
1988, 954, 1185, 1046, 1266
1989, 984, 950, 1159, 1247
1990, 1037, 1102, 946, 1313
1991, 984, 1159, 1015, 1247
1992, 953, 1055, 983, 1163
1993, 1047, 1147, 866, 1195
1994, 714, 1177, 712, 1278
1995, 371, 476, 1107, 1232
1996, 742, 1071, 795, 1308
1997, 835, 1266, 1035, 1275
1998, 966, 1075, 1175, 1264
1999, 216, 1206, 263, 1225
2000, 1200, 1243, 971, 1307
2001, 369, 465, 370, 1108
2002, 428, 1237, 1132, 1316
2003, 673, 617, 592, 1120
2004, 1032, 445, 1227, 1281
2005, 1062, 1220, 992, 1260
2006, 988, 1085, 958, 1103
2007, 203, 204, 206, 1010
2008, 861, 856, 862, 1161
2009, 998, 1162, 1053, 1179
2010, 210, 252, 208, 1256
2011, 1059, 1101, 983, 1310
2012, 483, 355, 422, 980
2013, 961, 1067, 1204, 1235
2014, 1040, 1271, 548, 1292
2015, 996, 960, 1089, 1279
2016, 607, 1073, 626, 1235
2017, 945, 1030, 1002, 1290
2018, 643, 848, 816, 1025
2019, 872, 1033, 857, 1161
2020, 691, 842, 772, 1020
2021, 484, 423, 339, 1029
2022, 996, 1076, 960, 1279
2023, 1036, 1046, 964, 1253
2024, 426, 403, 496, 1115
2025, 225, 224, 226, 1011
2026, 283, 1081, 1197, 1273
2027, 722, 1018, 721, 1123
2028, 455, 1094, 354, 1284
2029, 206, 1010, 204, 1197
2030, 427, 334, 496, 986
2031, 425, 494, 1037, 1313
2032, 937, 1109, 1134, 1263
2033, 801, 780, 1124, 1188
2034, 423, 1029, 1112, 1201
2035, 410, 409, 1227, 1317
2036, 1059, 1155, 965, 1228
2037, 232, 321, 1016, 1250
2038, 602, 998, 646, 1162
2039, 731, 1188, 990, 1193
2040, 801, 1124, 1087, 1188
2041, 894, 913, 903, 1090
2042, 995, 953, 1078, 1257
2043, 1004, 1177, 717, 1190
2044, 347, 490, 425, 1023
2045, 790, 1068, 995, 1242
2046, 964, 1160, 990, 1304
2047, 559, 1133, 994, 1294
2048, 906, 1025, 893, 1191
2049, 431, 1240, 400, 1272
2050, 901, 916, 905, 982
2051, 1027, 1202, 936, 1216
2052, 166, 1094, 312, 1284
2053, 1023, 1204, 624, 1205
2054, 600, 1131, 1068, 1295
2055, 714, 1109, 810, 1177
2056, 894, 911, 183, 1090
2057, 263, 1206, 1039, 1225
2058, 1031, 989, 1231, 1232
2059, 896, 899, 1038, 1168
2060, 943, 1199, 1069, 1230
2061, 1095, 1231, 1107, 1232
2062, 431, 1057, 344, 1240
2063, 958, 1103, 1162, 1179
2064, 169, 984, 310, 1116
2065, 958, 988, 1169, 1203
2066, 322, 173, 256, 1057
2067, 968, 1134, 1109, 1263
2068, 1000, 400, 1240, 1272
2069, 943, 1069, 987, 1230
2070, 271, 1208, 1020, 1285
2071, 857, 886, 665, 1033
2072, 424, 347, 1205, 1218
2073, 935, 1026, 1177, 1190
2074, 943, 1080, 1072, 1230
2075, 691, 1020, 843, 1157
2076, 998, 1053, 1168, 1179
2077, 688, 779, 800, 1087
2078, 1005, 1024, 964, 1225
2079, 578, 999, 579, 1295
2080, 1084, 1198, 610, 1271
2081, 949, 1000, 1102, 1240
2082, 396, 397, 395, 991
2083, 522, 626, 607, 1073
2084, 277, 314, 221, 1043
2085, 996, 1089, 946, 1207
2086, 410, 411, 1007, 1316
2087, 932, 1118, 1063, 1314
2088, 362, 429, 439, 1022
2089, 251, 307, 170, 1096
2090, 529, 594, 653, 1098
2091, 656, 528, 985, 1124
2092, 927, 1175, 1118, 1297
2093, 1223, 1227, 409, 1317
2094, 986, 941, 1141, 1153
2095, 932, 1063, 1118, 1158
2096, 939, 1081, 1123, 1303
2097, 1125, 1208, 272, 1285
2098, 932, 1064, 1063, 1300
2099, 735, 737, 833, 1046
2100, 686, 804, 831, 1193
2101, 872, 855, 874, 1033
2102, 976, 1155, 1149, 1228
2103, 1125, 1250, 1016, 1293
2104, 916, 982, 901, 1168
2105, 608, 1029, 628, 1174
2106, 385, 386, 992, 1186
2107, 780, 1124, 1188, 1282
2108, 546, 548, 652, 1292
2109, 364, 1064, 989, 1196
2110, 855, 1012, 871, 1309
2111, 1055, 1163, 953, 1257
2112, 776, 793, 746, 1021
2113, 206, 203, 1010, 1277
2114, 225, 1011, 226, 1165
2115, 973, 1150, 1005, 1183
2116, 869, 877, 866, 1147
2117, 411, 1169, 1007, 1316
2118, 923, 1061, 1180, 1184
2119, 330, 291, 186, 1140
2120, 404, 405, 1014, 1291
2121, 1072, 1230, 1080, 1251
2122, 206, 1010, 1197, 1277
2123, 941, 986, 1141, 1291
2124, 986, 941, 1153, 1172
2125, 395, 397, 490, 1218
2126, 1050, 1147, 1047, 1195
2127, 404, 406, 405, 1291
2128, 1010, 1217, 975, 1244
2129, 1081, 1088, 275, 1197
2130, 763, 759, 760, 1155
2131, 755, 756, 1002, 1238
2132, 993, 1251, 1088, 1312
2133, 1032, 1223, 1007, 1227
2134, 1037, 1115, 604, 1207
2135, 221, 1024, 220, 1178
2136, 520, 693, 662, 1128
2137, 1071, 1212, 979, 1298
2138, 824, 767, 1086, 1190
2139, 670, 680, 507, 1068
2140, 578, 579, 580, 1295
2141, 631, 1112, 608, 1174
2142, 1009, 1216, 974, 1248
2143, 929, 1036, 1210, 1220
2144, 952, 1128, 1071, 1308
2145, 218, 1005, 216, 1225
2146, 741, 742, 1071, 1082
2147, 957, 1012, 1047, 1161
2148, 416, 1012, 474, 1196
2149, 243, 245, 242, 1111
2150, 656, 595, 554, 985
2151, 640, 1025, 677, 1213
2152, 961, 1070, 1067, 1210
2153, 958, 1179, 1168, 1288
2154, 216, 1005, 1206, 1225
2155, 1045, 1093, 936, 1234
2156, 883, 328, 492, 1042
2157, 910, 1117, 914, 1140
2158, 400, 1139, 1000, 1313
2159, 973, 992, 1220, 1260
2160, 1024, 1036, 964, 1253
2161, 221, 223, 277, 1060
2162, 626, 1073, 606, 1235
2163, 602, 645, 530, 1053
2164, 946, 1184, 1115, 1259
2165, 404, 406, 1014, 1281
2166, 1000, 1139, 400, 1272
2167, 207, 1197, 1079, 1277
2168, 1052, 929, 1156, 1270
2169, 237, 239, 238, 1099
2170, 433, 394, 1052, 1261
2171, 434, 1062, 388, 1260
2172, 1012, 1107, 932, 1196
2173, 211, 209, 987, 1256
2174, 1118, 1158, 1063, 1314
2175, 991, 1189, 1023, 1218
2176, 415, 1132, 473, 1179
2177, 723, 728, 814, 1215
2178, 587, 588, 590, 1213
2179, 965, 1030, 1008, 1265
2180, 869, 1050, 877, 1147
2181, 184, 290, 878, 1050
2182, 766, 1030, 1157, 1290
2183, 1040, 1263, 968, 1292
2184, 973, 992, 1183, 1220
2185, 943, 987, 1080, 1230
2186, 255, 317, 1165, 1249
2187, 631, 1112, 1174, 1286
2188, 994, 1174, 1029, 1311
2189, 1062, 1156, 929, 1270
2190, 783, 782, 1101, 1149
2191, 543, 1093, 1040, 1263
2192, 733, 1193, 990, 1304
2193, 799, 734, 779, 1160
2194, 741, 1071, 742, 1289
2195, 166, 354, 311, 1094
2196, 749, 1167, 772, 1208
2197, 929, 1052, 1070, 1200
2198, 1107, 1231, 989, 1232
2199, 1011, 1091, 226, 1165
2200, 235, 1099, 1065, 1285
2201, 450, 318, 336, 1249
2202, 987, 1069, 211, 1256
2203, 1059, 1101, 782, 1149
2204, 402, 1102, 400, 1240
2205, 310, 169, 252, 984
2206, 410, 1227, 1007, 1317
2207, 206, 1197, 207, 1277
2208, 896, 998, 904, 1168
2209, 952, 1021, 1274, 1301
2210, 718, 1177, 1026, 1190
2211, 455, 1260, 1094, 1284
2212, 828, 764, 829, 1251
2213, 970, 994, 1164, 1294
2214, 215, 253, 212, 1150
2215, 979, 1212, 1185, 1298
2216, 241, 243, 242, 1008
2217, 172, 1020, 691, 1157
2218, 416, 1107, 1012, 1196
2219, 994, 970, 1246, 1294
2220, 578, 600, 669, 1068
2221, 941, 1172, 986, 1291
2222, 389, 1062, 390, 1156
2223, 281, 165, 684, 1088
2224, 517, 604, 621, 1037
2225, 786, 1001, 785, 1176
2226, 741, 1082, 1071, 1289
2227, 209, 1079, 987, 1256
2228, 755, 1238, 1002, 1290
2229, 929, 1070, 1036, 1253
2230, 689, 811, 774, 1131
2231, 976, 940, 1149, 1191
2232, 933, 1097, 1023, 1189
2233, 975, 1081, 1197, 1244
2234, 1091, 1209, 228, 1239
2235, 165, 275, 1081, 1088
2236, 595, 656, 528, 985
2237, 700, 1087, 801, 1124
2238, 705, 813, 783, 1025
2239, 564, 565, 1067, 1235
2240, 992, 385, 1186, 1201
2241, 870, 863, 858, 1221
2242, 964, 1225, 1074, 1226
2243, 458, 1116, 435, 1186
2244, 253, 1094, 311, 1116
2245, 974, 1084, 1198, 1248
2246, 725, 993, 1123, 1215
2247, 1004, 1137, 927, 1170
2248, 512, 657, 596, 1087
2249, 824, 685, 767, 1190
2250, 1173, 1176, 977, 1236
2251, 968, 1098, 1018, 1296
2252, 949, 1014, 1114, 1240
2253, 889, 904, 908, 1053
2254, 950, 1144, 1015, 1247
2255, 888, 1090, 912, 1117
2256, 952, 979, 1128, 1298
2257, 942, 1009, 1152, 1198
2258, 895, 904, 896, 998
2259, 511, 1098, 654, 1122
2260, 354, 1094, 166, 1284
2261, 327, 441, 168, 1135
2262, 538, 537, 523, 1095
2263, 611, 537, 541, 1233
2264, 686, 1080, 830, 1193
2265, 574, 575, 576, 1089
2266, 1063, 1297, 969, 1314
2267, 975, 1026, 1018, 1217
2268, 523, 352, 442, 1095
2269, 431, 1057, 1240, 1272
2270, 974, 1027, 1019, 1216
2271, 1000, 933, 1136, 1313
2272, 957, 1033, 1012, 1161
2273, 941, 1007, 1223, 1317
2274, 182, 1121, 1096, 1277
2275, 455, 354, 454, 1284
2276, 643, 533, 676, 1025
2277, 793, 775, 748, 1242
2278, 836, 280, 694, 1035
2279, 860, 883, 492, 1042
2280, 1132, 1169, 958, 1179
2281, 995, 1078, 1143, 1257
2282, 559, 560, 1133, 1294
2283, 1071, 1126, 743, 1289
2284, 178, 829, 686, 1080
2285, 739, 738, 1082, 1266
2286, 561, 559, 994, 1294
2287, 1007, 1169, 988, 1203
2288, 346, 426, 495, 1037
2289, 931, 1070, 1036, 1210
2290, 947, 1199, 1044, 1280
2291, 179, 824, 286, 1086
2292, 406, 1014, 1281, 1291
2293, 353, 307, 182, 1096
2294, 310, 984, 252, 1256
2295, 576, 574, 1089, 1279
2296, 966, 1100, 1170, 1175
2297, 260, 1020, 1099, 1285
2298, 731, 729, 1072, 1193
2299, 937, 1137, 1004, 1170
2300, 404, 1102, 402, 1240
2301, 1023, 1097, 933, 1182
2302, 237, 1099, 235, 1285
2303, 1029, 1174, 944, 1311
2304, 1083, 1175, 966, 1297
2305, 433, 1148, 1052, 1270
2306, 944, 1029, 992, 1201
2307, 900, 1117, 912, 1254
2308, 549, 1009, 548, 1271
2309, 228, 230, 1091, 1239
2310, 809, 653, 511, 1098
2311, 413, 1135, 440, 1227
2312, 424, 347, 489, 1205
2313, 684, 1081, 827, 1088
2314, 638, 1234, 1110, 1271
2315, 271, 1020, 260, 1285
2316, 729, 726, 1072, 1251
2317, 364, 1064, 350, 1077
2318, 340, 634, 635, 1045
2319, 1022, 1111, 972, 1237
2320, 340, 478, 634, 1045
2321, 204, 1010, 203, 1273
2322, 305, 170, 342, 1108
2323, 995, 1143, 1078, 1167
2324, 192, 1166, 1063, 1302
2325, 938, 1077, 989, 1214
2326, 775, 793, 791, 1076
2327, 525, 706, 642, 1075
2328, 1031, 1214, 938, 1222
2329, 577, 578, 1089, 1259
2330, 992, 973, 1183, 1260
2331, 1047, 1118, 957, 1175
2332, 478, 634, 1045, 1110
2333, 851, 1001, 786, 1190
2334, 939, 1197, 1081, 1244
2335, 454, 354, 313, 1284
2336, 687, 651, 529, 1109
2337, 308, 1121, 182, 1277
2338, 949, 1102, 1014, 1240
2339, 722, 1018, 1123, 1303
2340, 581, 586, 583, 1055
2341, 740, 1082, 738, 1142
2342, 572, 573, 574, 996
2343, 664, 1128, 598, 1145
2344, 458, 1116, 1186, 1280
2345, 896, 899, 898, 1038
2346, 738, 1046, 1142, 1266
2347, 937, 1137, 1134, 1177
2348, 162, 265, 266, 1030
2349, 345, 430, 1114, 1281
2350, 665, 644, 857, 1033
2351, 393, 392, 1052, 1156
2352, 1036, 1070, 929, 1210
2353, 702, 818, 850, 1028
2354, 1043, 929, 1148, 1270
2355, 1019, 1144, 376, 1306
2356, 922, 1243, 1200, 1307
2357, 440, 1227, 1135, 1316
2358, 942, 1198, 1084, 1248
2359, 520, 664, 693, 1128
2360, 233, 1065, 1125, 1285
2361, 942, 1152, 1017, 1198
2362, 1115, 1184, 986, 1259
2363, 861, 872, 857, 1161
2364, 987, 1088, 1251, 1312
2365, 999, 1153, 579, 1295
2366, 922, 1189, 1056, 1243
2367, 268, 1166, 200, 1287
2368, 1021, 1126, 746, 1308
2369, 516, 787, 689, 1120
2370, 547, 1234, 638, 1271
2371, 303, 1077, 1064, 1166
2372, 231, 1016, 1125, 1250
2373, 729, 730, 731, 1072
2374, 314, 254, 219, 1284
2375, 259, 1028, 299, 1090
2376, 1031, 1222, 981, 1231
2377, 1006, 1063, 969, 1314
2378, 937, 1177, 1092, 1278
2379, 401, 400, 1102, 1313
2380, 981, 1231, 1095, 1232
2381, 377, 376, 1144, 1306
2382, 710, 714, 712, 1278
2383, 965, 1155, 1138, 1228
2384, 553, 1017, 552, 1152
2385, 547, 548, 1040, 1271
2386, 330, 296, 180, 1022
2387, 203, 1041, 202, 1273
2388, 950, 984, 1121, 1247
2389, 726, 727, 729, 1072
2390, 878, 290, 854, 1050
2391, 215, 212, 1069, 1150
2392, 233, 235, 1065, 1285
2393, 893, 1025, 897, 1191
2394, 714, 810, 715, 1177
2395, 549, 1009, 550, 1292
2396, 721, 1018, 722, 1303
2397, 392, 433, 1052, 1270
2398, 296, 1022, 330, 1140
2399, 435, 1116, 1094, 1186
2400, 600, 670, 1068, 1131
2401, 593, 651, 513, 1109
2402, 392, 433, 394, 1052
2403, 402, 401, 400, 1102
2404, 455, 434, 1260, 1284
2405, 1071, 1082, 979, 1212
2406, 806, 697, 615, 1092
2407, 183, 299, 894, 1090
2408, 271, 172, 260, 1020
2409, 481, 1144, 1084, 1306
2410, 919, 907, 893, 1025
2411, 654, 1098, 594, 1292
2412, 958, 988, 1103, 1169
2413, 389, 1062, 1156, 1192
2414, 866, 1047, 864, 1147
2415, 1040, 1093, 543, 1234
2416, 437, 1096, 1121, 1247
2417, 276, 1039, 263, 1206
2418, 1083, 934, 1175, 1297
2419, 174, 1127, 317, 1249
2420, 1007, 1227, 1223, 1317
2421, 270, 239, 237, 1099
2422, 1064, 1166, 989, 1314
2423, 304, 1006, 193, 1171
2424, 841, 749, 1208, 1305
2425, 1092, 1109, 937, 1194
2426, 605, 571, 1097, 1182
2427, 778, 683, 797, 1066
2428, 548, 1009, 549, 1292
2429, 991, 1218, 1052, 1307
2430, 778, 1066, 797, 1142
2431, 638, 1110, 630, 1271
2432, 954, 1200, 1185, 1212
2433, 1092, 1170, 966, 1194
2434, 312, 1094, 253, 1150
2435, 831, 832, 176, 1226
2436, 547, 1040, 1234, 1271
2437, 662, 510, 597, 1130
2438, 685, 1001, 851, 1190
2439, 991, 1218, 395, 1261
2440, 831, 176, 1039, 1226
2441, 954, 1212, 1035, 1268
2442, 803, 1215, 985, 1282
2443, 605, 571, 569, 1097
2444, 278, 834, 164, 1074
2445, 922, 1185, 1212, 1298
2446, 427, 986, 496, 1291
2447, 283, 1081, 275, 1197
2448, 1158, 1297, 1063, 1314
2449, 559, 994, 1133, 1174
2450, 384, 1044, 1186, 1201
2451, 620, 1115, 603, 1259
2452, 453, 349, 452, 1043
2453, 972, 1132, 1022, 1237
2454, 390, 1062, 434, 1270
2455, 185, 328, 875, 1042
2456, 1075, 781, 1151, 1264
2457, 358, 466, 871, 1309
2458, 875, 328, 883, 1042
2459, 1009, 548, 1271, 1292
2460, 925, 1019, 1216, 1248
2461, 1018, 1098, 951, 1296
2462, 414, 417, 499, 1179
2463, 244, 241, 239, 1129
2464, 411, 410, 1007, 1317
2465, 569, 568, 567, 997
2466, 947, 1116, 1094, 1150
2467, 992, 921, 1183, 1220
2468, 971, 1060, 1011, 1200
2469, 213, 1150, 1069, 1206
2470, 1024, 1060, 929, 1253
2471, 977, 1158, 934, 1173
2472, 964, 1074, 1178, 1253
2473, 501, 359, 469, 1033
2474, 936, 1040, 1134, 1216
2475, 523, 536, 352, 1095
2476, 1070, 1200, 1052, 1307
2477, 1063, 1158, 969, 1297
2478, 1003, 1161, 957, 1175
2479, 434, 390, 388, 1062
2480, 460, 1029, 485, 1192
2481, 192, 1006, 1166, 1302
2482, 1020, 1143, 963, 1167
2483, 912, 1090, 903, 1254
2484, 364, 366, 368, 1196
2485, 939, 1010, 1079, 1197
2486, 862, 864, 1161, 1221
2487, 430, 404, 1114, 1281
2488, 1125, 1208, 963, 1305
2489, 303, 1064, 195, 1166
2490, 195, 1064, 303, 1300
2491, 581, 1055, 582, 1295
2492, 270, 237, 260, 1099
2493, 837, 745, 771, 1126
2494, 226, 1091, 1011, 1267
2495, 453, 1043, 452, 1148
2496, 426, 1037, 494, 1313
2497, 951, 1098, 1292, 1296
2498, 871, 882, 867, 1309
2499, 911, 888, 183, 1090
2500, 393, 394, 395, 1218
2501, 1035, 1082, 954, 1266
2502, 292, 283, 205, 1081
2503, 467, 360, 504, 1053
2504, 744, 746, 1126, 1308
2505, 408, 1032, 445, 1227
2506, 323, 256, 234, 1250
2507, 998, 958, 1085, 1162
2508, 998, 1085, 940, 1213
2509, 172, 691, 294, 1157
2510, 1015, 1159, 950, 1247
2511, 261, 171, 272, 1208
2512, 578, 579, 999, 1259
2513, 792, 670, 689, 1131
2514, 365, 462, 369, 1077
2515, 723, 722, 721, 1123
2516, 1029, 1112, 944, 1174
2517, 762, 1173, 1105, 1264
2518, 611, 647, 531, 1233
2519, 1128, 1145, 795, 1308
2520, 929, 1043, 1062, 1270
2521, 957, 1118, 1107, 1231
2522, 564, 1034, 563, 1235
2523, 882, 871, 855, 1012
2524, 415, 473, 417, 1179
2525, 741, 740, 742, 1082
2526, 321, 255, 230, 1249
2527, 331, 335, 1135, 1237
2528, 261, 274, 273, 1013
2529, 429, 428, 439, 1237
2530, 226, 1011, 224, 1267
2531, 773, 849, 1155, 1187
2532, 176, 284, 831, 1039
2533, 267, 1064, 303, 1077
2534, 220, 1178, 1024, 1225
2535, 955, 1220, 1210, 1246
2536, 796, 693, 777, 1128
2537, 950, 1019, 1144, 1247
2538, 339, 486, 627, 1146
2539, 386, 387, 992, 1260
2540, 957, 1161, 1003, 1233
2541, 931, 1142, 1046, 1185
2542, 914, 910, 888, 1117
2543, 961, 1067, 997, 1204
2544, 1035, 1212, 1011, 1268
2545, 971, 991, 1261, 1307
2546, 717, 851, 786, 1190
2547, 208, 1079, 209, 1256
2548, 610, 1154, 637, 1198
2549, 283, 165, 275, 1081
2550, 182, 353, 1096, 1121
2551, 636, 610, 630, 1084
2552, 932, 1050, 1063, 1158
2553, 954, 1011, 1212, 1268
2554, 880, 854, 1042, 1195
2555, 691, 843, 844, 1157
2556, 174, 450, 1127, 1249
2557, 487, 418, 1073, 1146
2558, 1085, 1103, 601, 1162
2559, 1006, 1171, 935, 1245
2560, 285, 1074, 262, 1178
2561, 957, 1003, 1175, 1233
2562, 946, 986, 1115, 1184
2563, 864, 1147, 1047, 1221
2564, 365, 1077, 369, 1214
2565, 569, 997, 567, 1204
2566, 375, 1019, 376, 1306
2567, 474, 1012, 466, 1309
2568, 471, 860, 492, 1042
2569, 735, 1160, 1046, 1304
2570, 974, 1198, 1009, 1248
2571, 975, 1197, 1010, 1244
2572, 867, 1047, 866, 1195
2573, 795, 1128, 794, 1145
2574, 622, 1037, 604, 1207
2575, 936, 1051, 1137, 1222
2576, 989, 938, 1214, 1222
2577, 679, 1075, 642, 1151
2578, 227, 255, 317, 1165
2579, 1025, 1191, 940, 1213
2580, 215, 1069, 213, 1150
2581, 720, 1018, 721, 1303
2582, 511, 809, 1098, 1122
2583, 277, 315, 1043, 1148
2584, 221, 219, 220, 1024
2585, 412, 1169, 411, 1316
2586, 971, 1148, 1052, 1261
2587, 1028, 1090, 259, 1138
2588, 978, 1119, 1114, 1281
2589, 939, 987, 1079, 1312
2590, 268, 200, 332, 1287
2591, 940, 976, 1149, 1228
2592, 450, 174, 318, 1249
2593, 1020, 1099, 945, 1157
2594, 898, 1191, 1038, 1254
2595, 165, 1081, 684, 1088
2596, 929, 1220, 1024, 1253
2597, 989, 1064, 932, 1196
2598, 940, 1101, 1059, 1149
2599, 1009, 1198, 974, 1271
2600, 485, 1029, 423, 1201
2601, 192, 1006, 304, 1166
2602, 942, 1248, 1084, 1306
2603, 839, 909, 918, 1028
2604, 906, 893, 897, 1191
2605, 739, 738, 740, 1082
2606, 1010, 1197, 975, 1273
2607, 1003, 1161, 1047, 1221
2608, 625, 522, 487, 1073
2609, 411, 1007, 1169, 1317
2610, 216, 1005, 1150, 1206
2611, 573, 574, 996, 1207
2612, 939, 1244, 1081, 1303
2613, 406, 445, 408, 1032
2614, 243, 1008, 241, 1265
2615, 782, 1101, 1059, 1310
2616, 198, 191, 287, 1001
2617, 924, 1211, 1181, 1219
2618, 390, 392, 1156, 1270
2619, 215, 1150, 213, 1206
2620, 718, 719, 720, 1026
2621, 934, 1118, 1047, 1175
2622, 964, 1039, 1005, 1225
2623, 285, 1178, 220, 1225
2624, 270, 1020, 172, 1157
2625, 273, 1013, 274, 1209
2626, 371, 1107, 366, 1232
2627, 790, 1068, 792, 1131
2628, 1009, 1271, 1040, 1292
2629, 228, 230, 227, 1091
2630, 373, 374, 375, 1027
2631, 231, 232, 1016, 1250
2632, 820, 762, 1105, 1264
2633, 658, 512, 596, 1087
2634, 195, 1166, 1064, 1300
2635, 498, 1104, 1141, 1223
2636, 716, 711, 823, 1083
2637, 1248, 1269, 1048, 1296
2638, 898, 897, 896, 1191
2639, 1024, 1220, 1036, 1253
2640, 641, 1104, 586, 1141
2641, 932, 1063, 1050, 1300
2642, 692, 794, 664, 1145
2643, 396, 991, 395, 1261
2644, 490, 1023, 347, 1218
2645, 428, 440, 1237, 1316
2646, 610, 1084, 1154, 1198
2647, 871, 1012, 882, 1309
2648, 652, 1109, 593, 1263
2649, 938, 1214, 1108, 1287
2650, 780, 1188, 730, 1282
2651, 898, 902, 1191, 1254
2652, 658, 633, 512, 1087
2653, 715, 1177, 718, 1190
2654, 581, 1153, 1055, 1295
2655, 672, 587, 590, 1213
2656, 932, 1118, 1047, 1158
2657, 1081, 1244, 975, 1303
2658, 381, 382, 383, 1044
2659, 437, 1096, 353, 1121
2660, 937, 1004, 1177, 1278
2661, 974, 1084, 1248, 1306
2662, 773, 849, 759, 1155
2663, 953, 1131, 1120, 1295
2664, 467, 1053, 504, 1179
2665, 1160, 1241, 799, 1262
2666, 631, 1174, 557, 1286
2667, 708, 706, 525, 1075
2668, 956, 1188, 1124, 1282
2669, 310, 252, 210, 1256
2670, 959, 1119, 1032, 1227
2671, 193, 304, 192, 1006
2672, 972, 1237, 1135, 1316
2673, 866, 867, 865, 1047
2674, 563, 562, 561, 1034
2675, 191, 1001, 1245, 1302
2676, 839, 918, 320, 1028
2677, 995, 1068, 960, 1242
2678, 862, 864, 865, 1161
2679, 791, 692, 668, 1076
2680, 762, 852, 812, 1105
2681, 1009, 1040, 968, 1292
2682, 1105, 1173, 934, 1264
2683, 783, 782, 699, 1101
2684, 389, 390, 391, 1156
2685, 980, 1219, 1112, 1286
2686, 1112, 1219, 944, 1286
2687, 1013, 1125, 261, 1239
2688, 1118, 1297, 1158, 1314
2689, 985, 1215, 993, 1282
2690, 970, 1133, 1087, 1294
2691, 806, 615, 513, 1092
2692, 266, 1030, 244, 1157
2693, 610, 526, 637, 1154
2694, 949, 1000, 1057, 1293
2695, 787, 516, 673, 1120
2696, 850, 1028, 707, 1155
2697, 191, 1001, 198, 1245
2698, 229, 279, 1035, 1268
2699, 954, 1011, 1200, 1212
2700, 456, 1094, 435, 1116
2701, 629, 514, 484, 1112
2702, 333, 302, 1042, 1300
2703, 1024, 1178, 964, 1225
2704, 294, 807, 266, 1157
2705, 1073, 1146, 955, 1252
2706, 818, 909, 839, 1028
2707, 950, 1159, 1048, 1269
2708, 987, 1251, 1230, 1312
2709, 1000, 948, 1139, 1272
2710, 1092, 937, 1170, 1194
2711, 863, 862, 856, 1003
2712, 1063, 1166, 1006, 1302
2713, 384, 1186, 1044, 1280
2714, 717, 1177, 715, 1190
2715, 451, 348, 450, 1127
2716, 679, 648, 1075, 1315
2717, 823, 712, 1004, 1278
2718, 580, 581, 582, 1295
2719, 1082, 1185, 979, 1212
2720, 391, 390, 392, 1156
2721, 620, 619, 603, 1115
2722, 745, 744, 746, 1126
2723, 969, 1083, 1004, 1297
2724, 387, 1192, 992, 1260
2725, 932, 1047, 1012, 1195
2726, 445, 1032, 406, 1281
2727, 728, 1098, 809, 1122
2728, 835, 1035, 1082, 1289
2729, 580, 579, 1153, 1295
2730, 279, 280, 229, 1035
2731, 941, 1104, 1141, 1153
2732, 948, 1165, 1127, 1249
2733, 281, 684, 828, 1088
2734, 415, 429, 473, 1132
2735, 1069, 1199, 987, 1230
2736, 231, 1125, 233, 1250
2737, 798, 660, 683, 1066
2738, 949, 1057, 1000, 1240
2739, 218, 220, 1024, 1225
2740, 985, 993, 1181, 1282
2741, 946, 1089, 1184, 1259
2742, 224, 1267, 1011, 1268
2743, 193, 1245, 1006, 1302
2744, 1008, 959, 1129, 1224
2745, 610, 1084, 526, 1154
2746, 981, 1045, 1031, 1232
2747, 746, 748, 747, 1106
2748, 193, 1006, 192, 1302
2749, 1064, 1166, 1063, 1300
2750, 945, 1002, 1078, 1290
2751, 1230, 1251, 993, 1312
2752, 383, 1044, 384, 1201
2753, 963, 1208, 1167, 1305
2754, 1039, 1206, 1005, 1225
2755, 313, 354, 166, 1284
2756, 431, 400, 449, 1272
2757, 561, 1034, 562, 1294
2758, 641, 343, 614, 1104
2759, 413, 445, 1119, 1227
2760, 302, 295, 333, 1042
2761, 1013, 1126, 962, 1209
2762, 954, 1082, 1185, 1266
2763, 961, 1070, 1052, 1307
2764, 425, 494, 346, 1037
2765, 261, 274, 1013, 1239
2766, 825, 1086, 767, 1190
2767, 243, 1111, 1008, 1265
2768, 956, 1164, 1054, 1311
2769, 941, 1141, 1223, 1291
2770, 848, 705, 816, 1025
2771, 410, 412, 411, 1316
2772, 982, 930, 1117, 1288
2773, 679, 648, 642, 1075
2774, 585, 1085, 587, 1258
2775, 987, 939, 1088, 1312
2776, 954, 1035, 1266, 1275
2777, 458, 1186, 384, 1280
2778, 746, 776, 1021, 1308
2779, 776, 692, 793, 1076
2780, 692, 1076, 776, 1145
2781, 561, 563, 1034, 1252
2782, 280, 1035, 279, 1275
2783, 1063, 1158, 1050, 1236
2784, 1039, 1193, 943, 1206
2785, 618, 641, 586, 1141
2786, 814, 1122, 803, 1215
2787, 1016, 1057, 949, 1250
2788, 360, 920, 503, 1053
2789, 447, 430, 404, 1114
2790, 619, 517, 495, 1115
2791, 951, 985, 1122, 1215
2792, 557, 1174, 1058, 1286
2793, 1120, 1131, 953, 1238
2794, 193, 191, 1245, 1302
2795, 935, 1041, 1051, 1217
2796, 542, 1045, 634, 1234
2797, 736, 1046, 735, 1160
2798, 256, 173, 321, 1057
2799, 348, 315, 316, 1148
2800, 934, 1173, 1158, 1297
2801, 554, 555, 556, 1058
2802, 164, 279, 262, 1275
2803, 929, 1200, 1070, 1253
2804, 985, 951, 1211, 1215
2805, 969, 1063, 1006, 1302
2806, 985, 1211, 993, 1215
2807, 412, 1132, 415, 1169
2808, 854, 875, 880, 1042
2809, 443, 505, 340, 1045
2810, 393, 391, 392, 1156
2811, 985, 956, 1124, 1282
2812, 668, 599, 507, 1279
2813, 210, 208, 209, 1256
2814, 977, 1147, 934, 1158
2815, 936, 1134, 1051, 1216
2816, 469, 359, 506, 1033
2817, 715, 1026, 718, 1177
2818, 461, 46, 305, 462
2819, 862, 1161, 1003, 1221
2820, 776, 1145, 1021, 1308
2821, 466, 416, 506, 1012
2822, 502, 612, 508, 1103
2823, 564, 566, 661, 1130
2824, 516, 689, 670, 1131
2825, 571, 1097, 572, 1299
2826, 260, 1099, 237, 1285
2827, 623, 605, 1023, 1182
2828, 561, 560, 559, 1294
2829, 398, 400, 1139, 1272
2830, 1087, 1124, 956, 1188
2831, 564, 565, 566, 1067
2832, 279, 1035, 1268, 1275
2833, 321, 230, 232, 1016
2834, 1060, 1200, 954, 1268
2835, 738, 1142, 1046, 1262
2836, 599, 668, 1076, 1279
2837, 434, 1043, 453, 1270
2838, 923, 1172, 1014, 1184
2839, 841, 749, 772, 1208
2840, 320, 188, 839, 1028
2841, 462, 350, 267, 1077
2842, 985, 1181, 956, 1282
2843, 400, 399, 1139, 1313
2844, 968, 1040, 1134, 1263
2845, 1045, 1110, 634, 1234
2846, 268, 304, 200, 1166
2847, 604, 1115, 620, 1207
2848, 412, 1132, 1169, 1316
2849, 973, 1220, 1062, 1260
2850, 935, 1134, 1026, 1217
2851, 1011, 954, 1200, 1268
2852, 877, 1050, 854, 1195
2853, 1042, 1196, 438, 1309
2854, 671, 617, 516, 1120
2855, 985, 1181, 993, 1211
2856, 546, 547, 548, 1040
2857, 485, 339, 423, 1029
2858, 203, 201, 202, 1041
2859, 988, 1103, 1169, 1317
2860, 299, 320, 918, 1028
2861, 701, 286, 824, 1086
2862, 1025, 1149, 940, 1191
2863, 526, 636, 480, 1084
2864, 234, 235, 236, 1065
2865, 807, 294, 691, 1157
2866, 826, 165, 292, 1081
2867, 234, 233, 235, 1065
2868, 221, 222, 1060, 1178
2869, 462, 1077, 167, 1287
2870, 921, 992, 1183, 1311
2871, 644, 611, 531, 1033
2872, 667, 1076, 519, 1145
2873, 932, 1064, 1042, 1196
2874, 401, 403, 426, 1102
2875, 927, 1170, 1137, 1222
2876, 503, 920, 666, 1053
2877, 912, 888, 903, 1090
2878, 635, 542, 538, 1045
2879, 666, 920, 891, 1053
2880, 390, 389, 388, 1062
2881, 947, 1186, 1116, 1280
2882, 795, 693, 794, 1128
2883, 589, 679, 639, 1003
2884, 464, 459, 436, 1121
2885, 994, 1246, 1164, 1311
2886, 388, 1062, 389, 1192
2887, 968, 1292, 1098, 1296
2888, 949, 1057, 1016, 1293
2889, 442, 1095, 476, 1232
2890, 550, 1009, 1152, 1292
2891, 216, 1150, 215, 1206
2892, 606, 1073, 625, 1205
2893, 928, 1126, 1021, 1274
2894, 944, 1174, 1112, 1286
2895, 564, 661, 591, 1066
2896, 412, 415, 414, 1169
2897, 717, 715, 718, 1190
2898, 606, 626, 625, 1073
2899, 231, 233, 232, 1250
2900, 973, 1094, 1260, 1284
2901, 934, 1047, 1118, 1158
2902, 888, 291, 183, 1090
2903, 431, 448, 344, 1057
2904, 233, 1125, 272, 1285
2905, 929, 1036, 1220, 1253
2906, 813, 819, 783, 1149
2907, 380, 464, 436, 1247
2908, 680, 792, 790, 1068
2909, 857, 874, 886, 1033
2910, 1133, 1164, 994, 1294
2911, 1011, 962, 1091, 1243
2912, 785, 786, 685, 1001
2913, 229, 1267, 224, 1268
2914, 233, 1065, 234, 1250
2915, 975, 1197, 1081, 1273
2916, 608, 527, 628, 1029
2917, 931, 1034, 1067, 1210
2918, 935, 1134, 1051, 1137
2919, 551, 550, 549, 1198
2920, 930, 1111, 1138, 1255
2921, 515, 630, 638, 1110
2922, 186, 291, 40, 910
2923, 253, 166, 311, 1094
2924, 360, 908, 920, 1053
2925, 245, 247, 326, 1111
2926, 377, 376, 378, 1144
2927, 730, 1188, 1072, 1282
2928, 958, 1103, 1085, 1162
2929, 302, 303, 1064, 1300
2930, 165, 684, 17, 281
2931, 952, 1056, 1274, 1298
2932, 207, 206, 204, 1197
2933, 384, 1186, 385, 1201
2934, 172, 270, 260, 1020
2935, 755, 1078, 1238, 1290
2936, 974, 1198, 1084, 1271
2937, 766, 1157, 807, 1290
2938, 232, 256, 321, 1250
2939, 937, 1004, 1137, 1177
2940, 437, 1121, 464, 1247
2941, 713, 709, 1083, 1264
2942, 933, 1000, 1139, 1313
2943, 558, 658, 596, 1133
2944, 692, 664, 519, 1145
2945, 278, 1074, 285, 1226
2946, 482, 632, 526, 1154
2947, 1133, 1164, 956, 1311
2948, 278, 695, 834, 1074
2949, 345, 324, 468, 1119
2950, 963, 1208, 1125, 1285
2951, 561, 1252, 1034, 1294
2952, 761, 758, 756, 1310
2953, 1064, 1077, 989, 1166
2954, 598, 1145, 1128, 1299
2955, 416, 368, 1107, 1196
2956, 988, 1169, 1007, 1317
2957, 814, 696, 803, 1122
2958, 545, 1093, 543, 1263
2959, 733, 804, 1193, 1304
2960, 738, 1046, 736, 1262
2961, 164, 262, 1074, 1275
2962, 996, 946, 1136, 1207
2963, 952, 1056, 1298, 1301
2964, 627, 527, 92, 339
2965, 222, 224, 223, 1060
2966, 434, 349, 453, 1043
2967, 284, 263, 276, 1039
2968, 1097, 1298, 1189, 1301
2969, 392, 1052, 1156, 1270
2970, 749, 750, 1167, 1242
2971, 479, 1110, 420, 1202
2972, 456, 341, 311, 1116
2973, 231, 1125, 1016, 1239
2974, 597, 520, 662, 1128
2975, 758, 760, 759, 1059
2976, 500, 614, 343, 1104
2977, 688, 800, 130, 512
2978, 400, 399, 398, 1139
2979, 1039, 1193, 804, 1304
2980, 772, 843, 691, 1020
2981, 924, 987, 1199, 1230
2982, 175, 452, 56, 349
2983, 502, 351, 612, 1103
2984, 924, 1199, 987, 1312
2985, 431, 449, 1057, 1272
2986, 428, 440, 335, 1237
2987, 685, 851, 767, 1190
2988, 969, 1158, 977, 1173
2989, 954, 1082, 1035, 1212
2990, 424, 1205, 488, 1218
2991, 1083, 1173, 713, 1264
2992, 345, 430, 446, 1114
2993, 862, 1003, 863, 1221
2994, 547, 1040, 543, 1234
2995, 936, 1051, 1027, 1216
2996, 1051, 1134, 935, 1217
2997, 1164, 1246, 921, 1311
2998, 178, 686, 20, 284
2999, 343, 498, 1104, 1141
3000, 349, 1043, 434, 1284
3001, 580, 1153, 581, 1295
3002, 743, 742, 744, 1071
3003, 1074, 1268, 954, 1275
3004, 477, 366, 367, 1214
3005, 1073, 955, 1235, 1252
3006, 390, 1156, 1062, 1270
3007, 306, 170, 250, 1108
3008, 755, 1078, 754, 1238
3009, 1004, 712, 1177, 1278
3010, 941, 1032, 1049, 1172
3011, 576, 577, 578, 1089
3012, 1019, 1248, 925, 1269
3013, 954, 1178, 1074, 1253
3014, 894, 903, 911, 1090
3015, 149, 873, 856, 532
3016, 749, 1167, 1106, 1242
3017, 655, 696, 809, 1122
3018, 551, 1152, 550, 1198
3019, 460, 1146, 1029, 1192
3020, 924, 987, 1230, 1312
3021, 254, 166, 312, 1284
3022, 438, 471, 361, 1042
3023, 713, 1173, 762, 1264
3024, 924, 1015, 1159, 1283
3025, 652, 529, 593, 1109
3026, 603, 518, 618, 1141
3027, 1048, 1269, 1244, 1296
3028, 336, 318, 448, 1249
3029, 567, 1067, 565, 1204
3030, 989, 1222, 1231, 1314
3031, 939, 1010, 1244, 1269
3032, 958, 1132, 982, 1288
3033, 353, 309, 459, 1121
3034, 658, 1133, 560, 1294
3035, 1052, 1218, 961, 1307
3036, 277, 315, 175, 1043
3037, 761, 756, 1238, 1310
3038, 667, 599, 1076, 1279
3039, 477, 367, 1031, 1214
3040, 700, 802, 657, 1124
3041, 710, 1229, 1092, 1278
3042, 278, 262, 285, 1074
3043, 992, 1192, 1062, 1260
3044, 1017, 1219, 1211, 1283
3045, 957, 1033, 1161, 1233
3046, 382, 384, 1044, 1280
3047, 173, 1057, 448, 1249
3048, 667, 1145, 598, 1299
3049, 471, 1042, 438, 1309
3050, 800, 801, 700, 1087
3051, 1211, 1219, 924, 1283
3052, 364, 350, 365, 1077
3053, 961, 1204, 1023, 1218
3054, 993, 939, 1123, 1312
3055, 1024, 964, 1178, 1253
3056, 970, 1087, 1133, 1164
3057, 167, 462, 267, 1077
3058, 625, 487, 337, 1073
3059, 391, 418, 389, 1156
3060, 868, 1105, 1147, 1221
3061, 1052, 1261, 991, 1307
3062, 498, 1223, 1141, 1291
3063, 707, 839, 188, 1028
3064, 684, 827, 789, 1088
3065, 739, 1082, 835, 1266
3066, 621, 1037, 622, 1182
3067, 969, 977, 1158, 1236
3068, 922, 1185, 1200, 1212
3069, 232, 230, 231, 1016
3070, 416, 474, 368, 1196
3071, 1189, 1298, 1056, 1301
3072, 222, 224, 1060, 1268
3073, 249, 245, 326, 1237
3074, 946, 1115, 1037, 1207
3075, 564, 562, 563, 1034
3076, 1014, 1172, 986, 1184
3077, 999, 1184, 1172, 1257
3078, 947, 1044, 1186, 1280
3079, 12, 177, 785, 287
3080, 692, 519, 668, 1076
3081, 648, 649, 1229, 1315
3082, 233, 1125, 1065, 1250
3083, 866, 865, 864, 1047
3084, 121, 806, 697, 615
3085, 442, 635, 83, 523
3086, 462, 45, 267, 350
3087, 192, 1063, 194, 1302
3088, 971, 1200, 1011, 1243
3089, 141, 516, 787, 689
3090, 488, 1073, 418, 1156
3091, 515, 634, 478, 1110
3092, 1063, 1236, 194, 1302
3093, 934, 1147, 1047, 1158
3094, 220, 219, 218, 1024
3095, 1000, 1240, 1057, 1272
3096, 982, 1132, 958, 1179
3097, 331, 335, 327, 1135
3098, 165, 16, 826, 292
3099, 526, 87, 480, 636
3100, 923, 1143, 1049, 1257
3101, 427, 1141, 986, 1291
3102, 511, 594, 654, 1098
3103, 353, 463, 49, 307
3104, 392, 394, 393, 1052
3105, 809, 125, 653, 808
3106, 1042, 1195, 1050, 1300
3107, 969, 1173, 977, 1236
3108, 1014, 978, 1114, 1281
3109, 548, 549, 550, 1292
3110, 995, 1143, 923, 1257
3111, 952, 1274, 1071, 1298
3112, 969, 1176, 1173, 1236
3113, 604, 622, 621, 1037
3114, 1056, 952, 1274, 1301
3115, 931, 1067, 1070, 1210
3116, 167, 305, 46, 462
3117, 406, 408, 407, 1032
3118, 452, 315, 348, 1148
3119, 872, 865, 882, 1161
3120, 958, 982, 1179, 1288
3121, 1020, 1208, 963, 1285
3122, 471, 860, 1042, 1309
3123, 50, 459, 353, 309
3124, 526, 482, 88, 632
3125, 696, 126, 655, 809
3126, 1008, 1111, 972, 1255
3127, 965, 1187, 1030, 1265
3128, 431, 344, 447, 1240
3129, 1001, 1176, 969, 1302
3130, 183, 259, 299, 1090
3131, 199, 1041, 1171, 1245
3132, 231, 1016, 230, 1239
3133, 987, 1199, 1159, 1312
3134, 566, 565, 567, 1067
3135, 193, 1171, 1006, 1245
3136, 1011, 1165, 971, 1243
3137, 667, 574, 599, 1279
3138, 331, 1135, 249, 1237
3139, 1011, 1212, 962, 1243
3140, 942, 1144, 1248, 1306
3141, 974, 1216, 1019, 1248
3142, 737, 1046, 738, 1266
3143, 1049, 1163, 941, 1257
3144, 975, 1217, 1018, 1244
3145, 321, 1057, 173, 1249
3146, 229, 1035, 293, 1267
3147, 248, 316, 315, 1148
3148, 927, 1231, 1222, 1314
3149, 307, 463, 48, 342
3150, 1011, 1200, 1060, 1268
3151, 779, 801, 1087, 1188
3152, 176, 263, 1039, 1226
3153, 944, 1058, 1174, 1286
3154, 474, 1196, 1012, 1309
3155, 851, 685, 786, 1001
3156, 608, 628, 559, 1174
3157, 989, 1214, 1031, 1222
3158, 449, 448, 1057, 1249
3159, 631, 608, 557, 1174
3160, 619, 495, 334, 1115
3161, 963, 1167, 1143, 1180
3162, 1062, 1192, 388, 1260
3163, 1074, 1178, 954, 1268
3164, 128, 700, 802, 657
3165, 267, 181, 303, 1064
3166, 775, 1068, 790, 1242
3167, 176, 263, 284, 1039
3168, 423, 1112, 483, 1201
3169, 964, 1046, 1160, 1304
3170, 167, 1077, 332, 1287
3171, 1042, 1064, 932, 1300
3172, 898, 1038, 900, 1254
3173, 936, 1031, 1045, 1202
3174, 687, 805, 123, 651
3175, 634, 85, 515, 478
3176, 675, 699, 784, 1101
3177, 342, 47, 305, 461
3178, 954, 1200, 1060, 1253
3179, 387, 460, 485, 1192
3180, 424, 488, 393, 1218
3181, 642, 1075, 706, 1151
3182, 387, 388, 1192, 1260
3183, 181, 361, 43, 295
3184, 942, 1084, 1144, 1306
3185, 119, 642, 525, 706
3186, 81, 469, 352, 534
3187, 815, 10, 187, 698
3188, 510, 683, 660, 1066
3189, 196, 333, 290, 1300
3190, 456, 52, 311, 341
3191, 484, 629, 90, 514
3192, 466, 855, 110, 871
3193, 632, 482, 89, 514
3194, 341, 459, 51, 309
3195, 484, 514, 355, 1112
3196, 437, 353, 464, 1121
3197, 286, 179, 14, 824
3198, 212, 213, 215, 1069
3199, 761, 1238, 1120, 1310
3200, 477, 372, 443, 1031
3201, 781, 1075, 709, 1264
3202, 648, 1229, 1075, 1315
3203, 589, 679, 1003, 1315
3204, 934, 1083, 1173, 1297
3205, 174, 317, 255, 1249
3206, 555, 557, 1058, 1286
3207, 148, 639, 856, 861
3208, 383, 382, 384, 1044
3209, 640, 116, 533, 907
3210, 507, 600, 670, 1068
3211, 680, 790, 775, 1068
3212, 941, 1223, 1104, 1317
3213, 948, 1057, 1249, 1272
3214, 227, 226, 1091, 1165
3215, 443, 477, 1031, 1232
3216, 564, 563, 565, 1235
3217, 514, 1112, 631, 1286
3218, 168, 468, 324, 1119
3219, 718, 825, 767, 1190
3220, 745, 743, 744, 1126
3221, 529, 652, 594, 1292
3222, 1019, 1248, 1144, 1306
3223, 499, 1103, 419, 1169
3224, 931, 1130, 1066, 1142
3225, 231, 261, 1125, 1239
3226, 738, 737, 736, 1046
3227, 456, 311, 53, 354
3228, 996, 952, 1299, 1301
3229, 339, 1029, 460, 1146
3230, 478, 1045, 420, 1110
3231, 1172, 1184, 923, 1257
3232, 259, 1090, 300, 1138
3233, 454, 54, 313, 354
3234, 925, 1269, 1248, 1296
3235, 1035, 1267, 229, 1268
3236, 970, 1164, 1133, 1294
3237, 216, 276, 263, 1206
3238, 129, 800, 700, 657
3239, 293, 229, 280, 1035
3240, 692, 519, 1076, 1145
3241, 941, 1172, 1049, 1257
3242, 195, 1063, 1166, 1300
3243, 358, 474, 466, 1309
3244, 401, 426, 494, 1313
3245, 1011, 1091, 962, 1267
3246, 198, 1086, 288, 1245
3247, 358, 466, 110, 871
3248, 891, 645, 666, 1053
3249, 856, 639, 149, 532
3250, 466, 474, 416, 1012
3251, 977, 1050, 1158, 1236
3252, 944, 1112, 1029, 1201
3253, 226, 228, 1091, 1267
3254, 962, 1126, 1071, 1289
3255, 987, 1088, 1080, 1251
3256, 435, 1094, 455, 1260
3257, 760, 819, 763, 1149
3258, 945, 1099, 1020, 1143
3259, 628, 1146, 607, 1252
3260, 702, 909, 154, 818
3261, 936, 1093, 1040, 1234
3262, 814, 728, 809, 1122
3263, 671, 1131, 600, 1295
3264, 1034, 1246, 970, 1294
3265, 293, 1209, 297, 1267
3266, 735, 736, 737, 1046
3267, 492, 361, 471, 1042
3268, 172, 31, 294, 691
3269, 1052, 1200, 971, 1307
3270, 23, 278, 834, 164
3271, 233, 272, 235, 1285
3272, 956, 1072, 1188, 1282
3273, 958, 1203, 1132, 1288
3274, 164, 1074, 834, 1275
3275, 553, 552, 551, 1152
3276, 380, 379, 378, 1247
3277, 962, 1209, 1091, 1239
3278, 312, 166, 253, 1094
3279, 898, 902, 915, 1191
3280, 425, 399, 494, 1313
3281, 440, 413, 441, 1135
3282, 288, 198, 179, 1086
3283, 924, 1159, 1199, 1312
3284, 634, 542, 635, 1045
3285, 796, 133, 662, 683
3286, 927, 1118, 1231, 1314
3287, 1103, 419, 1169, 1317
3288, 470, 503, 666, 1053
3289, 685, 12, 785, 287
3290, 725, 1215, 803, 1282
3291, 881, 812, 853, 1105
3292, 444, 1104, 498, 1223
3293, 487, 522, 486, 1146
3294, 830, 686, 764, 1080
3295, 899, 900, 898, 1038
3296, 806, 121, 513, 615
3297, 340, 635, 83, 442
3298, 45, 267, 167, 462
3299, 811, 1120, 761, 1238
3300, 299, 918, 894, 1028
3301, 406, 1032, 407, 1291
3302, 587, 672, 592, 1101
3303, 336, 1127, 450, 1249
3304, 406, 1281, 1032, 1291
3305, 435, 1186, 1094, 1260
3306, 491, 509, 97, 623
3307, 318, 59, 450, 336
3308, 760, 1059, 782, 1149
3309, 850, 707, 773, 1155
3310, 925, 1248, 1009, 1296
3311, 521, 489, 96, 623
3312, 447, 404, 402, 1240
3313, 928, 1136, 1056, 1301
3314, 216, 215, 213, 1206
3315, 969, 1158, 1173, 1297
3316, 371, 366, 477, 1232
3317, 664, 520, 598, 1128
3318, 922, 1189, 991, 1307
3319, 447, 344, 446, 1114
3320, 326, 330, 180, 1022
3321, 1012, 932, 1195, 1309
3322, 438, 1064, 364, 1196
3323, 458, 456, 435, 1116
3324, 579, 603, 1153, 1259
3325, 1094, 1116, 947, 1186
3326, 626, 606, 565, 1235
3327, 697, 1092, 710, 1229
3328, 1003, 1075, 1175, 1315
3329, 623, 509, 605, 1182
3330, 923, 1143, 995, 1180
3331, 407, 1032, 408, 1223
3332, 265, 243, 241, 1265
3333, 662, 134, 796, 693
3334, 557, 556, 555, 1058
3335, 987, 1080, 1230, 1251
3336, 973, 1094, 1150, 1183
3337, 907, 897, 893, 1025
3338, 609, 514, 631, 1286
3339, 1041, 935, 1171, 1245
3340, 273, 163, 27, 840
3341, 646, 590, 588, 1213
3342, 302, 195, 303, 1300
3343, 432, 1127, 1249, 1272
3344, 1006, 1245, 1001, 1302
3345, 579, 1153, 999, 1259
3346, 315, 452, 56, 175
3347, 780, 700, 801, 1124
3348, 1045, 1110, 936, 1202
3349, 939, 1244, 1048, 1269
3350, 92, 627, 339, 486
3351, 677, 533, 643, 1025
3352, 924, 1159, 1048, 1283
3353, 525, 648, 649, 1229
3354, 336, 318, 60, 448
3355, 173, 448, 318, 1249
3356, 1012, 1196, 932, 1309
3357, 833, 1226, 765, 1304
3358, 706, 1075, 781, 1151
3359, 605, 624, 623, 1023
3360, 404, 403, 402, 1102
3361, 659, 688, 130, 512
3362, 561, 994, 1252, 1294
3363, 525, 1075, 648, 1229
3364, 343, 1104, 641, 1141
3365, 141, 516, 673, 787
3366, 195, 1063, 192, 1166
3367, 441, 468, 65, 168
3368, 952, 1145, 1128, 1308
3369, 684, 828, 17, 281
3370, 338, 1084, 481, 1154
3371, 641, 343, 103, 614
3372, 196, 1063, 195, 1300
3373, 370, 1027, 373, 1202
3374, 697, 615, 1092, 1229
3375, 602, 535, 1053, 1162
3376, 266, 265, 244, 1030
3377, 379, 1144, 378, 1247
3378, 180, 326, 1022, 1237
3379, 686, 831, 20, 284
3380, 543, 1040, 546, 1263
3381, 939, 1088, 1081, 1197
3382, 1210, 1220, 1036, 1246
3383, 675, 524, 699, 1101
3384, 972, 1007, 1203, 1316
3385, 534, 644, 665, 1033
3386, 791, 692, 137, 668
3387, 260, 237, 235, 1285
3388, 100, 619, 517, 495
3389, 344, 322, 62, 446
3390, 1090, 1117, 930, 1254
3391, 341, 1116, 458, 1280
3392, 346, 494, 426, 1037
3393, 537, 611, 536, 1095
3394, 266, 244, 294, 1157
3395, 999, 923, 1184, 1257
3396, 499, 419, 414, 1169
3397, 749, 1106, 1167, 1305
3398, 925, 1244, 1010, 1269
3399, 742, 744, 1071, 1308
3400, 436, 341, 458, 1280
3401, 370, 367, 369, 1214
3402, 784, 761, 787, 1310
3403, 263, 1225, 1039, 1226
3404, 937, 1194, 1109, 1263
3405, 408, 409, 1223, 1227
3406, 1075, 966, 1175, 1315
3407, 1079, 1197, 1010, 1277
3408, 1071, 1126, 962, 1274
3409, 794, 693, 135, 664
3410, 779, 732, 801, 1188
3411, 246, 1138, 1111, 1265
3412, 178, 19, 829, 282
3413, 952, 1298, 1097, 1301
3414, 304, 193, 200, 1171
3415, 558, 559, 560, 1133
3416, 990, 1193, 1039, 1304
3417, 936, 1110, 1045, 1234
3418, 139, 680, 670, 792
3419, 441, 327, 335, 1135
3420, 545, 650, 1093, 1194
3421, 835, 1082, 741, 1289
3422, 980, 1017, 1219, 1286
3423, 801, 730, 780, 1188
3424, 860, 875, 883, 1042
3425, 1042, 932, 1196, 1309
3426, 751, 750, 752, 1167
3427, 526, 480, 338, 1084
3428, 424, 490, 347, 1218
3429, 992, 1186, 386, 1260
3430, 345, 446, 63, 324
3431, 539, 541, 537, 1100
3432, 941, 1223, 1172, 1291
3433, 1051, 1134, 925, 1216
3434, 171, 273, 28, 840
3435, 826, 684, 165, 1081
3436, 170, 305, 250, 1108
3437, 338, 482, 526, 1154
3438, 909, 890, 702, 154
3439, 215, 216, 217, 1150
3440, 477, 367, 372, 1031
3441, 43, 363, 361, 181
3442, 708, 119, 525, 706
3443, 534, 352, 81, 536
3444, 189, 187, 10, 698
3445, 692, 794, 136, 664
3446, 588, 602, 646, 1162
3447, 625, 94, 487, 522
3448, 709, 1229, 710, 1278
3449, 498, 1141, 427, 1291
3450, 651, 593, 529, 1109
3451, 628, 627, 607, 1146
3452, 924, 993, 1181, 1211
3453, 488, 418, 391, 1156
3454, 820, 1105, 703, 1264
3455, 327, 168, 269, 1135
3456, 996, 1299, 1097, 1301
3457, 132, 798, 660, 683
3458, 455, 454, 434, 1284
3459, 357, 905, 77, 889
3460, 950, 1121, 1096, 1247
3461, 311, 341, 169, 1116
3462, 486, 522, 627, 1146
3463, 389, 418, 460, 1192
3464, 803, 802, 780, 1282
3465, 941, 1032, 1172, 1223
3466, 802, 1124, 780, 1282
3467, 301, 290, 184, 1050
3468, 820, 713, 762, 1264
3469, 195, 196, 194, 1063
3470, 924, 993, 1211, 1312
3471, 600, 671, 516, 1131
3472, 765, 1039, 804, 1304
3473, 1094, 1186, 1183, 1260
3474, 450, 348, 58, 316
3475, 667, 519, 598, 1145
3476, 1132, 1203, 1169, 1316
3477, 670, 140, 792, 689
3478, 924, 1181, 993, 1230
3479, 1083, 934, 1173, 1264
3480, 710, 806, 714, 1092
3481, 158, 812, 853, 881
3482, 989, 1222, 1031, 1231
3483, 924, 1230, 993, 1312
3484, 922, 1189, 997, 1298
3485, 807, 294, 31, 691
3486, 1060, 1200, 929, 1253
3487, 998, 1168, 1038, 1288
3488, 398, 397, 396, 1139
3489, 199, 1041, 201, 1171
3490, 1204, 1205, 1023, 1218
3491, 711, 1083, 709, 1278
3492, 933, 1056, 1136, 1301
3493, 1032, 1172, 1223, 1291
3494, 578, 577, 579, 1259
3495, 418, 1146, 460, 1192
3496, 868, 870, 1105, 1221
3497, 432, 1127, 336, 1249
3498, 182, 307, 251, 1096
3499, 243, 246, 1111, 1265
3500, 293, 25, 836, 280
3501, 1138, 1255, 1111, 1265
3502, 786, 785, 822, 1176
3503, 428, 1132, 412, 1316
3504, 777, 693, 795, 1128
3505, 345, 1119, 445, 1281
3506, 653, 594, 511, 1098
3507, 268, 332, 1077, 1287
3508, 283, 1197, 204, 1273
3509, 549, 610, 1198, 1271
3510, 229, 226, 224, 1267
3511, 722, 1123, 827, 1303
3512, 1168, 1179, 982, 1288
3513, 528, 657, 802, 1124
3514, 916, 904, 889, 1168
3515, 467, 357, 77, 889
3516, 638, 634, 1110, 1234
3517, 371, 368, 366, 1107
3518, 880, 877, 854, 1195
3519, 831, 1039, 765, 1226
3520, 456, 354, 435, 1094
3521, 429, 415, 428, 1132
3522, 970, 1241, 1160, 1262
3523, 921, 1183, 1054, 1311
3524, 821, 1173, 822, 1176
3525, 226, 297, 228, 1267
3526, 608, 631, 629, 1112
3527, 327, 441, 65, 168
3528, 638, 542, 634, 1234
3529, 223, 221, 222, 1060
3530, 783, 816, 705, 1025
3531, 500, 103, 343, 614
3532, 247, 330, 326, 1022
3533, 453, 1043, 1148, 1270
3534, 995, 960, 1180, 1242
3535, 798, 1066, 778, 1241
3536, 895, 114, 891, 645
3537, 829, 764, 686, 1080
3538, 547, 543, 638, 1234
3539, 303, 268, 1077, 1166
3540, 660, 1066, 798, 1241
3541, 655, 809, 511, 1122
3542, 488, 391, 393, 1156
3543, 432, 1249, 449, 1272
3544, 476, 352, 475, 1095
3545, 553, 609, 555, 1286
3546, 353, 182, 309, 1121
3547, 165, 281, 275, 1088
3548, 618, 579, 603, 1153
3549, 549, 1198, 1009, 1271
3550, 931, 1046, 1142, 1262
3551, 831, 765, 832, 1226
3552, 955, 994, 1246, 1252
3553, 458, 435, 384, 1186
3554, 1009, 1292, 968, 1296
3555, 585, 588, 587, 1085
3556, 782, 1059, 758, 1310
3557, 550, 654, 594, 1292
3558, 508, 601, 613, 1103
3559, 420, 1045, 505, 1202
3560, 730, 1072, 727, 1282
3561, 295, 328, 185, 1042
3562, 1050, 1195, 932, 1300
3563, 204, 1197, 1010, 1273
3564, 517, 620, 604, 1115
3565, 248, 315, 277, 1148
3566, 754, 755, 753, 1078
3567, 778, 1241, 1066, 1262
3568, 535, 470, 666, 1053
3569, 510, 1066, 661, 1130
3570, 411, 409, 410, 1317
3571, 836, 694, 770, 1035
3572, 498, 407, 1223, 1291
3573, 228, 1209, 274, 1239
3574, 588, 1085, 601, 1162
3575, 1024, 1178, 1060, 1253
3576, 1032, 1281, 1014, 1291
3577, 291, 888, 40, 910
3578, 444, 500, 1104, 1317
3579, 965, 1255, 1138, 1265
3580, 128, 802, 528, 657
3581, 289, 282, 178, 1080
3582, 925, 1134, 1051, 1217
3583, 193, 191, 198, 1245
3584, 49, 182, 353, 307
3585, 531, 147, 644, 857
3586, 480, 338, 87, 526
3587, 684, 16, 826, 165
3588, 371, 475, 416, 1107
3589, 903, 888, 911, 1090
3590, 582, 1055, 583, 1258
3591, 125, 653, 511, 809
3592, 408, 1223, 1032, 1227
3593, 353, 182, 50, 309
3594, 211, 1069, 212, 1256
3595, 872, 874, 857, 1033
3596, 881, 703, 812, 1105
3597, 663, 598, 1128, 1299
3598, 482, 88, 338, 526
3599, 449, 1249, 1057, 1272
3600, 174, 59, 450, 318
3601, 743, 745, 837, 1126
3602, 725, 724, 723, 1123
3603, 511, 655, 126, 809
3604, 880, 1042, 860, 1309
3605, 463, 353, 437, 1096
3606, 866, 864, 868, 1147
3607, 743, 742, 1071, 1289
3608, 52, 169, 311, 341
3609, 807, 1157, 844, 1290
3610, 450, 336, 432, 1127
3611, 180, 296, 68, 362
3612, 355, 484, 90, 514
3613, 106, 535, 351, 470
3614, 782, 760, 758, 1059
3615, 1094, 1183, 973, 1260
3616, 432, 451, 1127, 1261
3617, 761, 1120, 787, 1310
3618, 643, 816, 144, 524
3619, 278, 695, 23, 834
3620, 54, 166, 313, 354
3621, 347, 491, 97, 623
3622, 836, 163, 26, 293
3623, 753, 1078, 755, 1290
3624, 446, 161, 63, 324
3625, 510, 662, 133, 683
3626, 51, 169, 341, 309
3627, 170, 307, 48, 342
3628, 482, 355, 89, 514
3629, 715, 719, 718, 1026
3630, 657, 129, 800, 512
3631, 889, 908, 78, 360
3632, 250, 1108, 305, 1287
3633, 370, 374, 373, 1027
3634, 621, 622, 509, 1182
3635, 311, 166, 53, 354
3636, 1010, 1197, 939, 1244
3637, 64, 468, 345, 324
3638, 922, 1185, 1070, 1200
3639, 435, 386, 1186, 1260
3640, 343, 498, 444, 1104
3641, 515, 478, 356, 1110
3642, 1067, 1210, 1034, 1235
3643, 489, 347, 96, 623
3644, 297, 274, 228, 1209
3645, 161, 62, 322, 446
3646, 173, 60, 318, 448
3647, 100, 619, 495, 334
3648, 997, 1189, 1097, 1298
3649, 185, 73, 854, 875
3650, 682, 27, 163, 840
3651, 438, 363, 364, 1064
3652, 971, 1261, 1052, 1307
3653, 546, 543, 547, 1040
3654, 202, 201, 199, 1041
3655, 516, 617, 673, 1120
3656, 1086, 1190, 935, 1245
3657, 269, 242, 249, 1135
3658, 622, 604, 573, 1207
3659, 922, 1200, 1011, 1212
3660, 221, 220, 222, 1178
3661, 383, 384, 385, 1201
3662, 650, 540, 545, 1093
3663, 692, 137, 668, 519
3664, 274, 1209, 1013, 1239
3665, 1009, 1198, 942, 1248
3666, 705, 906, 893, 152
3667, 670, 507, 680, 139
3668, 809, 728, 808, 1098
3669, 723, 725, 1123, 1215
3670, 441, 335, 440, 1135
3671, 413, 445, 468, 1119
3672, 239, 240, 238, 1129
3673, 116, 640, 887, 907
3674, 134, 662, 520, 693
3675, 47, 305, 170, 342
3676, 651, 123, 687, 529
3677, 85, 515, 478, 356
3678, 868, 1147, 864, 1221
3679, 1058, 1219, 1017, 1286
3680, 639, 148, 531, 861
3681, 607, 627, 522, 1146
3682, 1035, 954, 1268, 1275
3683, 955, 1156, 1062, 1192
3684, 1072, 993, 1230, 1251
3685, 286, 14, 701, 824
3686, 520, 135, 693, 664
3687, 283, 204, 205, 1273
3688, 902, 898, 900, 1254
3689, 444, 1104, 1223, 1317
3690, 312, 253, 215, 1150
3691, 340, 505, 420, 1045
3692, 922, 1056, 1189, 1298
3693, 350, 364, 363, 1064
3694, 961, 1205, 1204, 1218
3695, 261, 272, 233, 1125
3696, 479, 420, 373, 1202
3697, 1054, 1164, 921, 1311
3698, 928, 1056, 1274, 1301
3699, 432, 396, 451, 1261
3700, 171, 28, 690, 840
3701, 549, 630, 610, 1271
3702, 349, 454, 55, 1284
3703, 922, 1011, 1200, 1243
3704, 175, 1043, 349, 1284
3705, 432, 336, 449, 1249
3706, 140, 670, 516, 689
3707, 752, 754, 753, 1078
3708, 633, 658, 560, 1294
3709, 22, 278, 176, 1226
3710, 1001, 935, 1190, 1245
3711, 664, 136, 692, 519
3712, 602, 612, 535, 1162
3713, 711, 713, 709, 1083
3714, 1011, 922, 1212, 1243
3715, 435, 455, 386, 1260
3716, 147, 531, 861, 857
3717, 289, 214, 282, 1080
3718, 813, 153, 702, 890
3719, 271, 30, 172, 842
3720, 185, 854, 73, 290
3721, 280, 25, 836, 694
3722, 507, 669, 1068, 1279
3723, 559, 1133, 558, 1174
3724, 436, 382, 380, 1280
3725, 942, 1154, 1084, 1198
3726, 102, 518, 497, 1141
3727, 188, 299, 259, 1028
3728, 952, 1021, 1145, 1308
3729, 1001, 1190, 1086, 1245
3730, 807, 691, 844, 1157
3731, 1011, 1212, 1035, 1267
3732, 799, 734, 1160, 1262
3733, 420, 1110, 1045, 1202
3734, 174, 450, 58, 316
3735, 987, 1159, 1079, 1312
3736, 22, 176, 832, 1226
3737, 109, 860, 471, 1309
3738, 487, 337, 94, 625
3739, 1091, 1209, 962, 1267
3740, 407, 1032, 1223, 1291
3741, 1007, 1227, 410, 1316
3742, 460, 339, 485, 1029
3743, 545, 1194, 1093, 1263
3744, 342, 465, 461, 1108
3745, 405, 427, 496, 1291
3746, 805, 687, 810, 1109
3747, 571, 570, 569, 1097
3748, 439, 180, 68, 362
3749, 153, 813, 906, 890
3750, 686, 19, 829, 178
3751, 916, 901, 899, 1168
3752, 597, 663, 520, 1128
3753, 535, 612, 106, 351
3754, 644, 534, 611, 1033
3755, 132, 660, 510, 683
3756, 580, 579, 581, 1153
3757, 1079, 1159, 987, 1256
3758, 954, 1185, 1082, 1212
3759, 431, 449, 448, 1057
3760, 183, 291, 300, 1090
3761, 820, 703, 781, 1264
3762, 468, 64, 168, 324
3763, 867, 1195, 880, 1309
3764, 941, 1141, 1104, 1223
3765, 648, 525, 642, 1075
3766, 345, 445, 430, 1281
3767, 769, 1074, 833, 1266
3768, 600, 516, 670, 1131
3769, 889, 78, 467, 360
3770, 612, 508, 105, 502
3771, 214, 275, 281, 1088
3772, 725, 803, 727, 1282
3773, 799, 736, 734, 1262
3774, 709, 1075, 708, 1229
3775, 709, 697, 710, 1229
3776, 1035, 1212, 962, 1267
3777, 1014, 986, 1172, 1291
3778, 352, 476, 442, 1095
3779, 736, 1160, 734, 1262
3780, 641, 518, 102, 1141
3781, 816, 699, 144, 524
3782, 26, 682, 163, 836
3783, 931, 1142, 1066, 1262
3784, 583, 613, 585, 1258
3785, 747, 1106, 749, 1305
3786, 298, 187, 197, 1276
3787, 930, 1228, 1113, 1255
3788, 526, 1084, 338, 1154
3789, 904, 891, 908, 1053
3790, 736, 1046, 1160, 1262
3791, 616, 1092, 615, 1229
3792, 742, 795, 744, 1308
3793, 905, 76, 892, 357
3794, 105, 612, 502, 351
3795, 585, 601, 588, 1085
3796, 218, 285, 220, 1225
3797, 183, 911, 39, 888
3798, 340, 420, 478, 1045
3799, 1096, 1121, 950, 1277
3800, 733, 765, 804, 1304
3801, 664, 598, 519, 1145
3802, 449, 336, 448, 1249
3803, 268, 1077, 1166, 1287
3804, 928, 1136, 1061, 1293
3805, 192, 195, 194, 1063
3806, 694, 1035, 280, 1275
3807, 1082, 1142, 979, 1185
3808, 735, 833, 765, 1304
3809, 386, 388, 387, 1260
3810, 267, 303, 268, 1077
3811, 498, 427, 407, 1291
3812, 729, 727, 730, 1072
3813, 947, 1183, 1094, 1186
3814, 954, 1060, 1178, 1253
3815, 878, 854, 869, 1050
3816, 1072, 1181, 993, 1282
3817, 440, 410, 1227, 1316
3818, 545, 540, 543, 1093
3819, 925, 1244, 1269, 1296
3820, 606, 567, 565, 1204
3821, 965, 1008, 1255, 1265
3822, 286, 288, 179, 1086
3823, 158, 812, 881, 703
3824, 226, 228, 227, 1091
3825, 949, 1016, 1250, 1293
3826, 958, 1113, 1203, 1288
3827, 811, 761, 756, 1238
3828, 1011, 962, 1212, 1267
3829, 707, 818, 839, 1028
3830, 586, 614, 613, 1104
3831, 877, 869, 854, 1050
3832, 71, 184, 878, 859
3833, 678, 1194, 545, 1263
3834, 847, 162, 33, 266
3835, 980, 1219, 1017, 1283
3836, 1042, 1195, 932, 1309
3837, 294, 270, 172, 1157
3838, 76, 472, 892, 357
3839, 624, 569, 567, 1204
3840, 589, 1003, 1233, 1315
3841, 109, 871, 860, 1309
3842, 954, 1178, 1060, 1268
3843, 568, 597, 566, 1130
3844, 543, 1093, 540, 1234
3845, 213, 212, 211, 1069
3846, 799, 798, 778, 1241
3847, 55, 454, 313, 1284
3848, 573, 575, 574, 1207
3849, 1011, 1267, 1035, 1268
3850, 878, 184, 72, 290
3851, 339, 460, 486, 1146
3852, 891, 920, 908, 1053
3853, 695, 1074, 278, 1226
3854, 396, 395, 394, 1261
3855, 969, 1173, 1083, 1297
3856, 909, 894, 918, 1028
3857, 317, 248, 225, 1165
3858, 1047, 1147, 934, 1221
3859, 684, 789, 828, 1088
3860, 766, 755, 757, 1290
3861, 778, 1142, 738, 1262
3862, 591, 1066, 660, 1241
3863, 605, 622, 571, 1182
3864, 601, 1103, 612, 1162
3865, 817, 706, 781, 1151
3866, 246, 247, 245, 1111
3867, 209, 208, 207, 1079
3868, 691, 172, 30, 842
3869, 428, 415, 412, 1132
3870, 625, 95, 521, 1205
3871, 268, 332, 167, 1077
3872, 778, 799, 1241, 1262
3873, 977, 1050, 1147, 1158
3874, 854, 878, 72, 290
3875, 987, 1159, 1199, 1256
3876, 770, 1035, 835, 1289
3877, 231, 261, 233, 1125
3878, 708, 1075, 525, 1229
3879, 833, 1074, 695, 1226
3880, 175, 349, 55, 1284
3881, 1002, 1238, 1078, 1290
3882, 781, 708, 709, 1075
3883, 828, 1088, 789, 1251
3884, 734, 736, 735, 1160
3885, 1058, 944, 1219, 1286
3886, 359, 855, 111, 466
3887, 578, 580, 600, 1295
3888, 778, 1066, 1142, 1262
3889, 444, 419, 500, 1317
3890, 164, 262, 278, 1074
3891, 383, 423, 483, 1201
3892, 582, 581, 583, 1055
3893, 1038, 1191, 976, 1254
3894, 720, 721, 722, 1303
3895, 285, 262, 220, 1178
3896, 938, 1077, 1214, 1287
3897, 947, 1150, 1094, 1183
3898, 955, 1034, 1210, 1235
3899, 442, 476, 443, 1232
3900, 581, 618, 586, 1153
3901, 994, 1164, 1133, 1311
3902, 390, 434, 453, 1270
3903, 331, 327, 249, 1135
3904, 858, 863, 873, 1151
3905, 731, 830, 729, 1193
3906, 697, 806, 710, 1092
3907, 114, 895, 530, 645
3908, 435, 354, 455, 1094
3909, 413, 440, 410, 1227
3910, 497, 343, 102, 1141
3911, 755, 754, 756, 1238
3912, 457, 463, 437, 1096
3913, 1128, 1145, 952, 1299
3914, 190, 1176, 177, 1302
3915, 992, 1183, 1186, 1260
3916, 695, 278, 22, 1226
3917, 713, 1083, 716, 1173
3918, 867, 880, 871, 1309
3919, 1042, 932, 1195, 1300
3920, 956, 1164, 1087, 1188
3921, 470, 360, 503, 1053
3922, 766, 807, 844, 1290
3923, 835, 739, 741, 1082
3924, 453, 1148, 433, 1270
3925, 33, 681, 162, 847
3926, 422, 338, 481, 1154
3927, 602, 535, 645, 1053
3928, 1169, 1203, 1007, 1316
3929, 227, 225, 226, 1165
3930, 894, 909, 913, 1028
3931, 808, 728, 788, 1098
3932, 733, 804, 731, 1193
3933, 1048, 1159, 924, 1312
3934, 109, 471, 358, 1309
3935, 577, 576, 575, 1089
3936, 218, 216, 263, 1225
3937, 956, 1133, 1087, 1164
3938, 765, 1226, 1039, 1304
3939, 749, 747, 748, 1106
3940, 544, 539, 650, 1100
3941, 320, 299, 188, 1028
3942, 570, 1097, 571, 1299
3943, 625, 1073, 337, 1205
3944, 832, 695, 22, 1226
3945, 778, 798, 683, 1066
3946, 314, 1043, 175, 1284
3947, 812, 820, 762, 1105
3948, 1097, 1299, 952, 1301
3949, 343, 641, 102, 1141
3950, 880, 1195, 1042, 1309
3951, 927, 1297, 1118, 1314
3952, 582, 583, 584, 1258
3953, 547, 549, 548, 1271
3954, 489, 521, 95, 1205
3955, 500, 343, 444, 1104
3956, 1075, 1229, 966, 1315
3957, 507, 669, 600, 1068
3958, 152, 705, 906, 813
3959, 337, 1073, 488, 1205
3960, 204, 203, 202, 1273
3961, 1093, 1194, 937, 1263
3962, 771, 841, 690, 1305
3963, 377, 375, 376, 1306
3964, 259, 300, 246, 1138
3965, 722, 724, 827, 1123
3966, 408, 410, 409, 1227
3967, 206, 251, 203, 1277
3968, 162, 1187, 258, 1265
3969, 868, 870, 853, 1105
3970, 625, 626, 522, 1073
3971, 257, 325, 168, 1119
3972, 211, 210, 209, 1256
3973, 994, 1246, 1034, 1294
3974, 273, 274, 163, 1209
3975, 190, 194, 1236, 1302
3976, 784, 1101, 782, 1310
3977, 143, 699, 784, 675
3978, 940, 1149, 1059, 1228
3979, 1097, 1189, 933, 1301
3980, 349, 434, 454, 1284
3981, 963, 1125, 1065, 1285
3982, 265, 162, 258, 1265
3983, 259, 183, 300, 1090
3984, 143, 699, 675, 524
3985, 875, 860, 880, 1042
3986, 707, 850, 818, 1028
3987, 385, 384, 386, 1186
3988, 1030, 945, 1157, 1290
3989, 426, 496, 334, 1115
3990, 392, 453, 433, 1270
3991, 313, 175, 55, 1284
3992, 333, 295, 185, 1042
3993, 1092, 1229, 966, 1278
3994, 801, 800, 779, 1087
3995, 963, 1167, 1106, 1305
3996, 774, 790, 792, 1131
3997, 264, 1138, 258, 1187
3998, 168, 324, 257, 1119
3999, 1014, 1172, 1032, 1291
4000, 1072, 956, 1181, 1282
4001, 767, 825, 701, 1086
4002, 769, 834, 1074, 1275
4003, 191, 190, 177, 1302
4004, 637, 632, 609, 1154
4005, 987, 1199, 1069, 1256
4006, 972, 1203, 1132, 1316
4007, 888, 912, 914, 1117
4008, 1056, 933, 1189, 1301
4009, 281, 828, 18, 282
4010, 713, 781, 709, 1264
4011, 616, 513, 615, 1092
4012, 472, 429, 362, 1140
4013, 659, 660, 798, 1241
4014, 188, 35, 707, 845
4015, 520, 663, 598, 1128
4016, 749, 751, 772, 1167
4017, 1035, 962, 1212, 1289
4018, 797, 740, 738, 1142
4019, 874, 855, 111, 359
4020, 692, 791, 793, 1076
4021, 21, 831, 176, 284
4022, 779, 688, 799, 1241
4023, 923, 1049, 1172, 1257
4024, 694, 835, 770, 1035
4025, 545, 543, 546, 1263
4026, 1035, 1212, 1082, 1289
4027, 228, 231, 230, 1239
4028, 954, 1266, 1074, 1275
4029, 948, 1249, 1127, 1272
4030, 828, 829, 18, 282
4031, 633, 591, 659, 1241
4032, 563, 1235, 1034, 1252
4033, 95, 625, 337, 1205
4034, 877, 867, 866, 1195
4035, 798, 688, 659, 1241
4036, 261, 231, 274, 1239
4037, 575, 604, 620, 1207
4038, 864, 862, 863, 1221
4039, 768, 825, 720, 1303
4040, 1133, 1174, 994, 1311
4041, 798, 688, 131, 659
4042, 795, 1145, 776, 1308
4043, 934, 1147, 1105, 1221
4044, 522, 627, 93, 486
4045, 831, 804, 765, 1039
4046, 769, 1266, 835, 1275
4047, 558, 560, 658, 1133
4048, 423, 355, 483, 1112
4049, 1126, 1274, 1071, 1308
4050, 1118, 1175, 934, 1297
4051, 969, 1236, 1063, 1302
4052, 724, 726, 789, 1251
4053, 411, 1169, 419, 1317
4054, 184, 71, 298, 859
4055, 714, 805, 810, 1109
4056, 369, 461, 465, 1108
4057, 21, 831, 832, 176
4058, 175, 314, 277, 1043
4059, 462, 365, 350, 1077
4060, 659, 131, 798, 660
4061, 467, 417, 473, 1179
4062, 787, 811, 689, 1120
4063, 821, 822, 698, 1176
4064, 348, 452, 57, 315
4065, 163, 297, 293, 1209
4066, 732, 731, 730, 1188
4067, 734, 1160, 735, 1304
4068, 969, 1158, 1063, 1236
4069, 93, 487, 522, 486
4070, 507, 599, 669, 1279
4071, 869, 868, 879, 1147
4072, 1143, 1167, 995, 1180
4073, 1034, 1235, 955, 1252
4074, 695, 769, 834, 1074
4075, 404, 430, 406, 1281
4076, 597, 510, 661, 1130
4077, 413, 408, 445, 1227
4078, 39, 183, 888, 291
4079, 109, 358, 871, 1309
4080, 811, 787, 761, 1120
4081, 708, 781, 706, 1075
4082, 1034, 1246, 994, 1252
4083, 887, 640, 115, 530
4084, 190, 192, 194, 1302
4085, 366, 365, 367, 1214
4086, 1048, 1211, 924, 1283
4087, 222, 1060, 1178, 1268
4088, 165, 283, 292, 1081
4089, 303, 181, 302, 1064
4090, 900, 912, 903, 1254
4091, 495, 426, 334, 1115
4092, 315, 57, 348, 316
4093, 948, 1165, 1091, 1243
4094, 701, 824, 767, 1086
4095, 239, 241, 240, 1129
4096, 481, 1084, 421, 1306
4097, 481, 377, 1144, 1306
4098, 934, 1221, 1105, 1264
4099, 746, 744, 776, 1308
4100, 487, 418, 337, 1073
4101, 351, 502, 419, 1103
4102, 1018, 975, 1244, 1303
4103, 255, 318, 174, 1249
4104, 199, 1171, 193, 1245
4105, 351, 419, 499, 1103
4106, 1019, 974, 1248, 1306
4107, 610, 636, 526, 1084
4108, 382, 458, 384, 1280
4109, 332, 200, 250, 1287
4110, 955, 1246, 1034, 1252
4111, 375, 421, 479, 1306
4112, 199, 198, 288, 1245
4113, 952, 1274, 1021, 1308
4114, 981, 1031, 1231, 1232
4115, 616, 615, 649, 1229
4116, 541, 1233, 1100, 1315
4117, 264, 34, 845, 1187
4118, 1082, 1212, 1071, 1289
4119, 487, 486, 418, 1146
4120, 547, 638, 630, 1271
4121, 778, 738, 736, 1262
4122, 188, 264, 35, 845
4123, 780, 730, 727, 1282
4124, 95, 337, 489, 1205
4125, 416, 368, 371, 1107
4126, 901, 914, 912, 1117
4127, 289, 276, 213, 1206
4128, 706, 838, 674, 1151
4129, 895, 887, 115, 530
4130, 243, 246, 245, 1111
4131, 1138, 1155, 965, 1187
4132, 768, 827, 1081, 1303
4133, 681, 845, 34, 1187
4134, 202, 288, 205, 1273
4135, 899, 896, 904, 1168
4136, 962, 1071, 1212, 1289
4137, 743, 741, 742, 1289
4138, 1034, 1252, 994, 1294
4139, 921, 1036, 1220, 1246
4140, 673, 142, 784, 675
4141, 958, 1169, 1132, 1203
4142, 519, 599, 668, 1076
4143, 607, 1235, 563, 1252
4144, 708, 525, 120, 1229
4145, 926, 1203, 1113, 1255
4146, 171, 29, 271, 1208
4147, 823, 711, 712, 1278
4148, 741, 739, 740, 1082
4149, 706, 674, 642, 1151
4150, 271, 272, 1208, 1285
4151, 673, 142, 787, 784
4152, 776, 795, 794, 1145
4153, 1093, 1170, 937, 1194
4154, 641, 614, 586, 1104
4155, 629, 631, 514, 1112
4156, 210, 211, 212, 1256
4157, 677, 672, 590, 1213
4158, 910, 917, 186, 1140
4159, 264, 162, 34, 1187
4160, 258, 1138, 246, 1265
4161, 195, 192, 304, 1166
4162, 580, 582, 671, 1295
4163, 212, 310, 210, 1256
4164, 559, 558, 557, 1174
4165, 264, 259, 258, 1138
4166, 162, 681, 34, 1187
4167, 694, 835, 1035, 1275
4168, 1111, 1255, 1008, 1265
4169, 217, 312, 215, 1150
4170, 438, 1196, 474, 1309
4171, 917, 329, 186, 1140
4172, 29, 842, 271, 1208
4173, 488, 337, 418, 1073
4174, 525, 615, 120, 1229
4175, 372, 370, 373, 1202
4176, 704, 852, 815, 1276
4177, 455, 434, 388, 1260
4178, 769, 695, 833, 1074
4179, 584, 585, 587, 1258
4180, 952, 1071, 1274, 1308
4181, 774, 811, 754, 1238
4182, 770, 743, 837, 1289
4183, 645, 535, 666, 1053
4184, 955, 1210, 1034, 1246
4185, 675, 592, 524, 1101
4186, 387, 388, 389, 1192
4187, 713, 711, 716, 1083
4188, 570, 571, 572, 1299
4189, 1039, 1226, 964, 1304
4190, 871, 880, 860, 1309
4191, 253, 169, 310, 1116
4192, 590, 646, 640, 1213
4193, 1106, 1180, 960, 1242
4194, 484, 355, 423, 1112
4195, 470, 504, 360, 1053
4196, 555, 631, 557, 1286
4197, 120, 615, 697, 1229
4198, 167, 250, 305, 1287
4199, 399, 397, 398, 1139
4200, 924, 1211, 1048, 1312
4201, 993, 1181, 1072, 1230
4202, 482, 338, 422, 1154
4203, 519, 667, 599, 1076
4204, 656, 596, 528, 1124
4205, 1091, 1165, 1011, 1243
4206, 321, 173, 255, 1249
4207, 563, 607, 626, 1235
4208, 433, 452, 348, 1148
4209, 493, 917, 892, 1140
4210, 335, 331, 67, 1237
4211, 689, 774, 792, 1131
4212, 120, 697, 708, 1229
4213, 207, 283, 275, 1197
4214, 313, 166, 254, 1284
4215, 1167, 1180, 1106, 1242
4216, 729, 764, 726, 1251
4217, 394, 433, 451, 1261
4218, 934, 1158, 1118, 1297
4219, 610, 637, 551, 1198
4220, 398, 449, 400, 1272
4221, 510, 660, 591, 1066
4222, 229, 224, 279, 1268
4223, 963, 1106, 1167, 1180
4224, 542, 543, 540, 1234
4225, 401, 402, 403, 1102
4226, 1176, 1236, 969, 1302
4227, 852, 762, 821, 1173
4228, 190, 1236, 1176, 1302
4229, 532, 885, 873, 1151
4230, 536, 523, 537, 1095
4231, 715, 717, 712, 1177
4232, 500, 508, 104, 614
4233, 654, 595, 511, 1122
4234, 327, 66, 441, 335
4235, 502, 508, 104, 500
4236, 206, 208, 308, 1277
4237, 66, 327, 331, 335
4238, 412, 414, 411, 1169
4239, 868, 864, 870, 1221
4240, 266, 32, 847, 807
4241, 897, 915, 906, 1191
4242, 1006, 1166, 1063, 1314
4243, 601, 508, 612, 1103
4244, 402, 400, 431, 1240
4245, 252, 182, 308, 1121
4246, 1039, 1225, 964, 1226
4247, 778, 797, 738, 1142
4248, 619, 620, 517, 1115
4249, 190, 189, 1176, 1236
4250, 1074, 1266, 769, 1275
4251, 266, 294, 32, 807
4252, 187, 319, 846, 1276
4253, 995, 1180, 1167, 1242
4254, 11, 785, 177, 1176
4255, 524, 592, 672, 1101
4256, 187, 846, 815, 1276
4257, 229, 293, 297, 1267
4258, 762, 713, 716, 1173
4259, 515, 638, 634, 1110
4260, 733, 734, 735, 1304
4261, 532, 674, 885, 1151
4262, 453, 452, 433, 1148
4263, 278, 285, 176, 1226
4264, 458, 341, 456, 1116
4265, 197, 194, 301, 1236
4266, 739, 737, 738, 1266
4267, 957, 1175, 1100, 1233
4268, 591, 661, 510, 1066
4269, 164, 24, 280, 1275
4270, 1100, 1175, 966, 1315
4271, 814, 803, 725, 1215
4272, 378, 437, 464, 1247
4273, 782, 758, 761, 1310
4274, 714, 715, 712, 1177
4275, 699, 782, 784, 1101
4276, 838, 817, 885, 1151
4277, 628, 607, 561, 1252
4278, 773, 681, 849, 1187
4279, 398, 432, 449, 1272
4280, 414, 419, 411, 1169
4281, 541, 1100, 544, 1315
4282, 679, 642, 532, 1151
4283, 504, 499, 417, 1179
4284, 690, 29, 171, 1208
4285, 199, 200, 193, 1171
4286, 591, 660, 659, 1241
4287, 464, 353, 459, 1121
4288, 984, 1199, 1159, 1256
4289, 722, 723, 724, 1123
4290, 999, 1184, 1089, 1259
4291, 243, 258, 246, 1265
4292, 200, 199, 201, 1171
4293, 451, 450, 432, 1127
4294, 311, 169, 253, 1116
4295, 479, 356, 420, 1110
4296, 593, 678, 545, 1263
4297, 444, 1223, 409, 1317
4298, 909, 155, 839, 918
4299, 1021, 1274, 1126, 1308
4300, 858, 885, 817, 1151
4301, 696, 814, 809, 1122
4302, 294, 244, 270, 1157
4303, 700, 780, 802, 1124
4304, 335, 67, 439, 1237
4305, 869, 866, 868, 1147
4306, 794, 692, 776, 1145
4307, 409, 407, 408, 1223
4308, 686, 830, 804, 1193
4309, 193, 192, 191, 1302
4310, 879, 876, 859, 1276
4311, 827, 684, 768, 1081
4312, 602, 588, 601, 1162
4313, 481, 338, 421, 1084
4314, 468, 445, 345, 1119
4315, 511, 595, 655, 1122
4316, 657, 528, 596, 1124
4317, 493, 892, 472, 1140
4318, 11, 698, 785, 1176
4319, 180, 67, 331, 1237
4320, 922, 1200, 1070, 1307
4321, 589, 1233, 541, 1315
4322, 155, 818, 909, 839
4323, 577, 620, 603, 1259
4324, 783, 760, 782, 1149
4325, 761, 784, 782, 1310
4326, 747, 749, 841, 1305
4327, 252, 309, 182, 1121
4328, 329, 493, 296, 1140
4329, 447, 446, 430, 1114
4330, 250, 167, 332, 1287
4331, 759, 763, 773, 1155
4332, 280, 279, 164, 1275
4333, 739, 835, 769, 1266
4334, 271, 260, 272, 1285
4335, 11, 189, 698, 1176
4336, 409, 444, 498, 1223
4337, 113, 891, 666, 920
4338, 167, 267, 268, 1077
4339, 690, 842, 29, 1208
4340, 480, 421, 338, 1084
4341, 42, 361, 492, 328
4342, 706, 118, 674, 838
4343, 665, 501, 80, 534
4344, 319, 846, 9, 187
4345, 590, 640, 677, 1213
4346, 365, 369, 367, 1214
4347, 180, 439, 67, 1237
4348, 521, 606, 625, 1205
4349, 189, 11, 177, 1176
4350, 361, 42, 295, 328
4351, 118, 674, 642, 706
4352, 501, 469, 80, 534
4353, 187, 846, 9, 815
4354, 280, 24, 694, 1275
4355, 737, 769, 833, 1266
4356, 601, 612, 602, 1162
4357, 641, 618, 518, 1141
4358, 826, 768, 684, 1081
4359, 356, 478, 420, 1110
4360, 846, 884, 704, 1276
4361, 188, 839, 36, 320
4362, 917, 493, 329, 1140
4363, 853, 870, 881, 1105
4364, 861, 862, 872, 1161
4365, 828, 789, 764, 1251
4366, 417, 467, 504, 1179
4367, 362, 296, 493, 1140
4368, 884, 876, 704, 1276
4369, 844, 753, 755, 1290
4370, 151, 919, 893, 848
4371, 841, 1208, 690, 1305
4372, 910, 914, 892, 1140
4373, 1138, 1187, 965, 1265
4374, 873, 532, 150, 885
4375, 269, 249, 327, 1135
4376, 526, 632, 637, 1154
4377, 164, 834, 24, 1275
4378, 298, 884, 319, 1276
4379, 171, 271, 272, 1208
4380, 723, 814, 725, 1215
4381, 771, 747, 841, 1305
4382, 550, 552, 654, 1152
4383, 560, 561, 562, 1294
4384, 707, 839, 36, 188
4385, 501, 886, 112, 359
4386, 674, 150, 532, 885
4387, 846, 884, 160, 704
4388, 481, 377, 379, 1144
4389, 775, 790, 750, 1242
4390, 773, 845, 681, 1187
4391, 862, 865, 872, 1161
4392, 190, 197, 189, 1236
4393, 821, 716, 822, 1173
4394, 1003, 1175, 1233, 1315
4395, 703, 820, 812, 1105
4396, 258, 1187, 1138, 1265
4397, 549, 610, 551, 1198
4398, 561, 607, 563, 1252
4399, 255, 173, 318, 1249
4400, 765, 833, 695, 1226
4401, 207, 204, 283, 1197
4402, 492, 860, 108, 883
4403, 493, 917, 75, 892
4404, 611, 541, 647, 1233
4405, 550, 551, 552, 1152
4406, 704, 884, 160, 876
4407, 302, 196, 195, 1300
4408, 848, 893, 151, 705
4409, 314, 175, 254, 1284
4410, 486, 460, 418, 1146
4411, 544, 541, 539, 1100
4412, 113, 891, 645, 666
4413, 358, 471, 438, 1309
4414, 795, 776, 744, 1308
4415, 377, 378, 379, 1144
4416, 917, 186, 41, 910
4417, 337, 488, 424, 1205
4418, 420, 505, 372, 1202
4419, 234, 256, 232, 1250
4420, 589, 648, 679, 1315
4421, 576, 599, 574, 1279
4422, 749, 750, 751, 1167
4423, 343, 427, 498, 1141
4424, 580, 671, 600, 1295
4425, 884, 298, 859, 1276
4426, 1100, 1233, 1175, 1315
4427, 392, 390, 453, 1270
4428, 79, 503, 360, 920
4429, 919, 676, 117, 533
4430, 186, 41, 329, 917
4431, 874, 112, 886, 359
4432, 775, 750, 748, 1242
4433, 533, 117, 919, 907
4434, 838, 885, 674, 1151
4435, 485, 423, 385, 1201
4436, 199, 193, 198, 1245
4437, 222, 279, 224, 1268
4438, 358, 438, 474, 1309
4439, 360, 908, 79, 920
4440, 386, 384, 435, 1186
4441, 770, 835, 741, 1289
4442, 557, 608, 559, 1174
4443, 411, 419, 444, 1317
4444, 368, 438, 364, 1196
4445, 667, 598, 572, 1299
4446, 605, 509, 622, 1182
4447, 259, 246, 258, 1138
4448, 766, 844, 755, 1290
4449, 276, 216, 213, 1206
4450, 320, 918, 37, 299
4451, 581, 579, 618, 1153
4452, 186, 296, 330, 1140
4453, 471, 860, 108, 492
4454, 565, 563, 626, 1235
4455, 884, 319, 70, 298
4456, 732, 730, 801, 1188
4457, 427, 343, 497, 1141
4458, 834, 694, 24, 1275
4459, 663, 570, 598, 1299
4460, 464, 380, 378, 1247
4461, 156, 838, 817, 885
4462, 897, 898, 915, 1191
4463, 153, 702, 890, 154
4464, 156, 817, 858, 885
4465, 589, 541, 544, 1315
4466, 472, 493, 75, 892
4467, 763, 850, 773, 1155
4468, 579, 577, 603, 1259
4469, 781, 713, 820, 1264
4470, 262, 222, 220, 1178
4471, 913, 902, 903, 1254
4472, 393, 395, 424, 1218
4473, 812, 853, 159, 158
4474, 661, 566, 597, 1130
4475, 711, 709, 710, 1278
4476, 711, 710, 712, 1278
4477, 400, 401, 399, 1313
4478, 783, 819, 760, 1149
4479, 308, 251, 206, 1277
4480, 438, 368, 474, 1196
4481, 481, 421, 377, 1306
4482, 406, 407, 405, 1291
4483, 430, 445, 406, 1281
4484, 765, 695, 832, 1226
4485, 298, 70, 884, 859
4486, 232, 233, 234, 1250
4487, 439, 428, 335, 1237
4488, 633, 560, 562, 1294
4489, 299, 918, 37, 894
4490, 604, 575, 573, 1207
4491, 231, 228, 274, 1239
4492, 652, 593, 546, 1263
4493, 180, 249, 326, 1237
4494, 447, 402, 431, 1240
4495, 685, 13, 12, 287
4496, 806, 121, 122, 513
4497, 635, 83, 84, 340
4498, 46, 45, 167, 462
4499, 225, 227, 317, 1165
4500, 460, 387, 389, 1192
4501, 848, 145, 676, 643
4502, 410, 440, 412, 1316
4503, 382, 436, 458, 1280
4504, 149, 639, 856, 148
4505, 609, 631, 555, 1286
4506, 383, 385, 423, 1201
4507, 690, 841, 772, 1208
4508, 489, 337, 424, 1205
4509, 297, 163, 274, 1209
4510, 455, 388, 386, 1260
4511, 394, 451, 396, 1261
4512, 754, 811, 756, 1238
4513, 218, 263, 285, 1225
4514, 768, 722, 827, 1303
4515, 803, 780, 727, 1282
4516, 864, 863, 870, 1221
4517, 606, 624, 567, 1204
4518, 542, 638, 543, 1234
4519, 547, 630, 549, 1271
4520, 697, 709, 708, 1229
4521, 272, 260, 235, 1285
4522, 649, 648, 544, 1315
4523, 407, 427, 405, 1291
4524, 204, 202, 205, 1273
4525, 373, 420, 372, 1202
4526, 798, 799, 688, 1241
4527, 297, 226, 229, 1267
4528, 408, 413, 410, 1227
4529, 910, 892, 917, 1140
4530, 145, 848, 816, 643
4531, 503, 666, 107, 470
4532, 296, 329, 69, 493
4533, 428, 412, 440, 1316
4534, 329, 296, 186, 1140
4535, 778, 736, 799, 1262
4536, 647, 541, 589, 1233
4537, 550, 594, 548, 1292
4538, 358, 110, 109, 871
4539, 764, 789, 726, 1251
4540, 303, 195, 268, 1166
4541, 873, 885, 858, 1151
4542, 678, 616, 545, 1194
4543, 476, 371, 443, 1232
4544, 718, 767, 717, 1190
4545, 490, 424, 395, 1218
4546, 733, 735, 765, 1304
4547, 585, 584, 583, 1258
4548, 467, 77, 78, 889
4549, 666, 535, 107, 470
4550, 493, 69, 296, 362
4551, 180, 331, 249, 1237
4552, 254, 175, 313, 1284
4553, 884, 846, 319, 1276
4554, 443, 371, 477, 1232
4555, 705, 893, 151, 152
4556, 821, 762, 716, 1173
4557, 265, 258, 243, 1265
4558, 855, 110, 111, 466
4559, 817, 838, 706, 1151
4560, 649, 615, 525, 1229
4561, 694, 769, 835, 1275
4562, 189, 177, 190, 1176
4563, 194, 197, 190, 1236
4564, 669, 599, 576, 1279
4565, 899, 904, 916, 1168
4566, 170, 48, 47, 342
4567, 123, 124, 687, 529
4568, 515, 85, 86, 356
4569, 264, 258, 162, 1187
4570, 545, 616, 650, 1194
4571, 361, 42, 43, 295
4572, 118, 642, 119, 706
4573, 469, 81, 80, 534
4574, 187, 9, 10, 815
4575, 701, 15, 14, 286
4576, 548, 594, 652, 1292
4577, 684, 17, 16, 165
4578, 337, 95, 94, 625
4579, 545, 546, 593, 1263
4580, 50, 49, 182, 353
4581, 338, 88, 87, 526
4582, 129, 130, 800, 512
4583, 686, 20, 19, 178
4584, 52, 51, 169, 341
4585, 90, 89, 355, 514
4586, 125, 511, 126, 809
4587, 695, 23, 22, 278
4588, 58, 59, 450, 174
4589, 528, 127, 802, 128
4590, 146, 644, 147, 857
4591, 772, 842, 690, 1208
4592, 166, 54, 53, 354
4593, 527, 91, 92, 339
4594, 132, 510, 133, 683
4595, 7, 919, 848, 676
4596, 97, 96, 347, 623
4597, 63, 62, 161, 446
4598, 61, 60, 173, 448
4599, 175, 56, 55, 349
4600, 902, 900, 903, 1254
4601, 619, 100, 101, 334
4602, 98, 99, 621, 346
4603, 768, 720, 722, 1303
4604, 532, 642, 674, 1151
4605, 72, 73, 854, 290
4606, 2, 839, 918, 320
4607, 177, 11, 12, 785
4608, 83, 82, 442, 523
4609, 121, 697, 120, 615
4610, 45, 44, 267, 350
4611, 507, 138, 680, 139
4612, 3, 329, 917, 493
4613, 5, 666, 503, 920
4614, 64, 65, 468, 168
4615, 103, 102, 343, 641
4616, 135, 134, 520, 693
4617, 891, 114, 113, 645
4618, 362, 493, 472, 1140
4619, 68, 67, 180, 439
4620, 319, 1, 846, 884
4621, 6, 886, 501, 665
4622, 8, 674, 838, 885
4623, 4, 492, 883, 328
4624, 280, 24, 25, 694
4625, 105, 106, 612, 351
4626, 136, 137, 692, 519
4627, 888, 40, 39, 291
4628, 770, 741, 743, 1289
4629, 421, 375, 377, 1306
4630, 516, 141, 140, 689
4631, 690, 29, 28, 171
4632, 43, 44, 363, 181
4633, 120, 119, 525, 708
4634, 352, 82, 81, 536
4635, 189, 10, 11, 698
4636, 195, 304, 268, 1166
4637, 682, 27, 26, 163
4638, 157, 817, 858, 156
4639, 115, 116, 640, 887
4640, 698, 822, 785, 1176
4641, 498, 407, 409, 1223
4642, 739, 769, 737, 1266
4643, 699, 143, 144, 524
4644, 531, 148, 147, 861
4645, 867, 877, 880, 1195
4646, 444, 409, 411, 1317
4647, 909, 154, 818, 155
4648, 905, 77, 76, 357
4649, 172, 30, 31, 691
4650, 71, 70, 298, 859
4651, 681, 34, 33, 162
4652, 192, 190, 191, 1302
4653, 704, 815, 846, 1276
4654, 333, 196, 302, 1300
4655, 186, 40, 41, 910
4656, 299, 37, 38, 894
4657, 694, 834, 769, 1275
4658, 187, 298, 319, 1276
4659, 767, 851, 717, 1190
4660, 572, 598, 570, 1299
4661, 627, 92, 93, 486
4662, 79, 78, 908, 360
4663, 707, 36, 35, 188
4664, 18, 17, 828, 281
4665, 56, 57, 452, 315
4666, 130, 131, 688, 659
4667, 831, 21, 20, 284
4668, 117, 533, 116, 907
4669, 532, 149, 873, 150
4670, 179, 13, 14, 824
4671, 122, 123, 805, 651
4672, 634, 84, 85, 478
4673, 47, 46, 305, 461
4674, 294, 31, 32, 807
4675, 860, 108, 109, 471
4676, 884, 859, 876, 1276
4677, 544, 648, 589, 1315
4678, 185, 74, 73, 875
4679, 16, 15, 826, 292
4680, 48, 49, 463, 307
4681, 87, 86, 480, 636
4682, 142, 141, 673, 787
4683, 731, 804, 830, 1193
4684, 906, 152, 813, 153
4685, 482, 89, 88, 632
4686, 50, 51, 459, 309
4687, 160, 159, 704, 876
4688, 629, 90, 91, 484
4689, 311, 53, 52, 456
4690, 655, 127, 126, 696
4691, 874, 111, 112, 359
4692, 19, 18, 829, 282
4693, 72, 71, 184, 878
4694, 124, 653, 125, 808
4695, 7, 919, 676, 117
4696, 665, 6, 886, 146
4697, 492, 108, 4, 883
4698, 917, 75, 3, 493
4699, 666, 5, 113, 920
4700, 839, 155, 2, 918
4701, 472, 75, 76, 892
4702, 55, 54, 313, 454
4703, 832, 22, 21, 176
4704, 660, 131, 798, 132
4705, 128, 129, 700, 657
4706, 401, 494, 399, 1313
4707, 7, 919, 151, 848
4708, 94, 93, 487, 522
4709, 662, 134, 133, 796
4710, 104, 103, 500, 614
4711, 65, 66, 441, 327
4712, 535, 106, 107, 470
4713, 69, 68, 296, 362
4714, 836, 26, 25, 293
4715, 136, 794, 135, 664
4716, 503, 79, 5, 920
4717, 41, 3, 329, 917
4718, 839, 2, 36, 320
4719, 703, 881, 158, 157
4720, 57, 58, 348, 316
4721, 137, 138, 791, 668
4722, 834, 24, 23, 164
4723, 143, 784, 142, 675
4724, 145, 7, 848, 676
4725, 271, 29, 30, 842
4726, 96, 95, 489, 521
4727, 107, 5, 666, 503
4728, 329, 3, 69, 493
4729, 140, 139, 670, 792
4730, 74, 4, 883, 328
4731, 112, 6, 886, 501
4732, 674, 8, 150, 885
4733, 1, 846, 884, 160
4734, 847, 33, 32, 266
4735, 273, 27, 28, 840
4736, 144, 145, 816, 643
4737, 509, 97, 98, 491
4738, 60, 59, 318, 336
4739, 115, 114, 895, 530
4740, 99, 100, 517, 495
4741, 62, 61, 322, 344
4742, 70, 1, 319, 884
4743, 37, 2, 918, 320
4744, 156, 8, 838, 885
4745, 492, 4, 42, 328
4746, 8, 674, 118, 838
4747, 846, 9, 1, 319
4748, 501, 80, 6, 665
4749, 264, 34, 35, 845
4750, 67, 66, 331, 335
4751, 508, 104, 105, 502
4752, 102, 101, 497, 518
4753, 63, 64, 345, 324
4754, 911, 39, 38, 183
4755, 1176, 815, 821, 977
4756, 1176, 821, 815, 698
4757, 568, 1128, 1299, 663
4758, 1299, 1128, 568, 997
4759, 1163, 1078, 1257, 945
4760, 1163, 1257, 1078, 953
4761, 1164, 943, 921, 990
4762, 1164, 921, 943, 1054
4763, 1014, 1102, 1291, 403
4764, 1014, 1291, 1102, 986
4765, 496, 1291, 1102, 403
4766, 496, 1102, 1291, 986
4767, 1207, 1097, 933, 996
4768, 1207, 933, 1097, 1182
4769, 1136, 960, 946, 996
4770, 1136, 946, 960, 1061
4771, 316, 1148, 971, 348
4772, 971, 1148, 316, 248
4773, 971, 1127, 316, 348
4774, 316, 1127, 971, 248
4775, 1041, 306, 1108, 967
4776, 1041, 1108, 306, 201
4777, 379, 1154, 980, 422
4778, 980, 1154, 379, 1144
4779, 1176, 187, 1236, 189
4780, 1176, 1236, 187, 977
4781, 1150, 943, 1206, 1005
4782, 1150, 1206, 943, 1069
4783, 935, 1222, 1051, 938
4784, 1051, 1222, 935, 1137
4785, 553, 1154, 1198, 637
4786, 1198, 1154, 553, 1017
4787, 1057, 322, 1114, 256
4788, 1057, 1114, 322, 344
4789, 1179, 351, 504, 499
4790, 1179, 504, 351, 1053
4791, 1305, 928, 1126, 1106
4792, 1305, 1126, 928, 1013
4793, 1296, 1152, 1292, 951
4794, 1296, 1292, 1152, 1009
4795, 876, 812, 159, 704
4796, 159, 812, 876, 853
4797, 1305, 273, 840, 1013
4798, 1234, 538, 1093, 540
4799, 1234, 1093, 538, 1045
4800, 981, 538, 1093, 1045
4801, 1002, 1255, 1059, 965
4802, 1059, 1255, 1002, 926
4803, 1151, 856, 863, 873
4804, 1151, 863, 856, 1003
4805, 1157, 239, 1099, 1129
4806, 1157, 1099, 239, 270
4807, 595, 1152, 654, 552
4808, 654, 1152, 595, 1122
4809, 1269, 1096, 1019, 950
4810, 1269, 1019, 1096, 967
4811, 1296, 942, 1152, 1048
4812, 1296, 1152, 942, 1009
4813, 1135, 240, 325, 269
4814, 1135, 325, 240, 959
4815, 1101, 677, 1213, 672
4816, 1101, 1213, 677, 1025
4817, 1187, 1028, 845, 264
4818, 1187, 845, 1028, 1155
4819, 707, 1028, 845, 1155
4820, 1117, 330, 247, 1022
4821, 1117, 247, 330, 291
4822, 1284, 217, 219, 973
4823, 1284, 219, 217, 254
4824, 219, 1043, 221, 314
4825, 221, 1043, 219, 1024
4826, 1276, 184, 197, 298
4827, 1276, 197, 184, 977
4828, 1096, 1277, 203, 251
4829, 203, 1277, 1096, 967
4830, 203, 306, 1096, 251
4831, 1096, 306, 203, 967
4832, 1218, 397, 1023, 991
4833, 1218, 1023, 397, 490
4834, 1078, 843, 1290, 753
4835, 1078, 1290, 843, 1020
4836, 844, 1290, 843, 753
4837, 1102, 1184, 1061, 1014
4838, 1061, 1184, 1102, 946
4839, 1296, 1134, 1040, 925
4840, 1296, 1040, 1134, 968
4841, 1206, 178, 289, 276
4842, 1206, 289, 178, 1080
4843, 1261, 432, 1139, 1127
4844, 1261, 1139, 432, 396
4845, 1229, 1264, 966, 1083
4846, 966, 1264, 1229, 1075
4847, 1205, 623, 624, 1023
4848, 1205, 624, 623, 521
4849, 1261, 948, 1139, 991
4850, 1261, 1139, 948, 1127
4851, 1123, 789, 1251, 724
4852, 1123, 1251, 789, 1088
4853, 1189, 1139, 1023, 933
4854, 1189, 1023, 1139, 991
4855, 1290, 1020, 945, 1157
4856, 1290, 945, 1020, 1078
4857, 1190, 825, 1026, 718
4858, 1190, 1026, 825, 1086
4859, 721, 1123, 728, 723
4860, 728, 1123, 721, 1018
4861, 979, 797, 740, 777
4862, 979, 740, 797, 1142
4863, 1286, 1154, 514, 980
4864, 1286, 514, 1154, 609
4865, 450, 316, 1127, 348
4866, 1127, 316, 450, 174
4867, 1130, 1185, 1142, 931
4868, 1142, 1185, 1130, 979
4869, 1199, 1116, 1280, 947
4870, 1199, 1280, 1116, 984
4871, 696, 528, 127, 802
4872, 696, 127, 528, 655
4873, 1182, 346, 425, 491
4874, 1182, 425, 346, 1037
4875, 357, 889, 982, 905
4876, 982, 889, 357, 467
4877, 808, 529, 124, 653
4878, 808, 124, 529, 687
4879, 513, 1194, 616, 678
4880, 616, 1194, 513, 1092
4881, 309, 341, 984, 169
4882, 309, 984, 341, 459
4883, 636, 356, 86, 480
4884, 86, 356, 636, 515
4885, 292, 701, 15, 826
4886, 292, 15, 701, 286
4887, 482, 514, 1154, 355
4888, 1154, 514, 482, 632
4889, 307, 342, 1096, 463
4890, 1096, 342, 307, 170
4891, 840, 171, 1305, 690
4892, 840, 1305, 171, 273
4893, 1243, 1127, 1261, 948
4894, 1243, 1261, 1127, 971
4895, 629, 339, 91, 527
4896, 91, 339, 629, 484
4897, 1133, 556, 1174, 1058
4898, 1133, 1174, 556, 558
4899, 557, 1174, 556, 1058
4900, 557, 556, 1174, 558
4901, 1157, 847, 766, 807
4902, 1157, 766, 847, 1030
4903, 1217, 1296, 1244, 925
4904, 1244, 1296, 1217, 1018
4905, 842, 172, 1020, 691
4906, 842, 1020, 172, 271
4907, 1287, 201, 200, 250
4908, 1287, 200, 201, 1171
4909, 683, 662, 1130, 510
4910, 683, 1130, 662, 796
4911, 507, 791, 138, 668
4912, 507, 138, 791, 680
4913, 1160, 732, 1304, 734
4914, 1160, 1304, 732, 990
4915, 733, 1304, 732, 734
4916, 733, 732, 1304, 990
4917, 1136, 1102, 1313, 946
4918, 1136, 1313, 1102, 1000
4919, 489, 623, 1205, 347
4920, 1205, 623, 489, 521
4921, 1233, 639, 589, 647
4922, 1233, 589, 639, 1003
4923, 491, 623, 1182, 509
4924, 1182, 623, 491, 347
4925, 509, 346, 98, 621
4926, 98, 346, 509, 491
4927, 446, 322, 1114, 344
4928, 446, 1114, 322, 161
4929, 1242, 752, 1167, 995
4930, 1242, 1167, 752, 750
4931, 517, 346, 99, 495
4932, 99, 346, 517, 621
4933, 344, 173, 61, 322
4934, 344, 61, 173, 448
4935, 1125, 1305, 928, 1013
4936, 928, 1305, 1125, 963
4937, 1146, 527, 628, 627
4938, 1146, 628, 527, 1029
4939, 359, 886, 1033, 501
4940, 359, 1033, 886, 874
4941, 1157, 843, 1290, 1020
4942, 1157, 1290, 843, 844
4943, 1279, 667, 996, 1076
4944, 1279, 996, 667, 574
4945, 1144, 1248, 1269, 942
4946, 1269, 1248, 1144, 1019
4947, 840, 163, 1209, 273
4948, 840, 1209, 163, 682
4949, 518, 334, 101, 497
4950, 101, 334, 518, 619
4951, 446, 324, 1114, 161
4952, 1114, 324, 446, 345
4953, 182, 1277, 251, 308
4954, 251, 1277, 182, 1096
4955, 1198, 550, 1009, 1152
4956, 1198, 1009, 550, 549
4957, 1267, 228, 1209, 297
4958, 1267, 1209, 228, 1091
4959, 1179, 415, 414, 417
4960, 1221, 1175, 1264, 934
4961, 1221, 1264, 1175, 1003
4962, 207, 1277, 208, 206
4963, 208, 1277, 207, 1079
4964, 1231, 1170, 1222, 981
4965, 1231, 1222, 1170, 927
4966, 1044, 1219, 1201, 980
4967, 1044, 1201, 1219, 944
4968, 1112, 1201, 1219, 980
4969, 1112, 1219, 1201, 944
4970, 352, 523, 82, 536
4971, 82, 523, 352, 442
4972, 350, 181, 44, 267
4973, 44, 181, 350, 363
4974, 1244, 1123, 1303, 939
4975, 1244, 1303, 1123, 1018
4976, 1160, 1164, 1087, 970
4977, 1087, 1164, 1160, 990
4978, 1217, 1273, 1086, 1041
4979, 1086, 1273, 1217, 975
4980, 1271, 1234, 936, 1040
4981, 936, 1234, 1271, 974
4982, 936, 1216, 1271, 1040
4983, 1271, 1216, 936, 974
4984, 1300, 301, 290, 196
4985, 1300, 290, 301, 1050
4986, 685, 179, 13, 287
4987, 13, 179, 685, 824
4988, 513, 805, 122, 806
4989, 513, 122, 805, 651
4990, 634, 340, 84, 478
4991, 84, 340, 634, 635
4992, 462, 305, 1287, 167
4993, 462, 1287, 305, 461
4994, 1242, 749, 748, 1106
4995, 1242, 748, 749, 750
4996, 1169, 415, 1179, 1132
4997, 1169, 1179, 415, 414
4998, 845, 188, 1028, 707
4999, 845, 1028, 188, 264
5000, 1247, 379, 1015, 380
5001, 1247, 1015, 379, 1144
5002, 1277, 1269, 1079, 950
5003, 1277, 1079, 1269, 1010
5004, 501, 534, 1033, 469
5005, 1033, 534, 501, 665
5006, 328, 361, 1042, 295
5007, 328, 1042, 361, 492
5008, 1263, 678, 1109, 593
5009, 1263, 1109, 678, 1194
5010, 1265, 162, 1030, 265
5011, 1265, 1030, 162, 1187
5012, 894, 183, 38, 299
5013, 894, 38, 183, 911
5014, 1268, 262, 222, 279
5015, 1268, 222, 262, 1178
5016, 875, 328, 74, 883
5017, 74, 328, 875, 185
5018, 624, 1205, 606, 521
5019, 606, 1205, 624, 1204
5020, 1226, 263, 285, 176
5021, 1226, 285, 263, 1225
5022, 703, 858, 157, 817
5023, 157, 858, 703, 881
5024, 857, 665, 146, 644
5025, 857, 146, 665, 886
5026, 538, 1093, 539, 981
5027, 538, 539, 1093, 540

*NSET, NSET=CONSTRAINT_1
1, 4, 6, 8, 70, 71, 72, 73, 74, 108, 109, 110, 111, 112, 146, 147
148, 149, 150, 156, 157, 158, 159, 160, 853, 854, 855, 856, 857, 858, 859, 860
861, 862, 863, 864, 865, 866, 867, 868, 869, 870, 871, 872, 873, 874, 875, 876
877, 878, 879, 880, 881, 882, 883, 884, 885, 886

*NSET, NSET=DLOAD_1
2, 3, 5, 7, 37, 38, 39, 40, 41, 75, 76, 77, 78, 79, 113, 114
115, 116, 117, 151, 152, 153, 154, 155, 887, 888, 889, 890, 891, 892, 893, 894
895, 896, 897, 898, 899, 900, 901, 902, 903, 904, 905, 906, 907, 908, 909, 910
911, 912, 913, 914, 915, 916, 917, 918, 919, 920

*MATERIAL, NAME=STRUCTURAL_STEEL
*ELASTIC
200000.000000, 0.300000

*SOLID SECTION, ELSET=ALL_ELEMENTS, MATERIAL=STRUCTURAL_STEEL

*BOUNDARY
CONSTRAINT_1, 1, 3

*STEP, NLGEOM=NO
*STATIC
0.1, 1.0

*CLOAD
DLOAD_1, 1, 5000.000000

*NODE FILE
U, RF
*EL FILE
S, E

*END STEP
