*HEADING
J-shaped crane hook analyzed for stress concentrations at the saddle.

*NODE, NSET=ALL_NODES
1, -23.076900, 0.000000, 0.000000
2, -23.076900, 0.000000, 7.692300
3, -23.076900, 61.538502, 0.000000
4, -23.076900, 61.538502, 7.692300
5, 23.076900, -0.000000, 7.692300
6, 23.076900, -0.000000, 0.000000
7, -7.692300, 61.538502, 7.692300
8, -7.692300, 21.757111, 7.692300
9, -7.692300, 61.538502, 0.000000
10, -7.692300, 21.757111, 0.000000
11, -7.692300, 0.000000, 7.692300
12, 7.692300, -0.000000, 7.692300
13, 23.076900, 7.692300, 0.000000
14, 23.076900, 7.692300, 7.692300
15, -7.692300, 0.000000, 0.000000
16, 7.692300, -0.000000, 0.000000
17, 7.692300, 7.692300, 7.692300
18, 7.692300, 7.692300, 0.000000
19, -23.076900, 0.000000, 2.564100
20, -23.076900, 0.000000, 5.128200
21, -23.076900, 2.564104, 0.000000
22, -23.076900, 5.128208, 0.000000
23, -23.076900, 7.692313, 0.000000
24, -23.076900, 10.256416, 0.000000
25, -23.076900, 12.820520, 0.000000
26, -23.076900, 15.384625, 0.000000
27, -23.076900, 17.948729, 0.000000
28, -23.076900, 20.512833, 0.000000
29, -23.076900, 23.076937, 0.000000
30, -23.076900, 25.641041, 0.000000
31, -23.076900, 28.205145, 0.000000
32, -23.076900, 30.769251, 0.000000
33, -23.076900, 33.333355, 0.000000
34, -23.076900, 35.897457, 0.000000
35, -23.076900, 38.461563, 0.000000
36, -23.076900, 41.025665, 0.000000
37, -23.076900, 43.589771, 0.000000
38, -23.076900, 46.153873, 0.000000
39, -23.076900, 48.717979, 0.000000
40, -23.076900, 51.282082, 0.000000
41, -23.076900, 53.846188, 0.000000
42, -23.076900, 56.410290, 0.000000
43, -23.076900, 58.974396, 0.000000
44, -23.076900, 61.538502, 2.564100
45, -23.076900, 61.538502, 5.128200
46, -23.076900, 2.564104, 7.692300
47, -23.076900, 5.128208, 7.692300
48, -23.076900, 7.692313, 7.692300
49, -23.076900, 10.256416, 7.692300
50, -23.076900, 12.820520, 7.692300
51, -23.076900, 15.384625, 7.692300
52, -23.076900, 17.948729, 7.692300
53, -23.076900, 20.512833, 7.692300
54, -23.076900, 23.076937, 7.692300
55, -23.076900, 25.641041, 7.692300
56, -23.076900, 28.205145, 7.692300
57, -23.076900, 30.769251, 7.692300
58, -23.076900, 33.333355, 7.692300
59, -23.076900, 35.897457, 7.692300
60, -23.076900, 38.461563, 7.692300
61, -23.076900, 41.025665, 7.692300
62, -23.076900, 43.589771, 7.692300
63, -23.076900, 46.153873, 7.692300
64, -23.076900, 48.717979, 7.692300
65, -23.076900, 51.282082, 7.692300
66, -23.076900, 53.846188, 7.692300
67, -23.076900, 56.410290, 7.692300
68, -23.076900, 58.974396, 7.692300
69, -22.941622, -2.495052, 7.692300
70, -22.537374, -4.960851, 7.692300
71, -21.868898, -7.368489, 7.692300
72, -20.944027, -9.689739, 7.692300
73, -19.773607, -11.897385, 7.692300
74, -18.371361, -13.965545, 7.692300
75, -16.753725, -15.869971, 7.692300
76, -14.939669, -17.588337, 7.692300
77, -12.950458, -19.100496, 7.692300
78, -10.809415, -20.388720, 7.692300
79, -8.541641, -21.437902, 7.692300
80, -6.173725, -22.235746, 7.692300
81, -3.733427, -22.772898, 7.692300
82, -1.249358, -23.043056, 7.692300
83, 1.249358, -23.043056, 7.692300
84, 3.733427, -22.772898, 7.692300
85, 6.173725, -22.235746, 7.692300
86, 8.541641, -21.437902, 7.692300
87, 10.809415, -20.388720, 7.692300
88, 12.950458, -19.100496, 7.692300
89, 14.939669, -17.588337, 7.692300
90, 16.753725, -15.869971, 7.692300
91, 18.371361, -13.965545, 7.692300
92, 19.773607, -11.897385, 7.692300
93, 20.944027, -9.689739, 7.692300
94, 21.868898, -7.368489, 7.692300
95, 22.537374, -4.960851, 7.692300
96, 22.941622, -2.495052, 7.692300
97, -22.941622, -2.495052, 0.000000
98, -22.537374, -4.960851, 0.000000
99, -21.868898, -7.368489, 0.000000
100, -20.944027, -9.689739, 0.000000
101, -19.773607, -11.897385, 0.000000
102, -18.371361, -13.965545, 0.000000
103, -16.753725, -15.869971, 0.000000
104, -14.939669, -17.588337, 0.000000
105, -12.950458, -19.100496, 0.000000
106, -10.809415, -20.388720, 0.000000
107, -8.541641, -21.437902, 0.000000
108, -6.173725, -22.235746, 0.000000
109, -3.733427, -22.772898, 0.000000
110, -1.249358, -23.043056, 0.000000
111, 1.249358, -23.043056, 0.000000
112, 3.733427, -22.772898, 0.000000
113, 6.173725, -22.235746, 0.000000
114, 8.541641, -21.437902, 0.000000
115, 10.809415, -20.388720, 0.000000
116, 12.950458, -19.100496, 0.000000
117, 14.939669, -17.588337, 0.000000
118, 16.753725, -15.869971, 0.000000
119, 18.371361, -13.965545, 0.000000
120, 19.773607, -11.897385, 0.000000
121, 20.944027, -9.689739, 0.000000
122, 21.868898, -7.368489, 0.000000
123, 22.537374, -4.960851, 0.000000
124, 22.941622, -2.495052, 0.000000
125, 23.076900, -0.000000, 2.564100
126, 23.076900, -0.000000, 5.128200
127, -20.512800, 61.538502, 7.692300
128, -17.948700, 61.538502, 7.692300
129, -15.384600, 61.538502, 7.692300
130, -12.820500, 61.538502, 7.692300
131, -10.256400, 61.538502, 7.692300
132, -9.879795, 20.855047, 7.692300
133, -11.963420, 19.733725, 7.692300
134, -13.921268, 18.404934, 7.692300
135, -15.732756, 16.882645, 7.692300
136, -17.378838, 15.182862, 7.692300
137, -18.842211, 13.323455, 7.692300
138, -20.107485, 11.323972, 7.692300
139, -21.161362, 9.205436, 7.692300
140, -21.992762, 6.990119, 7.692300
141, -22.592941, 4.701312, 7.692300
142, -22.955591, 2.363078, 7.692300
143, -7.692300, 24.243446, 7.692300
144, -7.692300, 26.729784, 7.692300
145, -7.692300, 29.216120, 7.692300
146, -7.692300, 31.702457, 7.692300
147, -7.692300, 34.188793, 7.692300
148, -7.692300, 36.675133, 7.692300
149, -7.692300, 39.161469, 7.692300
150, -7.692300, 41.647804, 7.692300
151, -7.692300, 44.134140, 7.692300
152, -7.692300, 46.620480, 7.692300
153, -7.692300, 49.106815, 7.692300
154, -7.692300, 51.593151, 7.692300
155, -7.692300, 54.079491, 7.692300
156, -7.692300, 56.565826, 7.692300
157, -7.692300, 59.052162, 7.692300
158, -20.512800, 61.538502, 0.000000
159, -17.948700, 61.538502, 0.000000
160, -15.384600, 61.538502, 0.000000
161, -12.820500, 61.538502, 0.000000
162, -10.256400, 61.538502, 0.000000
163, -7.692300, 61.538502, 2.564100
164, -7.692300, 61.538502, 5.128200
165, -9.879795, 20.855047, 0.000000
166, -11.963420, 19.733725, 0.000000
167, -13.921268, 18.404934, 0.000000
168, -15.732756, 16.882645, 0.000000
169, -17.378838, 15.182862, 0.000000
170, -18.842211, 13.323455, 0.000000
171, -20.107485, 11.323972, 0.000000
172, -21.161362, 9.205436, 0.000000
173, -21.992762, 6.990119, 0.000000
174, -22.592941, 4.701312, 0.000000
175, -22.955591, 2.363078, 0.000000
176, -7.692300, 24.243446, 0.000000
177, -7.692300, 26.729784, 0.000000
178, -7.692300, 29.216120, 0.000000
179, -7.692300, 31.702457, 0.000000
180, -7.692300, 34.188793, 0.000000
181, -7.692300, 36.675133, 0.000000
182, -7.692300, 39.161469, 0.000000
183, -7.692300, 41.647804, 0.000000
184, -7.692300, 44.134140, 0.000000
185, -7.692300, 46.620480, 0.000000
186, -7.692300, 49.106815, 0.000000
187, -7.692300, 51.593151, 0.000000
188, -7.692300, 54.079491, 0.000000
189, -7.692300, 56.565826, 0.000000
190, -7.692300, 59.052162, 0.000000
191, -7.315812, -2.377051, 7.692300
192, -6.223201, -4.521420, 7.692300
193, -4.521420, -6.223201, 7.692300
194, -2.377051, -7.315812, 7.692300
195, 0.000000, -7.692300, 7.692300
196, 2.377051, -7.315812, 7.692300
197, 4.521420, -6.223201, 7.692300
198, 6.223201, -4.521420, 7.692300
199, 7.315812, -2.377051, 7.692300
200, -20.512800, 0.000000, 7.692300
201, -17.948700, 0.000000, 7.692300
202, -15.384600, 0.000000, 7.692300
203, -12.820500, 0.000000, 7.692300
204, -10.256400, 0.000000, 7.692300
205, 20.512800, 0.000000, 7.692300
206, 17.948700, 0.000000, 7.692300
207, 15.384600, 0.000000, 7.692300
208, 12.820500, 0.000000, 7.692300
209, 10.256400, 0.000000, 7.692300
210, 23.076900, 2.564100, 0.000000
211, 23.076900, 5.128200, 0.000000
212, 23.076900, 7.692300, 2.564100
213, 23.076900, 7.692300, 5.128200
214, 23.076900, 2.564100, 7.692300
215, 23.076900, 5.128200, 7.692300
216, -7.315812, -2.377051, 0.000000
217, -6.223201, -4.521420, 0.000000
218, -4.521420, -6.223201, 0.000000
219, -2.377051, -7.315812, 0.000000
220, 0.000000, -7.692300, 0.000000
221, 2.377051, -7.315812, 0.000000
222, 4.521420, -6.223201, 0.000000
223, 6.223201, -4.521420, 0.000000
224, 7.315812, -2.377051, 0.000000
225, -20.512800, 0.000000, 0.000000
226, -17.948700, 0.000000, 0.000000
227, -15.384600, 0.000000, 0.000000
228, -12.820500, 0.000000, 0.000000
229, -10.256400, 0.000000, 0.000000
230, 20.512800, 0.000000, 0.000000
231, 17.948700, 0.000000, 0.000000
232, 15.384600, 0.000000, 0.000000
233, 12.820500, 0.000000, 0.000000
234, 10.256400, 0.000000, 0.000000
235, -7.692300, 21.757111, 2.564100
236, -7.692300, 21.757111, 5.128200
237, -7.692300, 2.417457, 7.692300
238, -7.692300, 4.834913, 7.692300
239, -7.692300, 7.252370, 7.692300
240, -7.692300, 9.669827, 7.692300
241, -7.692300, 12.087283, 7.692300
242, -7.692300, 14.504740, 7.692300
243, -7.692300, 16.922197, 7.692300
244, -7.692300, 19.339653, 7.692300
245, -7.692300, 2.417457, 0.000000
246, -7.692300, 4.834913, 0.000000
247, -7.692300, 7.252370, 0.000000
248, -7.692300, 9.669827, 0.000000
249, -7.692300, 12.087283, 0.000000
250, -7.692300, 14.504740, 0.000000
251, -7.692300, 16.922197, 0.000000
252, -7.692300, 19.339653, 0.000000
253, 7.692300, -0.000000, 2.564100
254, 7.692300, -0.000000, 5.128200
255, -7.692300, 0.000000, 2.564100
256, -7.692300, 0.000000, 5.128200
257, 7.692300, 2.564100, 7.692300
258, 7.692300, 5.128200, 7.692300
259, 10.256400, 7.692300, 7.692300
260, 12.820500, 7.692300, 7.692300
261, 15.384600, 7.692300, 7.692300
262, 17.948700, 7.692300, 7.692300
263, 20.512800, 7.692300, 7.692300
264, 10.256400, 7.692300, 0.000000
265, 12.820500, 7.692300, 0.000000
266, 15.384600, 7.692300, 0.000000
267, 17.948700, 7.692300, 0.000000
268, 20.512800, 7.692300, 0.000000
269, 7.692300, 7.692300, 2.564100
270, 7.692300, 7.692300, 5.128200
271, 7.692300, 2.564100, 0.000000
272, 7.692300, 5.128200, 0.000000
273, -23.076900, 2.405642, 3.846150
274, -23.076900, 59.132858, 3.846150
275, -23.076900, 21.775988, 5.533973
276, -23.076900, 29.487198, 5.447316
277, -23.076900, 34.615406, 2.120309
278, -23.076900, 6.410260, 5.471721
279, -23.076900, 39.743614, 2.220579
280, -23.076900, 11.590323, 1.966393
281, -23.076900, 16.666676, 5.571991
282, -23.076900, 47.487782, 5.725906
283, -23.076900, 55.153446, 5.599908
284, -23.076900, 19.249678, 2.158327
285, -23.076900, 24.358990, 2.120309
286, -23.076900, 44.871822, 2.220579
287, -23.076900, 42.307720, 5.471721
288, -23.076900, 37.198406, 5.533973
289, -23.076900, 52.564137, 2.120309
290, -23.076900, 29.487198, 2.609690
291, -23.076900, 6.410260, 2.220579
292, -23.076900, 11.611065, 5.612803
293, -23.076900, 44.874973, 5.559440
294, -23.076900, 42.307720, 2.220578
295, -23.076900, 19.229631, 5.554274
296, -23.076900, 8.977515, 2.132860
297, -23.076900, 14.187267, 5.553860
298, -23.076900, 15.543932, 3.678216
299, -23.076900, 32.051300, 2.220578
300, -23.076900, 33.478546, 4.027774
301, -23.076900, 8.978775, 5.552570
302, -23.076900, 37.179508, 2.164313
303, -23.076900, 26.923092, 2.220578
304, -23.076900, 25.495850, 4.027774
305, -23.076900, 21.796032, 2.138026
306, -23.076900, 39.743618, 5.471722
307, -23.076900, 50.072628, 2.161953
308, -23.076900, 51.439373, 4.018003
309, -23.076900, 47.520622, 2.069726
310, -23.076900, 55.119789, 2.137398
311, -23.076900, 57.621555, 5.748676
312, -23.076900, 57.615948, 1.951125
313, -23.076900, 3.921144, 1.964988
314, -23.076900, 3.921144, 5.727312
315, -23.076900, 34.642754, 5.809871
316, -23.076900, 16.696377, 1.884711
317, -23.076900, 27.715343, 4.131546
318, -23.076900, 48.779053, 3.982512
319, -23.076900, 52.594551, 5.819232
320, -23.076900, 24.331640, 5.809871
321, -23.076900, 12.881929, 3.712731
322, -23.076900, 31.259050, 4.131546
323, -23.076900, 7.695805, 3.845005
324, -23.076900, 46.187336, 3.900719
325, -23.076900, 20.512833, 3.846151
326, -23.076900, 43.592884, 3.858250
327, -23.076900, 41.026188, 3.848166
328, -23.076900, 38.461559, 3.846149
329, -23.076900, 10.289235, 3.803727
330, -23.076900, 23.076937, 3.839541
331, -23.076900, 53.846188, 3.839541
332, -23.076900, 17.948729, 3.852759
333, -23.076900, 35.897457, 3.839541
334, -23.076900, 32.080036, 6.002233
335, -23.076900, 14.152951, 1.873675
336, -23.076900, 50.050137, 5.821709
337, -23.076900, 26.894358, 6.002234
338, -23.076900, 5.141601, 3.846150
339, -23.076900, 56.409801, 3.851614
340, -23.076900, 59.661449, 1.877051
341, -23.076900, 1.877052, 1.877051
342, -23.076900, 1.877052, 5.815249
343, -23.076900, 59.661449, 5.815249
344, 4.960851, -22.537374, 5.528613
345, -13.965545, -18.371361, 2.163687
346, -9.698174, -20.940123, 5.535585
347, 22.235746, -6.173725, 5.528613
348, -0.000000, -23.076900, 2.163687
349, 20.388720, -10.809415, 5.528613
350, -22.235746, -6.173725, 5.528613
351, -20.388720, -10.809415, 5.528613
352, -4.960851, -22.537374, 5.528613
353, -17.588337, -14.939669, 5.528613
354, 13.965545, -18.371361, 5.528613
355, 9.689739, -20.944027, 2.163687
356, 17.588337, -14.939669, 2.163687
357, -22.772898, -3.733427, 2.163687
358, 22.772898, -3.733427, 2.163687
359, -21.437902, -8.541641, 2.163687
360, -7.368489, -21.868898, 2.163687
361, 21.437902, -8.541641, 2.163687
362, -19.100496, -12.950458, 2.163687
363, 4.960851, -22.537374, 2.163687
364, -13.965545, -18.371361, 5.528613
365, -0.000000, -23.076900, 5.528613
366, 13.965545, -18.371361, 2.163687
367, 9.689739, -20.944027, 5.528613
368, 17.588337, -14.939669, 5.528613
369, 20.388720, -10.809415, 2.163687
370, -4.960851, -22.537374, 2.163687
371, 15.869971, -16.753725, 5.528613
372, 15.869971, -16.753725, 2.163687
373, 7.368489, -21.868898, 2.163687
374, 7.368489, -21.868898, 5.528613
375, 2.495052, -22.941622, 5.528613
376, 2.495052, -22.941622, 2.163687
377, -11.897385, -19.773607, 5.528613
378, -10.809415, -20.388720, 3.364926
379, 21.437902, -8.541641, 5.528613
380, 11.897385, -19.773607, 2.163687
381, 19.100496, -12.950458, 5.528613
382, 22.772898, -3.733427, 5.528613
383, -15.869971, -16.753725, 2.163687
384, -15.869971, -16.753725, 5.528613
385, -7.380264, -21.864927, 5.538985
386, -2.495052, -22.941622, 5.528613
387, -2.495052, -22.941622, 2.163687
388, -22.772898, -3.733427, 5.528613
389, -21.437902, -8.541641, 5.528613
390, -20.388720, -10.809415, 2.163687
391, -19.100496, -12.950458, 5.528613
392, 11.897385, -19.773607, 5.528613
393, -22.235746, -6.173725, 2.163687
394, -17.588337, -14.939669, 2.163687
395, 19.100496, -12.950458, 2.163687
396, 22.235424, -6.174886, 2.164381
397, 22.987329, -2.031255, 3.846150
398, -22.987329, -2.031255, 3.846150
399, -8.677575, -21.383242, 3.598487
400, -12.027846, -19.694523, 1.930056
401, 16.753725, -15.869971, 3.845855
402, 3.733427, -22.772898, 3.845855
403, -1.249358, -23.043056, 3.845809
404, 14.939620, -17.588379, 3.846005
405, 1.249358, -23.043056, 3.845820
406, 20.943993, -9.689814, 3.846804
407, -14.939669, -17.588337, 3.846490
408, -20.944000, -9.689796, 3.846315
409, -19.773563, -11.897457, 3.846110
410, 6.173703, -22.235752, 3.846159
411, 8.541568, -21.437933, 3.846166
412, -18.371380, -13.965519, 3.846120
413, -6.173725, -22.235746, 3.845809
414, 12.950380, -19.100548, 3.846085
415, 10.809350, -20.388754, 3.846128
416, 18.371347, -13.965563, 3.846159
417, -16.753735, -15.869961, 3.846290
418, -3.733427, -22.772898, 3.845809
419, 19.773607, -11.897385, 3.846490
420, -21.868891, -7.368508, 3.846419
421, -22.537374, -4.960851, 3.846490
422, 21.868876, -7.368556, 3.847002
423, 22.537342, -4.961000, 3.846150
424, -9.689739, -20.944027, 1.678256
425, -12.950458, -19.100496, 3.850357
426, 23.005316, -1.816253, 5.856015
427, -23.005316, -1.816253, 5.856015
428, 23.005316, -1.816253, 1.836285
429, -23.005316, -1.816253, 1.836285
430, -9.752182, 52.836323, 7.692300
431, -9.845531, 45.377312, 7.692300
432, -9.619960, 37.596245, 7.692300
433, -10.019185, 30.518930, 7.692300
434, -20.519545, 26.737831, 7.692300
435, -20.977726, 34.614258, 7.692300
436, -20.961784, 42.227169, 7.692300
437, -21.022940, 50.071285, 7.692300
438, -11.993598, 21.997557, 7.692300
439, -20.856321, 55.128239, 7.692300
440, -14.026270, 59.293377, 7.692300
441, -20.856321, 21.794886, 7.692300
442, -16.092571, 19.270176, 7.692300
443, -9.845531, 25.486616, 7.692300
444, -9.845531, 57.808994, 7.692300
445, -18.955780, 59.004066, 7.692300
446, -20.886477, 16.657543, 7.692300
447, -18.386244, 17.523266, 7.692300
448, -18.445345, 20.119717, 7.692300
449, -16.512598, 21.674887, 7.692300
450, -14.206419, 20.736147, 7.692300
451, -14.245234, 23.301239, 7.692300
452, -17.125038, 23.997692, 7.692300
453, -15.385648, 25.699720, 7.692300
454, -13.186560, 25.317945, 7.692300
455, -13.707023, 27.495863, 7.692300
456, -16.118031, 28.115761, 7.692300
457, -14.242238, 29.890186, 7.692300
458, -16.647545, 30.565147, 7.692300
459, -14.816978, 32.326157, 7.692300
460, -17.183237, 32.941555, 7.692300
461, -15.427902, 34.757221, 7.692300
462, -13.013602, 34.076519, 7.692300
463, -13.675863, 36.507435, 7.692300
464, -16.063528, 37.206837, 7.692300
465, -14.303499, 38.954094, 7.692300
466, -16.654917, 39.622238, 7.692300
467, -14.838178, 41.372215, 7.692300
468, -12.451967, 40.743568, 7.692300
469, -18.594711, 37.907707, 7.692300
470, -13.145052, 43.140411, 7.692300
471, -15.883526, 43.882988, 7.692300
472, -13.841799, 45.587605, 7.692300
473, -16.089392, 46.303398, 7.692300
474, -14.307368, 48.053917, 7.692300
475, -16.662470, 48.701881, 7.692300
476, -14.887135, 50.500175, 7.692300
477, -18.521851, 46.993881, 7.692300
478, -17.192638, 51.042850, 7.692300
479, -15.478834, 52.937408, 7.692300
480, -12.221486, 49.741287, 7.692300
481, -18.929104, 31.188038, 7.692300
482, -18.336637, 53.497372, 7.692300
483, -16.204815, 55.257957, 7.692300
484, -13.778472, 54.681927, 7.692300
485, -10.342870, 42.871716, 7.692300
486, -20.873020, 19.201859, 7.692300
487, -18.937706, 40.695648, 7.692300
488, -20.859686, 24.180975, 7.692300
489, -12.431100, 31.567862, 7.692300
490, -10.186799, 33.329369, 7.692300
491, -11.939071, 46.900452, 7.692300
492, -9.788391, 27.980589, 7.692300
493, -13.210945, 52.255573, 7.692300
494, -16.253111, 59.276234, 7.692300
495, -20.858751, 52.559925, 7.692300
496, -20.420349, 45.035683, 7.692300
497, -18.572071, 43.374409, 7.692300
498, -11.308381, 35.858597, 7.692300
499, -9.845531, 50.349983, 7.692300
500, -9.765676, 55.322659, 7.692300
501, -18.575798, 28.719797, 7.692300
502, -20.894093, 29.611895, 7.692300
503, -17.781801, 26.284695, 7.692300
504, -17.693434, 35.337540, 7.692300
505, -12.144708, 56.795334, 7.692300
506, -20.955637, 37.156487, 7.692300
507, -18.696444, 56.292473, 7.692300
508, -20.827774, 47.687176, 7.692300
509, -11.962179, 29.030334, 7.692300
510, -9.772781, 23.042021, 7.692300
511, -11.435636, 59.451149, 7.692300
512, -21.027012, 13.779573, 7.692300
513, -20.977032, 57.578487, 7.692300
514, -9.880709, 40.156681, 7.692300
515, -14.601413, 57.042843, 7.692300
516, -9.618768, 47.863647, 7.692300
517, -18.731989, 22.528149, 7.692300
518, -12.042932, 38.234177, 7.692300
519, -17.012146, 41.822533, 7.692300
520, -21.081301, 32.110722, 7.692300
521, -21.254057, 39.743614, 7.692300
522, -11.607350, 26.678783, 7.692300
523, -11.634698, 53.995136, 7.692300
524, -18.867682, 49.188370, 7.692300
525, -11.799475, 44.778946, 7.692300
526, -19.255894, 33.572643, 7.692300
527, -19.304155, 15.293340, 7.692300
528, -9.264086, 35.457386, 7.692300
529, -16.912998, 57.327610, 7.692300
530, -19.255730, 51.271961, 7.692300
531, -21.199850, 59.661449, 7.692300
532, -9.520406, 59.732197, 7.692300
533, -11.621361, 24.055086, 7.692300
534, -11.287914, 51.593151, 7.692300
535, -17.841021, 45.158451, 7.692300
536, -18.993078, 24.657726, 7.692300
537, -21.861210, 11.538468, 7.692300
538, -19.610167, 35.921776, 7.692300
539, -16.666651, 61.538502, 5.471724
540, -10.097939, 61.538502, 3.846150
541, -20.671261, 61.538502, 3.846150
542, -14.102550, 61.538502, 2.220576
543, -14.102550, 61.538502, 5.471724
544, -16.666651, 61.538502, 2.220576
545, -19.155762, 61.538502, 5.727312
546, -11.613439, 61.538502, 1.964988
547, -11.613439, 61.538502, 5.727312
548, -19.155762, 61.538502, 1.964988
549, -15.384600, 61.538502, 3.846150
550, -17.950113, 61.538502, 3.846150
551, -12.828496, 61.538502, 3.846150
552, -21.199848, 61.538502, 1.877051
553, -21.199848, 61.538502, 5.815248
554, -9.569351, 61.538502, 1.877051
555, -9.569351, 61.538502, 5.815248
556, -9.752182, 52.836323, 0.000000
557, -9.845531, 45.377312, 0.000000
558, -9.619960, 37.596245, 0.000000
559, -10.019185, 30.518930, 0.000000
560, -20.519545, 26.737831, 0.000000
561, -20.977726, 34.614258, 0.000000
562, -20.961784, 42.227169, 0.000000
563, -21.022940, 50.071285, 0.000000
564, -11.993598, 21.997557, 0.000000
565, -20.856321, 55.128239, 0.000000
566, -14.026270, 59.293377, 0.000000
567, -20.856321, 21.794886, 0.000000
568, -16.092571, 19.270176, 0.000000
569, -9.845531, 25.486616, 0.000000
570, -9.845531, 57.808994, 0.000000
571, -18.955780, 59.004066, 0.000000
572, -20.886477, 16.657543, 0.000000
573, -18.386244, 17.523266, 0.000000
574, -18.445345, 20.119717, 0.000000
575, -16.512598, 21.674887, 0.000000
576, -14.206419, 20.736147, 0.000000
577, -14.245234, 23.301239, 0.000000
578, -17.125038, 23.997692, 0.000000
579, -15.385648, 25.699720, 0.000000
580, -13.186560, 25.317945, 0.000000
581, -13.707023, 27.495863, 0.000000
582, -16.118031, 28.115761, 0.000000
583, -14.242238, 29.890186, 0.000000
584, -16.647545, 30.565147, 0.000000
585, -14.816978, 32.326157, 0.000000
586, -17.183237, 32.941555, 0.000000
587, -15.427902, 34.757221, 0.000000
588, -13.013602, 34.076519, 0.000000
589, -13.675863, 36.507435, 0.000000
590, -16.063528, 37.206837, 0.000000
591, -14.303499, 38.954094, 0.000000
592, -16.654917, 39.622238, 0.000000
593, -14.838178, 41.372215, 0.000000
594, -12.451967, 40.743568, 0.000000
595, -18.594711, 37.907707, 0.000000
596, -13.145052, 43.140411, 0.000000
597, -15.883526, 43.882988, 0.000000
598, -13.841799, 45.587605, 0.000000
599, -16.089392, 46.303398, 0.000000
600, -14.307368, 48.053917, 0.000000
601, -16.662470, 48.701881, 0.000000
602, -14.887135, 50.500175, 0.000000
603, -18.521851, 46.993881, 0.000000
604, -17.192638, 51.042850, 0.000000
605, -15.478834, 52.937408, 0.000000
606, -12.221486, 49.741287, 0.000000
607, -18.929104, 31.188038, 0.000000
608, -18.336637, 53.497372, 0.000000
609, -16.204815, 55.257957, 0.000000
610, -13.778472, 54.681927, 0.000000
611, -10.342870, 42.871716, 0.000000
612, -20.873020, 19.201859, 0.000000
613, -18.937706, 40.695648, 0.000000
614, -20.859686, 24.180975, 0.000000
615, -12.431100, 31.567862, 0.000000
616, -10.186799, 33.329369, 0.000000
617, -11.939071, 46.900452, 0.000000
618, -9.788391, 27.980589, 0.000000
619, -13.210945, 52.255573, 0.000000
620, -16.253111, 59.276234, 0.000000
621, -20.858751, 52.559925, 0.000000
622, -20.420349, 45.035683, 0.000000
623, -18.572071, 43.374409, 0.000000
624, -11.308381, 35.858597, 0.000000
625, -9.845531, 50.349983, 0.000000
626, -9.765676, 55.322659, 0.000000
627, -18.575798, 28.719797, 0.000000
628, -20.894093, 29.611895, 0.000000
629, -17.781801, 26.284695, 0.000000
630, -17.693434, 35.337540, 0.000000
631, -12.144708, 56.795334, 0.000000
632, -20.955637, 37.156487, 0.000000
633, -18.696444, 56.292473, 0.000000
634, -20.827774, 47.687176, 0.000000
635, -11.962179, 29.030334, 0.000000
636, -9.772781, 23.042021, 0.000000
637, -11.435636, 59.451149, 0.000000
638, -21.027012, 13.779573, 0.000000
639, -20.977032, 57.578487, 0.000000
640, -9.880709, 40.156681, 0.000000
641, -14.601413, 57.042843, 0.000000
642, -9.618768, 47.863647, 0.000000
643, -18.731989, 22.528149, 0.000000
644, -12.042932, 38.234177, 0.000000
645, -17.012146, 41.822533, 0.000000
646, -21.081301, 32.110722, 0.000000
647, -21.254057, 39.743614, 0.000000
648, -11.607350, 26.678783, 0.000000
649, -11.634698, 53.995136, 0.000000
650, -18.867682, 49.188370, 0.000000
651, -11.799475, 44.778946, 0.000000
652, -19.255894, 33.572643, 0.000000
653, -19.304155, 15.293340, 0.000000
654, -9.264086, 35.457386, 0.000000
655, -16.912998, 57.327610, 0.000000
656, -19.255730, 51.271961, 0.000000
657, -21.199850, 59.661449, 0.000000
658, -9.520406, 59.732197, 0.000000
659, -11.621361, 24.055086, 0.000000
660, -11.287914, 51.593151, 0.000000
661, -17.841021, 45.158451, 0.000000
662, -18.993078, 24.657726, 0.000000
663, -21.861210, 11.538468, 0.000000
664, -19.610167, 35.921776, 0.000000
665, -7.157454, -6.627678, 7.692300
666, 6.875308, -6.755210, 7.692300
667, 1.153696, -9.683736, 7.692300
668, -7.089050, -19.863886, 7.692300
669, -18.229408, -9.506481, 7.692300
670, 18.622807, -9.625812, 7.692300
671, 8.531118, -18.957376, 7.692300
672, -0.006896, -21.006046, 7.692300
673, -12.805387, -16.339844, 7.692300
674, 14.418672, -15.235176, 7.692300
675, 14.084177, -2.152418, 7.692300
676, -14.102550, -2.220576, 7.692300
677, -15.913260, -13.516846, 7.692300
678, 4.691971, -20.547392, 7.692300
679, 19.972246, -5.795887, 7.692300
680, -20.118061, -5.585752, 7.692300
681, -1.263436, -9.563237, 7.692300
682, -0.041420, -11.756427, 7.692300
683, 2.364379, -11.900900, 7.692300
684, -2.409736, -11.531634, 7.692300
685, 1.070679, -13.884651, 7.692300
686, 3.491163, -14.062637, 7.692300
687, 4.884805, -12.090381, 7.692300
688, 5.940408, -14.256936, 7.692300
689, 7.378919, -12.270679, 7.692300
690, 2.119010, -16.068842, 7.692300
691, -0.299143, -15.891691, 7.692300
692, 8.395618, -14.447534, 7.692300
693, 9.791159, -12.445342, 7.692300
694, -8.406248, -4.558720, 7.692300
695, -9.500748, -6.843782, 7.692300
696, -8.231691, -8.911470, 7.692300
697, -10.617581, -9.023284, 7.692300
698, -9.320192, -11.107966, 7.692300
699, -11.909158, -6.932127, 7.692300
700, -13.061263, -9.120987, 7.692300
701, -14.354677, -6.990303, 7.692300
702, -6.896551, -11.057832, 7.692300
703, -8.024415, -13.208159, 7.692300
704, 8.465529, -5.047636, 7.692300
705, 9.203095, -7.417197, 7.692300
706, 10.907778, -5.745098, 7.692300
707, 11.628174, -8.261220, 7.692300
708, 13.319221, -6.420481, 7.692300
709, 14.082599, -8.738418, 7.692300
710, 15.718866, -7.022372, 7.692300
711, -10.387993, -13.224450, 7.692300
712, -9.094893, -15.320642, 7.692300
713, -6.899681, -15.484270, 7.692300
714, 10.738185, -14.568850, 7.692300
715, 12.309407, -12.347275, 7.692300
716, 5.225567, -8.293114, 7.692300
717, -3.625557, -9.135865, 7.692300
718, 19.404346, -1.898170, 7.692300
719, -19.232103, -1.917660, 7.692300
720, 10.076344, -3.492619, 7.692300
721, 7.140662, -16.531527, 7.692300
722, -15.530708, -9.225377, 7.692300
723, -16.958557, -7.410831, 7.692300
724, -15.918551, -4.811466, 7.692300
725, 0.618681, -18.533857, 7.692300
726, -1.724771, -17.889835, 7.692300
727, -2.736037, -15.692872, 7.692300
728, -3.891848, -17.997185, 7.692300
729, -3.128346, -19.922951, 7.692300
730, -14.291726, -11.272823, 7.692300
731, 8.759775, -10.506768, 7.692300
732, -8.072639, -17.589226, 7.692300
733, 14.984434, -4.526952, 7.692300
734, 17.381933, -5.193803, 7.692300
735, 16.880583, -2.551241, 7.692300
736, -16.660019, -2.216747, 7.692300
737, -13.107863, -4.711726, 7.692300
738, -11.764743, -2.316665, 7.692300
739, 3.434213, -18.535364, 7.692300
740, -5.773153, -13.408668, 7.692300
741, -10.554960, -17.606670, 7.692300
742, 4.743895, -16.377594, 7.692300
743, -11.756041, -11.174354, 7.692300
744, 9.560992, -16.632328, 7.692300
745, 12.278113, -16.565132, 7.692300
746, 5.911281, -18.584063, 7.692300
747, 10.991243, -10.486800, 7.692300
748, -12.984249, -13.719812, 7.692300
749, 12.630134, -4.098581, 7.692300
750, -16.912882, -11.485327, 7.692300
751, -1.268065, -13.748569, 7.692300
752, -18.543060, -3.997167, 7.692300
753, 17.974403, -7.475254, 7.692300
754, 16.319977, -9.238350, 7.692300
755, 14.632696, -11.127656, 7.692300
756, -14.679258, -15.406962, 7.692300
757, 2.286792, -20.739769, 7.692300
758, 16.995737, -11.476293, 7.692300
759, 16.082602, -13.611787, 7.692300
760, -19.407120, -7.594822, 7.692300
761, -10.692502, -4.565489, 7.692300
762, 6.245459, -10.299743, 7.692300
763, -4.592738, -11.254958, 7.692300
764, 3.599985, -10.032652, 7.692300
765, -6.000694, -8.809248, 7.692300
766, -9.437205, -2.100998, 7.692300
767, -3.535185, -13.649010, 7.692300
768, -8.963201, -19.346264, 7.692300
769, -20.846323, -3.436029, 7.692300
770, 20.859049, -3.479749, 7.692300
771, 11.511019, -1.907062, 7.692300
772, -11.165497, -15.242284, 7.692300
773, -4.773929, -15.778338, 7.692300
774, 19.943361, -7.946162, 7.692300
775, 9.321283, -1.596320, 7.692300
776, 14.022680, -13.346646, 7.692300
777, 10.826019, -18.328810, 7.692300
778, -4.930656, -20.711157, 7.692300
779, 7.724978, -8.717096, 7.692300
780, -6.057348, -17.987955, 7.692300
781, -1.828552, -21.266024, 7.692300
782, 18.921419, -3.870506, 7.692300
783, 12.712569, -14.411990, 7.692300
784, 6.846296, -20.451738, 7.692300
785, 12.856466, -10.260363, 7.692300
786, -18.227554, -5.916474, 7.692300
787, 21.322811, -1.641191, 7.692300
788, -21.322811, -1.641191, 7.692300
789, 9.941953, -9.042853, 7.692300
790, -1.226963, -19.594828, 7.692300
791, 23.076900, 3.846150, 2.290754
792, 23.076900, 3.846150, 5.405200
793, 23.076900, 1.903382, 3.846759
794, 23.076900, 5.788918, 3.846759
795, 23.076900, 5.828304, 1.863996
796, 23.076900, 5.828304, 5.828304
797, 23.076900, 1.863996, 1.863996
798, 23.076900, 1.863996, 5.828304
799, -7.157454, -6.627678, 0.000000
800, 6.875308, -6.755210, 0.000000
801, 1.153696, -9.683736, 0.000000
802, -7.089050, -19.863886, 0.000000
803, -18.229408, -9.506481, 0.000000
804, 18.622807, -9.625812, 0.000000
805, 8.531118, -18.957376, 0.000000
806, -0.006896, -21.006046, 0.000000
807, -12.805387, -16.339844, 0.000000
808, 14.418672, -15.235176, 0.000000
809, 14.084177, -2.152418, 0.000000
810, -14.102550, -2.220576, 0.000000
811, -15.913260, -13.516846, 0.000000
812, 4.691971, -20.547392, 0.000000
813, 19.972246, -5.795887, 0.000000
814, -20.118061, -5.585752, 0.000000
815, -1.263436, -9.563237, 0.000000
816, -0.041420, -11.756427, 0.000000
817, 2.364379, -11.900900, 0.000000
818, -2.409736, -11.531634, 0.000000
819, 1.070679, -13.884651, 0.000000
820, 3.491163, -14.062637, 0.000000
821, 4.884805, -12.090381, 0.000000
822, 5.940408, -14.256936, 0.000000
823, 7.378919, -12.270679, 0.000000
824, 2.119010, -16.068842, 0.000000
825, -0.299143, -15.891691, 0.000000
826, 8.395618, -14.447534, 0.000000
827, 9.791159, -12.445342, 0.000000
828, 8.465529, -5.047636, 0.000000
829, 9.203095, -7.417197, 0.000000
830, 10.907778, -5.745098, 0.000000
831, 11.628174, -8.261220, 0.000000
832, 13.319221, -6.420481, 0.000000
833, 14.082599, -8.738418, 0.000000
834, 15.718866, -7.022372, 0.000000
835, -8.406248, -4.558720, 0.000000
836, -9.500748, -6.843782, 0.000000
837, -8.231691, -8.911470, 0.000000
838, -10.617581, -9.023284, 0.000000
839, -9.320192, -11.107966, 0.000000
840, -11.909158, -6.932127, 0.000000
841, -13.061263, -9.120987, 0.000000
842, -14.354677, -6.990303, 0.000000
843, -6.896551, -11.057832, 0.000000
844, -8.024415, -13.208159, 0.000000
845, -10.387993, -13.224450, 0.000000
846, -9.094893, -15.320642, 0.000000
847, -6.899681, -15.484270, 0.000000
848, 10.738185, -14.568850, 0.000000
849, 12.309407, -12.347275, 0.000000
850, 5.225567, -8.293114, 0.000000
851, -3.625557, -9.135865, 0.000000
852, 19.404346, -1.898170, 0.000000
853, -19.232103, -1.917660, 0.000000
854, 10.076344, -3.492619, 0.000000
855, 7.140662, -16.531527, 0.000000
856, -15.530708, -9.225377, 0.000000
857, -16.958557, -7.410831, 0.000000
858, -15.918551, -4.811466, 0.000000
859, 0.618681, -18.533857, 0.000000
860, -1.724771, -17.889835, 0.000000
861, -2.736037, -15.692872, 0.000000
862, -3.891848, -17.997185, 0.000000
863, -3.128346, -19.922951, 0.000000
864, -14.291726, -11.272823, 0.000000
865, 8.759775, -10.506768, 0.000000
866, -8.072639, -17.589226, 0.000000
867, 14.984434, -4.526952, 0.000000
868, 17.381933, -5.193803, 0.000000
869, 16.880583, -2.551241, 0.000000
870, -16.660019, -2.216747, 0.000000
871, -13.107863, -4.711726, 0.000000
872, -11.764743, -2.316665, 0.000000
873, 3.434213, -18.535364, 0.000000
874, -5.773153, -13.408668, 0.000000
875, -10.554960, -17.606670, 0.000000
876, 4.743895, -16.377594, 0.000000
877, -11.756041, -11.174354, 0.000000
878, 9.560992, -16.632328, 0.000000
879, 12.278113, -16.565132, 0.000000
880, 5.911281, -18.584063, 0.000000
881, 10.991243, -10.486800, 0.000000
882, -12.984249, -13.719812, 0.000000
883, 12.630134, -4.098581, 0.000000
884, -16.912882, -11.485327, 0.000000
885, -1.268065, -13.748569, 0.000000
886, -18.543060, -3.997167, 0.000000
887, 17.974403, -7.475254, 0.000000
888, 16.319977, -9.238350, 0.000000
889, 14.632696, -11.127656, 0.000000
890, -14.679258, -15.406962, 0.000000
891, 2.286792, -20.739769, 0.000000
892, 16.995737, -11.476293, 0.000000
893, 16.082602, -13.611787, 0.000000
894, -19.407120, -7.594822, 0.000000
895, -10.692502, -4.565489, 0.000000
896, 6.245459, -10.299743, 0.000000
897, -4.592738, -11.254958, 0.000000
898, 3.599985, -10.032652, 0.000000
899, -6.000694, -8.809248, 0.000000
900, -9.437205, -2.100998, 0.000000
901, -3.535185, -13.649010, 0.000000
902, -8.963201, -19.346264, 0.000000
903, -20.846323, -3.436029, 0.000000
904, 20.859049, -3.479749, 0.000000
905, 11.511019, -1.907062, 0.000000
906, -11.165497, -15.242284, 0.000000
907, -4.773929, -15.778338, 0.000000
908, 19.943361, -7.946162, 0.000000
909, 9.321283, -1.596320, 0.000000
910, 14.022680, -13.346646, 0.000000
911, 10.826019, -18.328810, 0.000000
912, -4.930656, -20.711157, 0.000000
913, 7.724978, -8.717096, 0.000000
914, -6.057348, -17.987955, 0.000000
915, -1.828552, -21.266024, 0.000000
916, 18.921419, -3.870506, 0.000000
917, 12.712569, -14.411990, 0.000000
918, 6.846296, -20.451738, 0.000000
919, 12.856466, -10.260363, 0.000000
920, -18.227554, -5.916474, 0.000000
921, 21.322811, -1.641191, 0.000000
922, -21.322811, -1.641191, 0.000000
923, 9.941953, -9.042853, 0.000000
924, -1.226963, -19.594828, 0.000000
925, -7.692300, 55.322659, 5.539069
926, -7.692300, 42.890972, 2.153231
927, -7.692300, 47.863647, 2.153231
928, -7.692300, 27.972952, 5.539069
929, -7.692300, 32.945625, 5.539069
930, -7.692300, 37.976788, 5.572837
931, -7.692300, 57.791424, 1.945606
932, -7.692300, 50.349983, 5.539069
933, -7.692300, 25.504185, 1.945606
934, -7.692300, 52.836323, 2.153231
935, -7.692300, 45.377312, 5.539069
936, -7.692300, 30.459290, 2.153231
937, -7.692300, 35.473740, 1.957785
938, -7.692300, 57.791424, 5.746694
939, -7.692300, 42.890972, 5.539069
940, -7.692300, 50.349983, 2.153231
941, -7.692300, 32.949177, 2.058327
942, -7.692300, 40.414383, 5.621934
943, -7.692300, 39.289818, 3.712152
944, -7.692300, 25.504185, 5.746694
945, -7.692300, 30.459290, 5.539069
946, -7.692300, 27.973715, 2.104282
947, -7.692300, 45.377312, 2.153231
948, -7.692300, 35.500198, 5.655184
949, -7.692300, 47.863647, 5.539069
950, -7.692300, 52.836323, 5.539069
951, -7.692300, 55.321896, 2.104282
952, -7.692300, 59.412048, 3.846150
953, -7.692300, 23.883562, 3.846150
954, -7.692300, 40.426029, 1.900742
955, -7.692300, 36.724606, 3.738986
956, -7.692300, 44.134140, 3.846668
957, -7.692300, 46.620480, 3.846236
958, -7.692300, 34.215969, 3.799250
959, -7.692300, 31.703791, 3.839998
960, -7.692300, 54.079491, 3.846150
961, -7.692300, 49.106815, 3.846164
962, -7.692300, 51.593151, 3.846152
963, -7.692300, 29.216120, 3.846150
964, -7.692300, 56.565826, 3.846150
965, -7.692300, 26.729784, 3.846150
966, -7.692300, 37.958466, 1.884944
967, -7.692300, 41.647804, 3.849261
968, -7.692300, 59.866528, 6.021129
969, -7.692300, 23.429083, 6.021129
970, -7.692300, 23.429083, 1.671171
971, -7.692300, 59.866528, 1.671171
972, -18.830938, 9.748038, 7.692300
973, -9.751929, 6.021645, 7.692300
974, -9.740622, 10.952903, 7.692300
975, -16.534153, 2.142102, 7.692300
976, -16.500231, 12.985841, 7.692300
977, -13.645076, 15.986516, 7.692300
978, -20.179605, 5.405931, 7.692300
979, -11.477227, 2.419393, 7.692300
980, -9.808008, 15.859895, 7.692300
981, -20.444630, 3.120195, 7.692300
982, -14.066730, 2.222913, 7.692300
983, -15.336983, 4.371060, 7.692300
984, -17.942621, 4.322943, 7.692300
985, -16.498707, 6.466124, 7.692300
986, -14.143839, 6.520265, 7.692300
987, -15.228406, 8.553440, 7.692300
988, -12.805394, 8.502854, 7.692300
989, -14.105439, 10.779199, 7.692300
990, -13.008416, 4.504739, 7.692300
991, -9.825448, 18.378149, 7.692300
992, -9.772927, 13.320772, 7.692300
993, -11.833608, 12.148834, 7.692300
994, -10.175050, 8.451648, 7.692300
995, -11.825613, 14.566112, 7.692300
996, -13.913239, 13.359179, 7.692300
997, -16.530924, 10.542686, 7.692300
998, -9.539598, 3.721636, 7.692300
999, -11.857285, 6.523855, 7.692300
1000, -11.831472, 17.154888, 7.692300
1001, -19.638790, 7.647035, 7.692300
1002, -15.434028, 14.879409, 7.692300
1003, -11.700236, 10.152467, 7.692300
1004, -18.169199, 11.562947, 7.692300
1005, -17.440340, 8.231005, 7.692300
1006, -9.451419, 1.759957, 7.692300
1007, -18.451630, 6.210949, 7.692300
1008, -18.601831, 1.863454, 7.692300
1009, -11.126891, 4.638254, 7.692300
1010, -18.830938, 9.748038, 0.000000
1011, -9.751929, 6.021645, 0.000000
1012, -9.740622, 10.952903, 0.000000
1013, -16.534153, 2.142102, 0.000000
1014, -16.500231, 12.985841, 0.000000
1015, -13.645076, 15.986516, 0.000000
1016, -20.179605, 5.405931, 0.000000
1017, -11.477227, 2.419393, 0.000000
1018, -9.811718, 15.866788, 0.000000
1019, -20.444630, 3.120195, 0.000000
1020, -14.066730, 2.222913, 0.000000
1021, -15.336983, 4.371060, 0.000000
1022, -17.942621, 4.322943, 0.000000
1023, -16.498707, 6.466124, 0.000000
1024, -14.143839, 6.520265, 0.000000
1025, -15.228406, 8.553440, 0.000000
1026, -12.805394, 8.502854, 0.000000
1027, -14.105439, 10.779199, 0.000000
1028, -13.008416, 4.504739, 0.000000
1029, -9.826066, 18.379299, 0.000000
1030, -9.773546, 13.321920, 0.000000
1031, -11.833711, 12.149026, 0.000000
1032, -10.175050, 8.451648, 0.000000
1033, -11.825990, 14.566812, 0.000000
1034, -13.913260, 13.359217, 0.000000
1035, -16.530924, 10.542686, 0.000000
1036, -9.539598, 3.721636, 0.000000
1037, -11.857285, 6.523855, 0.000000
1038, -11.832256, 17.156345, 0.000000
1039, -19.638790, 7.647035, 0.000000
1040, -15.434031, 14.879416, 0.000000
1041, -11.700252, 10.152494, 0.000000
1042, -18.169199, 11.562947, 0.000000
1043, -17.440340, 8.231005, 0.000000
1044, -9.451419, 1.759957, 0.000000
1045, -18.451630, 6.210949, 0.000000
1046, -18.601831, 1.863454, 0.000000
1047, -11.126891, 4.638254, 0.000000
1048, 5.439278, -5.439278, 5.610205
1049, -3.492231, -6.853889, 2.082095
1050, 1.206649, -7.597070, 5.623934
1051, -7.371788, -2.197323, 3.846150
1052, 6.853889, -3.492231, 2.082095
1053, -5.432285, -5.446260, 5.621449
1054, 3.492231, -6.853889, 2.082095
1055, -1.186562, -7.600234, 5.627702
1056, -0.052270, -7.692122, 3.664742
1057, -5.432284, -5.446261, 2.070750
1058, 6.853889, -3.492231, 5.610205
1059, -3.467704, -6.866332, 5.633732
1060, 5.439278, -5.439278, 2.082095
1061, 3.492721, -6.853640, 5.618670
1062, -6.819264, -3.559369, 2.039461
1063, -6.819264, -3.559369, 5.652839
1064, 7.428391, -1.997619, 3.846150
1065, 1.181346, -7.601046, 1.916780
1066, -2.268679, -7.350141, 3.725116
1067, -4.525605, -6.220159, 3.814222
1068, 4.521420, -6.223201, 3.848694
1069, 2.377051, -7.315812, 3.851666
1070, -1.150581, -7.605764, 1.805289
1071, 6.223201, -4.521420, 3.848694
1072, -6.220160, -4.525603, 3.843938
1073, -7.487773, -1.762024, 1.821296
1074, -7.487773, -1.762024, 5.871004
1075, 7.475622, -1.812887, 5.885468
1076, 7.475622, -1.812887, 1.806832
1077, 11.550245, 1.962812, 7.692300
1078, 16.666651, 2.220576, 7.692300
1079, 20.671261, 3.846150, 7.692300
1080, 14.102550, 5.471724, 7.692300
1081, 14.103062, 2.157765, 7.692300
1082, 16.666651, 5.471724, 7.692300
1083, 11.550245, 5.729488, 7.692300
1084, 19.155762, 5.727312, 7.692300
1085, 19.155762, 1.964988, 7.692300
1086, 9.905692, 3.846150, 7.692300
1087, 12.820500, 3.846150, 7.692300
1088, 15.384600, 3.846150, 7.692300
1089, 17.940704, 3.846150, 7.692300
1090, 21.199848, 5.815248, 7.692300
1091, 21.199848, 1.877051, 7.692300
1092, 9.556296, 5.828304, 7.692300
1093, 9.556296, 1.863996, 7.692300
1094, 16.666651, 7.692300, 2.220576
1095, 11.550245, 7.692300, 5.729488
1096, 20.671261, 7.692300, 3.846150
1097, 16.666651, 7.692300, 5.471724
1098, 11.550245, 7.692300, 1.962812
1099, 14.103062, 7.692300, 2.157765
1100, 14.103062, 7.692300, 5.534535
1101, 19.155762, 7.692300, 5.727312
1102, 19.155762, 7.692300, 1.964988
1103, 9.905692, 7.692300, 3.846150
1104, 15.382539, 7.692300, 3.846150
1105, 12.765807, 7.692300, 3.846150
1106, 17.949770, 7.692300, 3.846150
1107, 21.199848, 7.692300, 5.815248
1108, 21.199848, 7.692300, 1.877051
1109, 9.556296, 7.692300, 5.828304
1110, 9.556296, 7.692300, 1.863996
1111, 11.550245, 1.962812, 0.000000
1112, 16.666651, 2.220576, 0.000000
1113, 20.671261, 3.846150, 0.000000
1114, 14.102550, 5.471724, 0.000000
1115, 14.103062, 2.157765, 0.000000
1116, 16.666651, 5.471724, 0.000000
1117, 11.550245, 5.729488, 0.000000
1118, 19.155762, 5.727312, 0.000000
1119, 19.155762, 1.964988, 0.000000
1120, 9.905692, 3.846150, 0.000000
1121, 12.820500, 3.846150, 0.000000
1122, 15.384600, 3.846150, 0.000000
1123, 17.940704, 3.846150, 0.000000
1124, 21.199848, 5.815248, 0.000000
1125, 21.199848, 1.877051, 0.000000
1126, 9.556296, 5.828304, 0.000000
1127, 9.556296, 1.863996, 0.000000
1128, -7.692300, 15.668612, 2.067681
1129, -7.692300, 10.878555, 5.598721
1130, -7.692300, 6.043642, 5.598721
1131, -7.692300, 18.065008, 5.851745
1132, -7.692300, 8.461099, 2.093579
1133, -7.692300, 3.641228, 1.975694
1134, -7.692300, 10.878555, 2.093579
1135, -7.692300, 13.288536, 2.032214
1136, -7.692300, 14.406305, 3.945276
1137, -7.692300, 3.641228, 5.716606
1138, -7.692300, 8.461099, 5.598721
1139, -7.692300, 6.044294, 2.058876
1140, -7.692300, 18.111820, 2.057548
1141, -7.692300, 19.650471, 3.867111
1142, -7.692300, 2.066970, 3.846150
1143, -7.692300, 13.279606, 5.785746
1144, -7.692300, 16.935947, 3.955062
1145, -7.692300, 9.669827, 3.845936
1146, -7.692300, 7.252370, 3.846150
1147, -7.692300, 12.087283, 3.844867
1148, -7.692300, 15.685634, 5.820405
1149, -7.692300, 4.834913, 3.846150
1150, -7.692300, 20.014538, 1.785364
1151, -7.692300, 1.742573, 5.906937
1152, -7.692300, 20.113871, 6.046331
1153, -7.692300, 1.742573, 1.785364
1154, 7.692300, 3.846150, 5.421597
1155, 7.692300, 3.846150, 2.268839
1156, 7.692300, 1.903382, 3.845839
1157, 7.692300, 5.788918, 3.845839
1158, 7.692300, 5.828304, 5.828304
1159, 7.692300, 1.863996, 1.863996
1160, 7.692300, 1.863996, 5.828304
1161, 7.692300, 5.828304, 1.863996
1162, -17.764521, 10.387303, 3.846150
1163, -15.402043, 13.528154, 3.701760
1164, 9.872820, -10.196315, 3.846150
1165, 13.360997, -13.871168, 3.846150
1166, -2.084694, -19.168447, 3.846150
1167, 13.850389, -9.913718, 3.846150
1168, -14.159773, 26.236521, 3.846150
1169, -12.121979, 5.337064, 3.846150
1170, -17.486576, 6.425848, 3.846150
1171, -19.136148, 14.293632, 3.846150
1172, 9.387599, -14.149806, 3.846150
1173, -19.202084, 34.782040, 3.846150
1174, -0.058151, -13.119844, 3.846150
1175, -9.390050, -9.705390, 3.846150
1176, 6.123552, -11.742680, 3.846150
1177, -12.497910, 18.414497, 3.846150
1178, -16.081102, 40.844547, 3.846150
1179, -16.140482, 32.094109, 3.846150
1180, -11.721538, 43.343178, 3.846150
1181, -18.311644, 50.369858, 3.846150
1182, -15.406559, 2.913929, 3.846150
1183, -12.978320, -7.767009, 3.846150
1184, -15.075060, 36.156052, 3.846150
1185, -14.009011, 8.905992, 3.859923
1186, -10.162355, -16.131319, 3.846150
1187, 19.230749, 0.519920, 3.846150
1188, 11.559369, 0.576281, 3.846150
1189, 12.057721, -6.281944, 3.846150
1190, -6.857715, -12.847294, 3.846150
1191, 15.391298, 1.926226, 3.846150
1192, -11.547178, 52.781746, 3.846150
1193, -12.697236, 29.994745, 3.846150
1194, -15.475286, 47.460548, 3.846150
1195, -17.873007, -1.438950, 3.846150
1196, 5.699022, -15.734916, 3.846150
1197, -19.066519, 45.571529, 3.846150
1198, -16.913111, -8.966833, 3.846150
1199, -19.046261, 25.961702, 3.846150
1200, -19.391611, 29.879984, 4.008076
1201, -13.053535, 22.384001, 3.846150
1202, 16.847765, -7.243180, 3.846150
1203, -3.540760, -15.049935, 3.846150
1204, 17.825596, -3.327522, 3.846150
1205, -11.538450, -0.814640, 3.846150
1206, -14.490813, -3.879883, 3.846150
1207, -11.374672, 13.256250, 3.676679
1208, 2.068082, -19.015699, 3.846150
1209, -16.556595, 17.291004, 3.846150
1210, -18.556492, -5.289532, 3.846150
1211, -14.639940, -12.435251, 3.846150
1212, -11.718137, 33.912094, 3.871353
1213, -3.381695, -11.081589, 3.942309
1214, -15.716029, 57.519474, 3.846150
1215, -19.329401, 21.794893, 3.846150
1216, -11.484617, 47.863647, 3.846150
1217, -19.230928, 55.127991, 3.846150
1218, -12.340029, 39.369751, 3.846150
1219, -19.210886, 2.194339, 3.882887
1220, -10.105281, -5.091238, 3.846150
1221, 13.665615, -2.717888, 3.846150
1222, -19.609856, 39.743633, 4.153357
1223, 2.681794, -10.856142, 3.410195
1224, -15.363902, 53.626316, 3.846150
1225, -6.531107, -17.552830, 3.846150
1226, 11.357068, 4.270857, 4.270857
1227, 19.310516, 4.300947, 3.391354
1228, 7.400495, -7.935474, 3.289060
1229, -11.463218, 57.809792, 3.778659
1230, 8.681985, -17.592075, 4.384289
1231, -11.139228, -12.754539, 3.427405
1232, -10.751703, 8.461058, 3.386659
1233, -10.881167, 25.183372, 4.379019
1234, -16.061180, 20.701483, 3.317393
1235, -16.293596, 28.778658, 3.293979
1236, -15.042627, 44.085194, 3.331266
1237, 5.375329, -19.026300, 3.282249
1238, -14.049756, 50.518684, 4.380460
1239, 2.285005, -15.606149, 3.409035
1240, -14.785938, -0.312945, 4.424822
1241, -20.014246, 8.238979, 4.575149
1242, -19.734726, 18.439877, 3.163808
1243, -19.310688, 58.477135, 3.391215
1244, -6.096736, -9.169003, 3.352424
1245, 16.677410, -11.307507, 3.410293
1246, 11.538983, -16.358919, 4.277340
1247, -16.477137, 23.860849, 4.394410
1248, -13.084339, -15.110934, 4.730376
1249, 10.366327, -2.102790, 2.865855
1250, -10.600092, 16.152502, 2.965047
1251, 9.156889, -5.346189, 3.119872
1252, -12.352388, 2.211681, 4.597656
1253, -0.658693, -16.347651, 4.514308
1254, 14.191160, 4.691586, 3.024316
1255, -13.084716, 15.553618, 4.725640
1256, -20.141201, 42.692490, 3.241735
1257, 4.907626, -9.103590, 4.343406
1258, -0.222790, -10.364118, 5.002642
1259, -10.707061, 36.795551, 4.722256
1260, -7.903062, -7.072031, 4.726633
1261, -10.644897, 27.892111, 2.949002
1262, -10.576548, 20.707075, 3.020300
1263, -20.263264, 5.719560, 2.976527
1264, -14.859385, 5.609935, 2.732604
1265, 19.395809, -5.799562, 4.577035
1266, -17.099672, 38.173801, 4.968196
1267, -12.984305, 55.333607, 4.791372
1268, 16.637623, 4.519178, 4.811314
1269, -20.272518, 11.700644, 2.943030
1270, 3.733142, -13.335876, 4.772697
1271, 16.047831, -0.960407, 4.807038
1272, -15.922582, -6.318304, 5.024455
1273, -10.461568, 3.276817, 2.697056
1274, 11.259470, -12.373023, 2.645593
1275, -20.268557, 48.219177, 2.980501
1276, -19.735989, 32.301510, 2.520011
1277, -11.931297, 10.666134, 4.850086
1278, -20.020844, -3.043656, 2.748954
1279, -20.321999, 52.449322, 4.641333
1280, 14.737018, -5.345964, 4.817274
1281, 9.726508, -7.547684, 4.892288
1282, -17.456049, 43.282413, 4.913863
1283, -12.554772, -10.547607, 4.874780
1284, -20.257011, 37.266846, 2.805370
1285, -10.486114, 50.335796, 4.898486
1286, -4.822719, -19.777491, 3.073768
1287, 14.320103, -7.423542, 2.525795
1288, -10.298843, 41.086876, 2.843675
1289, 20.298862, -2.338511, 4.976076
1290, -10.238568, 55.268818, 3.380439
1291, -10.423308, 31.514597, 2.745460
1292, -13.139247, 45.683926, 4.861027
1293, -8.951051, -18.385807, 2.654631
1294, -18.532547, 32.457077, 5.238043
1295, 7.539791, -9.858088, 5.220459
1296, -12.528863, 36.317982, 2.593595
1297, -16.349516, 8.496105, 5.207794
1298, -15.437954, 11.133240, 5.193845
1299, -16.355711, 8.495670, 2.484227
1300, -17.649469, 12.621675, 5.299323
1301, -16.598997, 0.714379, 2.478803
1302, -9.170586, -13.824610, 5.169820
1303, 13.984358, -0.193651, 2.583645
1304, -15.560724, 11.231264, 2.463038
1305, 15.178590, -12.500703, 5.362316
1306, -1.065362, -10.964837, 2.440925
1307, -17.457777, 36.872334, 2.460571
1308, -14.490906, -9.858459, 2.596488
1309, -13.641115, 32.320034, 2.562049
1310, 8.434038, -12.026251, 2.475022
1311, -13.620514, 41.603916, 2.585393
1312, 11.943609, -11.209243, 5.264140
1313, -10.600686, -7.656044, 2.416533
1314, -10.600686, -7.656044, 5.275767
1315, -20.345558, -1.598639, 5.095542
1316, -10.073622, 4.629529, 5.302925
1317, -17.872501, 12.543362, 2.392506
1318, 18.021784, -9.474456, 4.992764
1319, -10.418206, 45.541313, 2.725906
1320, -7.732136, -15.272089, 2.690887
1321, -14.853088, 19.029854, 5.162551
1322, 10.508835, -8.056129, 2.402766
1323, 7.221940, -13.669848, 5.387269
1324, -10.593090, 22.529049, 5.101182
1325, -10.328016, 11.008891, 2.626816
1326, -15.299608, 6.042805, 5.331673
1327, 3.731834, -17.207397, 5.206950
1328, 11.255300, -3.775216, 5.059714
1329, -11.982111, -3.341759, 2.636139
1330, -14.782408, 15.825393, 2.439991
1331, 19.092041, -7.335040, 2.436184
1332, -10.110397, 29.216120, 5.277594
1333, 0.016013, -19.753227, 5.355193
1334, 0.016013, -19.753227, 2.337107
1335, 19.995815, -4.198669, 2.469951
1336, -14.776181, 38.672367, 2.718466
1337, -17.977150, 47.858692, 5.070703
1338, -16.592958, 25.920267, 2.509918
1339, -17.107052, 0.982317, 5.233467
1340, -16.570860, 26.732958, 5.198204
1341, -16.009645, 51.248466, 2.524897
1342, -16.601006, 34.385601, 5.255889
1343, -14.057627, 33.296444, 5.214668
1344, -9.167178, -18.138664, 5.311636
1345, -16.863661, -3.604062, 2.409324
1346, -16.863661, -3.604062, 5.282976
1347, -14.466349, 28.519516, 5.290615
1348, -16.996958, 34.206142, 2.385921
1349, -10.027681, 19.166201, 5.140800
1350, -5.998177, -15.151736, 5.102848
1351, -10.162454, 23.285467, 2.604158
1352, -19.517006, 16.646217, 5.274688
1353, -2.320101, -13.145450, 5.295174
1354, -19.117266, 4.748452, 5.260670
1355, -12.611968, 24.595881, 2.473738
1356, -10.146784, 14.954548, 5.253983
1357, -17.150387, -11.628277, 4.270593
1358, -19.423100, 36.975708, 5.286240
1359, 4.777867, -13.482921, 2.298607
1360, 13.076910, 2.382212, 5.189301
1361, 6.764685, -19.138186, 5.435527
1362, -20.408186, 51.067329, 2.379626
1363, 12.795462, 2.468733, 2.352437
1364, 17.708622, 2.308581, 2.498031
1365, 2.106515, -13.199400, 2.332521
1366, -17.898911, 19.451031, 5.025390
1367, 16.115137, -4.980304, 2.465609
1368, -10.285179, 38.265934, 2.514551
1369, -14.162017, 42.270767, 5.190412
1370, -20.702820, 27.829844, 2.964366
1371, -12.929929, 11.452616, 2.535039
1372, -18.940699, -7.667097, 2.648171
1373, -4.559978, -12.985955, 2.418243
1374, -2.237868, -16.905954, 2.431511
1375, 20.523348, 2.565675, 5.129095
1376, 10.482806, -1.281986, 5.357878
1377, 20.323648, -1.471576, 2.460415
1378, -8.011657, -5.883696, 2.378206
1379, -17.648619, 48.121529, 2.423702
1380, -20.501036, 23.967531, 4.999767
1381, -13.754008, 1.265266, 2.499513
1382, -15.295959, -7.218305, 2.538565
1383, -9.824352, -2.618653, 4.858779
1384, -12.539109, -5.358290, 5.086294
1385, -14.345216, -14.650410, 2.483354
1386, -18.913168, 8.573843, 2.280909
1387, -14.298717, 55.685162, 2.455599
1388, -4.006542, -17.531256, 4.970549
1389, -20.240971, 12.533692, 5.400444
1390, -10.795635, 31.862736, 5.436075
1391, 13.483784, -15.874337, 2.279954
1392, 7.287264, -14.346537, 2.340565
1393, -9.909561, 12.101786, 5.400743
1394, -17.664129, 42.397488, 2.464128
1395, -18.297077, 23.817770, 2.438887
1396, 17.447304, -1.009048, 2.475426
1397, 4.120948, -20.336849, 5.467507
1398, -17.592165, 3.991382, 2.664729
1399, -12.295420, 7.523117, 5.298830
1400, 10.367435, -17.733578, 2.454007
1401, -18.439051, 52.813114, 2.792566
1402, 15.756068, -13.613798, 3.209219
1403, -20.548559, 49.755913, 5.111915
1404, -14.733432, 18.597586, 2.486542
1405, -18.287891, 16.172293, 2.240737
1406, -8.863922, -11.872805, 2.466650
1407, 13.402370, -8.146816, 5.269397
1408, 17.900965, 2.252156, 5.347448
1409, -20.587004, 56.979366, 5.151016
1410, 10.148950, 2.511125, 2.673201
1411, -15.081973, 21.885992, 5.473626
1412, -12.058761, 27.429306, 5.138730
1413, -16.537430, 15.447927, 5.337911
1414, -9.981705, 39.301395, 4.991323
1415, -13.379956, 46.672142, 2.393998
1416, -17.941105, 57.167801, 5.250252
1417, -17.394751, 52.502262, 5.312866
1418, -20.861643, 33.492844, 5.289759
1419, -13.743876, 37.793819, 5.405884
1420, -10.666561, 50.855732, 2.385246
1421, 11.351010, -13.678402, 5.391087
1422, -13.112232, 13.000008, 5.543397
1423, -10.202634, 35.301460, 2.364712
1424, -5.737878, -19.419397, 5.497517
1425, -7.317550, -10.626449, 5.147789
1426, -10.175141, 6.178699, 2.481393
1427, -12.897163, 7.216689, 2.257505
1428, -13.676887, 59.101231, 4.493279
1429, -13.120195, 24.449945, 5.312308
1430, -15.131153, -10.278071, 5.243032
1431, 14.048161, -11.947161, 2.333970
1432, -20.350679, -4.466338, 5.432583
1433, 3.495321, -20.437866, 2.263103
1434, 13.507573, -0.498501, 5.219314
1435, -16.956226, 55.563496, 2.534851
1436, 9.180550, -12.117872, 5.289324
1437, -10.126610, 1.004708, 5.274992
1438, -16.900770, 45.632347, 2.376734
1439, -10.151112, 46.130562, 5.233488
1440, -12.399621, -16.352669, 2.567204
1441, -17.728271, 39.463791, 2.370594
1442, -18.572947, -7.502748, 5.223969
1443, 13.629593, -15.743811, 5.418540
1444, -20.885754, 15.422694, 2.333299
1445, -11.601566, -10.117080, 2.432494
1446, -16.318260, 49.810387, 5.387113
1447, 11.885462, -10.057331, 2.224338
1448, -4.837183, -12.604196, 5.428829
1449, 17.500105, -9.261424, 2.213907
1450, -16.063797, 45.411427, 5.281858
1451, -20.839132, 56.385254, 2.277220
1452, -9.849657, 7.252370, 5.549068
1453, -13.954704, 28.320408, 2.396719
1454, 7.834085, -19.287083, 2.689252
1455, 13.536684, -4.804443, 2.319610
1456, 0.464302, -17.143221, 2.250104
1457, -2.089600, -13.561361, 2.392603
1458, -19.104689, 0.186442, 2.285499
1459, -12.597394, -2.749134, 5.251396
1460, -9.877446, 56.568737, 5.503791

*ELEMENT, TYPE=C3D4, ELSET=ALL_ELEMENTS
1, 1048, 1228, 666, 1257
2, 1048, 666, 1228, 1281
3, 683, 1223, 1174, 1258
4, 584, 1200, 1179, 1276
5, 797, 1227, 1187, 1375
6, 1167, 754, 1305, 1318
7, 289, 1217, 1279, 1401
8, 925, 950, 430, 1460
9, 1125, 1187, 797, 1227
10, 532, 1229, 968, 1460
11, 133, 1177, 1201, 1349
12, 1192, 1238, 1224, 1341
13, 458, 1200, 1179, 1235
14, 1160, 1226, 1188, 1410
15, 1212, 1343, 463, 1419
16, 166, 1262, 1201, 1404
17, 1179, 1200, 584, 1235
18, 666, 1257, 1228, 1295
19, 576, 166, 1201, 1404
20, 1183, 1313, 840, 1329
21, 133, 1201, 1324, 1349
22, 683, 1174, 1223, 1270
23, 950, 1192, 430, 1290
24, 532, 555, 968, 1229
25, 950, 1290, 430, 1460
26, 133, 1201, 1177, 1321
27, 925, 1290, 950, 1460
28, 1093, 1188, 1160, 1226
29, 458, 1179, 1200, 1294
30, 584, 607, 1200, 1276
31, 285, 1380, 1215, 1395
32, 974, 1393, 1129, 1452
33, 619, 1192, 1224, 1341
34, 295, 1215, 486, 1242
35, 289, 621, 310, 1451
36, 1094, 1116, 1227, 1268
37, 619, 1238, 1192, 1341
38, 331, 289, 1217, 1279
39, 876, 1237, 1196, 1239
40, 658, 931, 971, 1229
41, 600, 1194, 1238, 1341
42, 285, 1215, 614, 1395
43, 285, 305, 614, 1215
44, 1174, 1239, 685, 1253
45, 325, 1215, 295, 1242
46, 939, 485, 1288, 1414
47, 1201, 1262, 1177, 1404
48, 1028, 1169, 1264, 1381
49, 1090, 1084, 1101, 1227
50, 1163, 1330, 1207, 1371
51, 939, 485, 1180, 1288
52, 1167, 1305, 1245, 1318
53, 1203, 1225, 907, 1374
54, 501, 1200, 458, 1235
55, 1227, 1268, 1116, 1364
56, 600, 1238, 1194, 1415
57, 1172, 1246, 848, 1274
58, 474, 1216, 1194, 1238
59, 229, 1205, 255, 1273
60, 486, 1242, 1215, 1366
61, 508, 1197, 282, 1275
62, 1048, 1228, 1071, 1281
63, 1116, 1268, 1254, 1364
64, 1080, 1226, 1100, 1254
65, 848, 1274, 1246, 1391
66, 289, 1279, 1362, 1401
67, 637, 1229, 546, 1428
68, 658, 971, 554, 1229
69, 673, 1186, 364, 1248
70, 1125, 1187, 1227, 1364
71, 1164, 1322, 1281, 1407
72, 896, 1176, 1228, 1257
73, 474, 1194, 1216, 1292
74, 166, 1177, 1262, 1404
75, 685, 1239, 1174, 1270
76, 1125, 1227, 1119, 1364
77, 133, 450, 1201, 1321
78, 876, 873, 1237, 1239
79, 1125, 1119, 1187, 1364
80, 577, 1234, 1201, 1247
81, 1048, 704, 666, 1281
82, 485, 1180, 1288, 1414
83, 285, 330, 305, 1215
84, 1167, 754, 1318, 1407
85, 1145, 1232, 1129, 1393
86, 871, 1183, 840, 1329
87, 619, 1224, 1192, 1387
88, 1167, 1164, 1312, 1407
89, 898, 1223, 1176, 1257
90, 1208, 1237, 873, 1239
91, 1090, 1227, 796, 1375
92, 434, 1200, 1199, 1370
93, 896, 1228, 1176, 1310
94, 275, 295, 325, 1215
95, 255, 1273, 1205, 1437
96, 441, 295, 275, 1215
97, 1197, 1275, 508, 1337
98, 1028, 1273, 1169, 1381
99, 756, 384, 353, 1248
100, 1077, 1188, 1093, 1226
101, 990, 1252, 1182, 1326
102, 990, 1169, 1252, 1326
103, 1165, 1246, 1274, 1391
104, 285, 330, 1215, 1380
105, 285, 1199, 1380, 1395
106, 907, 1225, 1203, 1320
107, 287, 293, 436, 1256
108, 285, 1199, 614, 1370
109, 450, 1201, 1321, 1411
110, 456, 501, 1235, 1340
111, 1205, 1273, 229, 1381
112, 1281, 1312, 1164, 1407
113, 289, 1362, 621, 1401
114, 1209, 1234, 568, 1242
115, 1055, 681, 1213, 1258
116, 1228, 1251, 1071, 1281
117, 1101, 1107, 1090, 1227
118, 430, 500, 925, 1460
119, 1226, 1254, 1080, 1360
120, 1094, 1254, 1116, 1268
121, 685, 1174, 683, 1270
122, 457, 1179, 1343, 1347
123, 305, 567, 1215, 1242
124, 717, 1059, 1213, 1244
125, 1107, 796, 1090, 1227
126, 352, 386, 418, 1166
127, 337, 317, 276, 1370
128, 1126, 1117, 1098, 1226
129, 305, 284, 567, 1242
130, 1182, 1252, 1169, 1326
131, 1188, 1226, 1077, 1360
132, 487, 1222, 1256, 1282
133, 1176, 687, 1257, 1270
134, 456, 501, 458, 1235
135, 1161, 1126, 1226, 1410
136, 575, 1234, 1247, 1395
137, 620, 1214, 544, 1243
138, 570, 931, 658, 1229
139, 1034, 1330, 1163, 1371
140, 1029, 1250, 1140, 1262
141, 334, 1200, 322, 1418
142, 468, 1218, 1180, 1414
143, 523, 430, 1192, 1290
144, 1240, 1301, 810, 1345
145, 1207, 1250, 1033, 1330
146, 462, 463, 1212, 1343
147, 1040, 1317, 1163, 1330
148, 285, 614, 1199, 1395
149, 334, 520, 1200, 1418
150, 939, 1288, 967, 1414
151, 600, 1238, 602, 1341
152, 282, 293, 324, 1197
153, 1153, 1044, 229, 1273
154, 508, 1337, 1275, 1403
155, 577, 1247, 1201, 1355
156, 1161, 1126, 1110, 1226
157, 1034, 1207, 1330, 1371
158, 898, 1176, 896, 1257
159, 1126, 1098, 1110, 1226
160, 587, 1296, 1184, 1309
161, 1050, 1223, 667, 1258
162, 848, 1246, 1172, 1400
163, 1220, 1313, 1183, 1329
164, 1200, 1235, 501, 1340
165, 1254, 1268, 1080, 1360
166, 1055, 1059, 1066, 1213
167, 666, 1228, 1281, 1295
168, 692, 1172, 1230, 1323
169, 900, 1073, 1205, 1383
170, 139, 1241, 301, 1389
171, 496, 1256, 1197, 1282
172, 293, 1197, 496, 1256
173, 457, 1179, 459, 1343
174, 493, 1224, 1192, 1238
175, 1219, 1315, 20, 1458
176, 493, 1192, 1224, 1267
177, 229, 255, 1153, 1273
178, 810, 1205, 1240, 1329
179, 764, 1223, 1050, 1257
180, 819, 1365, 1174, 1456
181, 810, 1240, 1205, 1381
182, 1182, 1264, 1169, 1381
183, 1192, 1238, 619, 1420
184, 900, 1205, 1329, 1383
185, 683, 1174, 682, 1258
186, 627, 1199, 1235, 1370
187, 1220, 1329, 1183, 1384
188, 627, 1235, 1199, 1338
189, 483, 1224, 1214, 1267
190, 575, 1234, 577, 1247
191, 508, 1275, 282, 1403
192, 483, 1416, 1224, 1417
193, 673, 741, 364, 1186
194, 577, 1338, 1247, 1355
195, 501, 1199, 434, 1200
196, 1034, 1207, 1033, 1330
197, 869, 1221, 1367, 1396
198, 1211, 1231, 864, 1445
199, 1040, 169, 1317, 1330
200, 1116, 1254, 1122, 1364
201, 458, 1235, 1179, 1347
202, 1175, 1244, 837, 1378
203, 968, 555, 952, 1229
204, 1140, 1262, 1250, 1349
205, 1166, 1286, 352, 1424
206, 862, 907, 1225, 1374
207, 855, 1392, 1230, 1400
208, 1199, 1200, 501, 1340
209, 502, 1200, 434, 1370
210, 682, 683, 685, 1174
211, 133, 1201, 438, 1324
212, 1162, 1241, 972, 1389
213, 352, 729, 386, 1166
214, 1100, 1083, 1095, 1226
215, 1206, 1240, 810, 1345
216, 1059, 765, 1053, 1260
217, 487, 519, 1178, 1282
218, 1100, 1080, 1083, 1226
219, 1029, 1177, 1250, 1262
220, 566, 1387, 1229, 1428
221, 456, 1235, 458, 1347
222, 553, 1243, 545, 1409
223, 1207, 1255, 1250, 1330
224, 1059, 1066, 1213, 1244
225, 1216, 1238, 606, 1415
226, 939, 967, 942, 1414
227, 1177, 1262, 1201, 1349
228, 337, 276, 434, 1370
229, 685, 1239, 690, 1253
230, 418, 352, 1166, 1286
231, 502, 276, 1200, 1370
232, 564, 576, 166, 1201
233, 483, 1214, 1224, 1416
234, 133, 450, 438, 1201
235, 968, 1229, 952, 1460
236, 896, 913, 1228, 1310
237, 1179, 1235, 584, 1309
238, 1017, 229, 1273, 1381
239, 1177, 1349, 1000, 1356
240, 564, 1201, 166, 1262
241, 1050, 1223, 1069, 1257
242, 583, 584, 1235, 1309
243, 1262, 1324, 1201, 1349
244, 542, 549, 544, 1214
245, 565, 621, 1401, 1451
246, 600, 606, 1238, 1415
247, 1116, 1118, 1102, 1227
248, 984, 1326, 1182, 1354
249, 324, 282, 1197, 1275
250, 983, 990, 1182, 1326
251, 1204, 1265, 734, 1280
252, 855, 1196, 1230, 1392
253, 621, 565, 310, 1451
254, 1177, 1000, 1255, 1356
255, 1073, 1062, 1051, 1220
256, 1202, 1265, 1204, 1280
257, 821, 1176, 898, 1223
258, 353, 417, 1211, 1248
259, 855, 1230, 1196, 1454
260, 1193, 1343, 1179, 1347
261, 1184, 1343, 1212, 1419
262, 620, 542, 544, 1214
263, 619, 1192, 610, 1387
264, 803, 1198, 390, 1357
265, 487, 1256, 436, 1282
266, 984, 1182, 1339, 1354
267, 457, 1343, 1193, 1347
268, 907, 1320, 1203, 1373
269, 846, 1231, 1186, 1320
270, 755, 1167, 754, 1305
271, 305, 567, 614, 1215
272, 575, 1247, 578, 1395
273, 667, 1223, 683, 1258
274, 282, 496, 293, 1197
275, 968, 952, 938, 1460
276, 729, 1166, 352, 1424
277, 468, 1180, 1218, 1369
278, 462, 463, 498, 1212
279, 19, 1219, 20, 1458
280, 810, 1240, 1206, 1329
281, 304, 1199, 285, 1370
282, 584, 1200, 627, 1235
283, 584, 607, 627, 1200
284, 1167, 1318, 1202, 1407
285, 458, 1179, 457, 1347
286, 1245, 1431, 1167, 1449
287, 531, 553, 545, 1409
288, 1218, 1288, 1180, 1414
289, 273, 1219, 1263, 1354
290, 990, 982, 1182, 1252
291, 390, 362, 884, 1357
292, 1202, 734, 1265, 1280
293, 870, 810, 1301, 1345
294, 725, 1208, 1253, 1327
295, 794, 796, 1096, 1227
296, 952, 554, 971, 1229
297, 1175, 837, 1313, 1378
298, 1102, 1094, 1116, 1227
299, 1088, 1080, 1268, 1360
300, 1030, 1207, 1135, 1250
301, 1059, 1244, 765, 1260
302, 487, 1178, 1222, 1282
303, 1080, 1254, 1100, 1268
304, 19, 20, 1315, 1458
305, 744, 692, 1172, 1230
306, 983, 1182, 984, 1326
307, 952, 971, 931, 1229
308, 848, 1391, 1246, 1400
309, 520, 1294, 1200, 1418
310, 227, 810, 1240, 1301
311, 487, 1222, 436, 1256
312, 819, 1174, 825, 1456
313, 809, 1303, 1221, 1396
314, 797, 1187, 793, 1375
315, 944, 492, 928, 1233
316, 587, 1309, 1184, 1348
317, 1175, 698, 1302, 1425
318, 293, 496, 436, 1256
319, 1176, 1223, 821, 1359
320, 296, 1263, 173, 1386
321, 519, 466, 487, 1178
322, 685, 751, 1174, 1253
323, 825, 1174, 819, 1457
324, 550, 1214, 539, 1416
325, 353, 384, 417, 1248
326, 496, 282, 508, 1197
327, 301, 1241, 329, 1389
328, 485, 468, 1180, 1414
329, 584, 1179, 586, 1276
330, 276, 322, 334, 1200
331, 851, 1070, 1066, 1306
332, 449, 1215, 1247, 1411
333, 459, 457, 458, 1179
334, 532, 511, 555, 1229
335, 764, 667, 1050, 1223
336, 944, 443, 492, 1233
337, 975, 984, 1182, 1339
338, 707, 1312, 1281, 1407
339, 314, 1219, 273, 1354
340, 1065, 1223, 1056, 1306
341, 939, 942, 485, 1414
342, 492, 928, 1233, 1332
343, 449, 1366, 1215, 1411
344, 735, 1271, 1204, 1280
345, 1101, 1227, 1084, 1268
346, 1051, 1073, 1220, 1383
347, 486, 295, 441, 1215
348, 287, 436, 1222, 1256
349, 764, 1223, 1257, 1270
350, 487, 1222, 1178, 1266
351, 845, 1231, 846, 1320
352, 655, 1214, 620, 1243
353, 1225, 1286, 862, 1374
354, 983, 990, 982, 1182
355, 465, 1178, 1369, 1419
356, 353, 1211, 677, 1248
357, 871, 840, 1183, 1382
358, 255, 900, 1073, 1205
359, 1204, 1271, 718, 1289
360, 547, 555, 511, 1229
361, 614, 1199, 560, 1370
362, 878, 1172, 1392, 1400
363, 756, 353, 677, 1248
364, 285, 614, 560, 1370
365, 851, 1066, 1213, 1306
366, 574, 568, 1234, 1242
367, 583, 1309, 1235, 1453
368, 520, 502, 334, 1200
369, 764, 1257, 687, 1270
370, 888, 1287, 1167, 1449
371, 1237, 1239, 1208, 1327
372, 1196, 1239, 1237, 1327
373, 1230, 1392, 1172, 1400
374, 456, 1340, 1235, 1347
375, 206, 1271, 1187, 1289
376, 230, 125, 1125, 1187
377, 1249, 1328, 1251, 1455
378, 1098, 1226, 1117, 1254
379, 606, 1238, 1216, 1420
380, 821, 896, 898, 1176
381, 869, 809, 1221, 1396
382, 900, 895, 1220, 1329
383, 1049, 1213, 1066, 1244
384, 744, 1246, 1172, 1421
385, 1049, 851, 1066, 1213
386, 1281, 1322, 1189, 1407
387, 1249, 1251, 854, 1455
388, 502, 434, 276, 1370
389, 1055, 717, 1059, 1213
390, 685, 690, 1239, 1270
391, 938, 532, 968, 1460
392, 544, 1214, 550, 1243
393, 1004, 1162, 972, 1389
394, 285, 1199, 304, 1380
395, 869, 1221, 809, 1367
396, 550, 1243, 1214, 1416
397, 754, 1167, 709, 1407
398, 362, 394, 811, 1357
399, 227, 870, 810, 1301
400, 956, 1180, 939, 1439
401, 717, 765, 1244, 1425
402, 704, 1251, 1058, 1328
403, 744, 1230, 1172, 1246
404, 466, 487, 1178, 1266
405, 666, 1281, 779, 1295
406, 566, 637, 546, 1428
407, 596, 1180, 651, 1415
408, 1169, 1273, 1252, 1381
409, 697, 1175, 698, 1283
410, 539, 545, 550, 1416
411, 138, 1241, 139, 1389
412, 492, 1332, 1233, 1412
413, 1204, 1367, 1221, 1396
414, 1164, 1281, 789, 1312
415, 292, 301, 329, 1389
416, 338, 314, 273, 1354
417, 1107, 1096, 796, 1227
418, 833, 1167, 888, 1287
419, 566, 1214, 1387, 1428
420, 1302, 1344, 1186, 1350
421, 1251, 1328, 1189, 1455
422, 855, 1400, 1230, 1454
423, 1117, 1363, 1226, 1410
424, 546, 542, 566, 1428
425, 230, 125, 1187, 1377
426, 329, 1241, 1269, 1389
427, 1029, 1177, 1038, 1250
428, 1160, 1188, 1093, 1376
429, 273, 1263, 338, 1354
430, 481, 1200, 520, 1294
431, 1202, 1318, 754, 1407
432, 877, 864, 1231, 1445
433, 933, 569, 1233, 1261
434, 584, 586, 607, 1276
435, 394, 1211, 811, 1357
436, 534, 1238, 1192, 1285
437, 1004, 1300, 1162, 1389
438, 1215, 1234, 643, 1395
439, 1125, 125, 797, 1187
440, 1020, 1028, 1264, 1381
441, 1177, 1250, 1349, 1356
442, 1123, 1227, 1116, 1364
443, 166, 1177, 1029, 1262
444, 1195, 1301, 1240, 1345
445, 712, 1344, 1302, 1350
446, 296, 173, 172, 1386
447, 711, 1248, 1231, 1302
448, 958, 1212, 948, 1259
449, 843, 1244, 1190, 1373
450, 284, 612, 567, 1242
451, 835, 1062, 1220, 1378
452, 1054, 1223, 898, 1257
453, 1169, 1252, 1182, 1381
454, 296, 1269, 1241, 1386
455, 291, 173, 296, 1263
456, 576, 1201, 1234, 1404
457, 532, 511, 1229, 1460
458, 835, 900, 895, 1220
459, 273, 1219, 313, 1263
460, 337, 304, 1199, 1380
461, 566, 1229, 637, 1428
462, 619, 602, 1238, 1341
463, 449, 1215, 517, 1247
464, 855, 1196, 1237, 1454
465, 465, 1266, 1178, 1419
466, 882, 864, 1211, 1231
467, 1165, 1246, 1172, 1274
468, 825, 1456, 1174, 1457
469, 845, 1231, 1320, 1406
470, 545, 1243, 550, 1416
471, 1241, 1263, 296, 1386
472, 561, 1173, 277, 1276
473, 830, 854, 1251, 1455
474, 568, 573, 1209, 1242
475, 1055, 681, 717, 1213
476, 748, 711, 1231, 1283
477, 851, 1213, 1049, 1244
478, 554, 637, 658, 1229
479, 855, 878, 1392, 1400
480, 542, 549, 1214, 1428
481, 871, 842, 840, 1382
482, 1184, 1212, 1296, 1419
483, 848, 917, 1274, 1391
484, 337, 1199, 304, 1370
485, 1286, 1374, 1225, 1388
486, 206, 718, 1271, 1289
487, 254, 1188, 1160, 1376
488, 851, 1049, 1066, 1070
489, 649, 610, 1192, 1387
490, 1208, 1239, 873, 1456
491, 627, 1235, 1200, 1370
492, 983, 975, 984, 1182
493, 1223, 1258, 1056, 1306
494, 600, 606, 602, 1238
495, 561, 277, 1173, 1284
496, 532, 444, 511, 1460
497, 1174, 1365, 1239, 1456
498, 1225, 1374, 1203, 1388
499, 748, 1231, 1248, 1283
500, 554, 546, 637, 1229
501, 556, 1192, 934, 1290
502, 587, 588, 1296, 1309
503, 649, 1192, 1290, 1387
504, 337, 434, 1199, 1370
505, 707, 789, 1281, 1312
506, 553, 343, 1243, 1409
507, 138, 972, 1241, 1389
508, 466, 1178, 465, 1266
509, 293, 287, 326, 1256
510, 896, 1228, 850, 1257
511, 578, 575, 577, 1247
512, 939, 1180, 485, 1439
513, 1038, 1250, 1177, 1330
514, 1005, 1007, 1001, 1241
515, 884, 803, 390, 1357
516, 1163, 1330, 1317, 1405
517, 1020, 1264, 1182, 1381
518, 166, 1038, 1029, 1177
519, 1089, 1227, 1084, 1375
520, 1039, 172, 173, 1386
521, 1061, 764, 1050, 1257
522, 801, 1223, 1065, 1306
523, 772, 1186, 673, 1248
524, 596, 1236, 1180, 1415
525, 545, 1243, 445, 1409
526, 920, 1345, 1210, 1382
527, 1157, 1161, 1103, 1226
528, 735, 733, 1271, 1280
529, 458, 1200, 481, 1294
530, 569, 933, 1233, 1351
531, 781, 1166, 790, 1333
532, 924, 1166, 915, 1334
533, 1171, 1352, 297, 1389
534, 438, 1201, 450, 1411
535, 574, 1234, 1215, 1242
536, 140, 978, 278, 1241
537, 227, 1301, 1240, 1381
538, 324, 1197, 286, 1275
539, 927, 1216, 961, 1420
540, 717, 765, 1059, 1244
541, 1259, 1296, 1212, 1419
542, 622, 286, 1197, 1275
543, 837, 1244, 1175, 1406
544, 1224, 1416, 1214, 1435
545, 614, 1215, 567, 1395
546, 900, 255, 229, 1205
547, 606, 619, 1238, 1420
548, 379, 774, 1265, 1318
549, 293, 326, 1197, 1256
550, 494, 539, 1214, 1416
551, 493, 1192, 534, 1238
552, 483, 1214, 515, 1267
553, 173, 1263, 1039, 1386
554, 278, 1241, 978, 1354
555, 1247, 1338, 1168, 1355
556, 578, 1247, 577, 1338
557, 802, 360, 1286, 1293
558, 1317, 1330, 169, 1405
559, 1019, 313, 1219, 1263
560, 906, 1186, 1231, 1440
561, 1160, 1188, 1156, 1410
562, 1165, 1274, 917, 1391
563, 1233, 1261, 569, 1355
564, 1093, 1188, 209, 1376
565, 687, 762, 1176, 1257
566, 1087, 1226, 1080, 1360
567, 725, 1253, 690, 1327
568, 878, 848, 1172, 1400
569, 716, 1048, 666, 1257
570, 692, 1230, 721, 1323
571, 878, 1172, 826, 1392
572, 1163, 1255, 1207, 1330
573, 228, 810, 1205, 1381
574, 255, 1205, 1073, 1383
575, 296, 172, 1269, 1386
576, 655, 1214, 1243, 1435
577, 716, 1257, 666, 1295
578, 531, 545, 445, 1409
579, 277, 1173, 300, 1276
580, 725, 1253, 1208, 1333
581, 619, 649, 610, 1192
582, 777, 392, 1230, 1246
583, 931, 1229, 570, 1290
584, 1211, 864, 1308, 1445
585, 386, 1166, 781, 1333
586, 915, 1166, 387, 1334
587, 704, 1281, 1251, 1328
588, 1211, 1248, 1231, 1283
589, 568, 1234, 1209, 1404
590, 1061, 1050, 1069, 1257
591, 578, 1247, 1338, 1395
592, 542, 1214, 566, 1428
593, 1089, 1084, 1227, 1268
594, 493, 1224, 484, 1267
595, 1064, 1058, 1251, 1328
596, 627, 1199, 629, 1338
597, 950, 430, 1192, 1285
598, 1225, 1186, 1344, 1350
599, 303, 304, 285, 1370
600, 1228, 1295, 1176, 1310
601, 1128, 1030, 1135, 1250
602, 1175, 1260, 1244, 1378
603, 1177, 1255, 1250, 1356
604, 1020, 1021, 1182, 1264
605, 227, 1240, 810, 1381
606, 1210, 1372, 920, 1382
607, 1200, 1276, 322, 1418
608, 474, 480, 1216, 1238
609, 701, 1272, 1183, 1430
610, 1204, 1271, 1221, 1280
611, 517, 1215, 449, 1366
612, 465, 1178, 467, 1369
613, 1250, 1262, 1177, 1349
614, 1221, 1249, 905, 1455
615, 748, 1248, 1211, 1283
616, 734, 735, 1204, 1280
617, 295, 1242, 486, 1352
618, 1110, 1103, 1161, 1226
619, 658, 637, 570, 1229
620, 830, 1251, 1189, 1455
621, 913, 865, 923, 1322
622, 576, 1201, 577, 1234
623, 337, 304, 317, 1370
624, 1232, 1145, 1325, 1393
625, 855, 1196, 876, 1237
626, 952, 555, 540, 1229
627, 884, 1198, 803, 1357
628, 802, 1286, 1225, 1293
629, 748, 1231, 711, 1248
630, 323, 296, 1241, 1263
631, 721, 1327, 1196, 1361
632, 764, 683, 667, 1223
633, 1176, 1257, 1223, 1270
634, 1135, 1207, 1136, 1250
635, 1186, 1225, 1320, 1350
636, 1161, 1120, 1126, 1410
637, 1234, 1215, 1366, 1411
638, 1252, 1273, 1205, 1381
639, 393, 1210, 814, 1278
640, 895, 840, 1313, 1329
641, 1192, 1267, 523, 1290
642, 126, 205, 1187, 1289
643, 569, 1351, 1233, 1355
644, 1190, 1244, 843, 1406
645, 1217, 1416, 482, 1417
646, 712, 713, 1344, 1350
647, 19, 273, 20, 1219
648, 816, 1223, 1306, 1365
649, 494, 1214, 539, 1428
650, 896, 865, 913, 1310
651, 575, 643, 1234, 1395
652, 586, 1276, 1179, 1348
653, 313, 273, 341, 1219
654, 1163, 1317, 1171, 1405
655, 556, 934, 1192, 1420
656, 685, 691, 751, 1253
657, 1096, 1107, 1101, 1227
658, 492, 1233, 443, 1412
659, 717, 763, 765, 1425
660, 711, 772, 1248, 1302
661, 833, 889, 888, 1167
662, 709, 754, 755, 1167
663, 751, 1174, 1253, 1353
664, 925, 960, 950, 1290
665, 1125, 1113, 1119, 1227
666, 700, 701, 1183, 1430
667, 539, 445, 545, 1416
668, 306, 288, 1222, 1358
669, 276, 334, 502, 1200
670, 327, 287, 1222, 1256
671, 1219, 1339, 1182, 1354
672, 303, 285, 560, 1370
673, 523, 1290, 1267, 1460
674, 138, 139, 537, 1389
675, 1160, 1086, 1093, 1226
676, 1218, 1369, 1178, 1419
677, 1066, 1055, 1213, 1258
678, 296, 329, 1241, 1269
679, 474, 1216, 491, 1292
680, 540, 555, 547, 1229
681, 300, 1276, 1173, 1418
682, 629, 1199, 627, 1370
683, 1020, 1028, 1021, 1264
684, 274, 1243, 343, 1409
685, 228, 1205, 229, 1381
686, 1225, 1286, 399, 1293
687, 800, 1060, 1228, 1251
688, 477, 1197, 508, 1337
689, 684, 1213, 681, 1258
690, 360, 399, 1286, 1293
691, 234, 1188, 253, 1249
692, 883, 905, 1249, 1455
693, 1305, 1402, 368, 1443
694, 487, 436, 497, 1282
695, 972, 1241, 1162, 1297
696, 1106, 1094, 1227, 1268
697, 542, 620, 566, 1214
698, 502, 501, 434, 1200
699, 550, 549, 539, 1214
700, 550, 544, 549, 1214
701, 748, 743, 711, 1283
702, 895, 1313, 1220, 1329
703, 764, 683, 1223, 1270
704, 1234, 1247, 1215, 1411
705, 960, 1192, 950, 1290
706, 1184, 463, 1343, 1419
707, 253, 1188, 234, 1410
708, 1054, 1228, 1068, 1257
709, 1253, 1174, 1456, 1457
710, 718, 1204, 735, 1271
711, 747, 789, 707, 1312
712, 1221, 1271, 1204, 1396
713, 753, 1265, 774, 1318
714, 796, 1227, 792, 1375
715, 1239, 1253, 1208, 1327
716, 274, 553, 343, 1243
717, 517, 1247, 1215, 1380
718, 643, 1215, 574, 1234
719, 837, 843, 1244, 1406
720, 1000, 134, 1177, 1255
721, 536, 1247, 1199, 1340
722, 573, 1209, 1242, 1405
723, 905, 1249, 1221, 1303
724, 713, 732, 1344, 1350
725, 1038, 1330, 1177, 1404
726, 1004, 997, 972, 1162
727, 690, 1253, 1239, 1327
728, 1209, 1234, 1242, 1366
729, 850, 1228, 1054, 1257
730, 1198, 884, 1308, 1357
731, 600, 602, 601, 1341
732, 254, 1160, 209, 1376
733, 741, 673, 772, 1186
734, 387, 915, 863, 1166
735, 781, 386, 729, 1166
736, 1161, 1226, 1155, 1410
737, 982, 1240, 1182, 1252
738, 817, 1223, 816, 1365
739, 306, 327, 287, 1222
740, 503, 1199, 501, 1340
741, 1162, 1269, 1241, 1389
742, 1232, 1371, 1041, 1427
743, 457, 489, 1193, 1343
744, 126, 1187, 205, 1375
745, 540, 554, 952, 1229
746, 1182, 1240, 982, 1339
747, 306, 288, 328, 1222
748, 1180, 1319, 651, 1415
749, 467, 465, 466, 1178
750, 342, 273, 314, 1219
751, 754, 710, 1202, 1407
752, 1164, 1295, 1228, 1310
753, 883, 1249, 854, 1455
754, 337, 1199, 434, 1380
755, 19, 1315, 1278, 1458
756, 341, 1219, 19, 1458
757, 1100, 1226, 1105, 1254
758, 721, 1230, 1196, 1323
759, 882, 877, 864, 1231
760, 1167, 1245, 1202, 1318
761, 810, 228, 1205, 1329
762, 200, 20, 1219, 1315
763, 1125, 797, 791, 1227
764, 744, 714, 1246, 1421
765, 362, 811, 884, 1357
766, 602, 606, 619, 1238
767, 328, 1222, 288, 1358
768, 1068, 1228, 1048, 1257
769, 536, 1199, 1247, 1380
770, 614, 662, 1199, 1395
771, 1065, 1054, 1069, 1223
772, 1219, 1354, 1182, 1398
773, 313, 341, 1019, 1219
774, 889, 1431, 1245, 1449
775, 1200, 1235, 1199, 1370
776, 876, 1239, 1196, 1359
777, 631, 1229, 566, 1387
778, 1065, 898, 1054, 1223
779, 574, 1215, 567, 1242
780, 694, 1220, 1063, 1260
781, 1211, 1308, 884, 1357
782, 138, 972, 139, 1241
783, 981, 1219, 314, 1354
784, 1089, 1227, 1375, 1408
785, 914, 862, 907, 1225
786, 848, 826, 878, 1172
787, 1007, 1241, 1170, 1354
788, 641, 566, 1214, 1387
789, 1164, 1167, 1312, 1447
790, 1075, 1058, 1064, 1328
791, 816, 1223, 801, 1306
792, 295, 332, 1242, 1352
793, 458, 501, 481, 1200
794, 855, 876, 880, 1237
795, 830, 883, 854, 1455
796, 279, 1222, 647, 1256
797, 980, 1000, 1349, 1356
798, 1196, 1230, 721, 1361
799, 1015, 1033, 1250, 1330
800, 1171, 1269, 170, 1317
801, 528, 490, 498, 1259
802, 486, 1352, 1242, 1366
803, 561, 1173, 664, 1284
804, 233, 1188, 234, 1249
805, 520, 481, 502, 1200
806, 1040, 1014, 1163, 1317
807, 553, 274, 541, 1243
808, 1059, 1067, 1066, 1244
809, 797, 791, 1227, 1375
810, 1203, 1320, 1225, 1350
811, 233, 1188, 1249, 1303
812, 399, 1286, 1225, 1424
813, 1267, 1290, 1192, 1387
814, 134, 1177, 1255, 1321
815, 170, 1269, 1171, 1444
816, 1215, 1242, 1234, 1366
817, 1160, 1093, 209, 1376
818, 708, 1280, 1189, 1328
819, 1232, 1325, 1277, 1393
820, 1186, 1320, 1302, 1350
821, 486, 1215, 448, 1366
822, 742, 688, 1196, 1270
823, 811, 1211, 884, 1357
824, 393, 814, 1210, 1372
825, 387, 1166, 863, 1286
826, 517, 536, 1247, 1380
827, 483, 482, 1416, 1417
828, 254, 1156, 1160, 1188
829, 1168, 1201, 1355, 1429
830, 1028, 1017, 1273, 1381
831, 1060, 1068, 1054, 1228
832, 140, 1001, 978, 1241
833, 392, 367, 777, 1230
834, 553, 531, 343, 1409
835, 793, 797, 125, 1187
836, 401, 368, 1402, 1443
837, 792, 796, 794, 1227
838, 1202, 1245, 1167, 1449
839, 293, 326, 324, 1197
840, 1069, 1223, 1054, 1257
841, 278, 1263, 1241, 1354
842, 200, 20, 342, 1219
843, 712, 713, 732, 1344
844, 1131, 980, 1349, 1356
845, 882, 1231, 1211, 1385
846, 754, 758, 1305, 1318
847, 809, 1367, 1221, 1455
848, 1050, 1069, 1223, 1258
849, 461, 1184, 463, 1343
850, 648, 569, 1261, 1355
851, 1033, 1207, 1030, 1250
852, 561, 652, 664, 1173
853, 1142, 1273, 255, 1437
854, 342, 314, 981, 1219
855, 1235, 1309, 1193, 1453
856, 137, 1171, 527, 1300
857, 540, 546, 554, 1229
858, 825, 819, 885, 1457
859, 1206, 1329, 1240, 1459
860, 230, 1125, 1119, 1187
861, 721, 746, 1327, 1361
862, 1193, 1235, 1179, 1309
863, 585, 1179, 584, 1309
864, 429, 1278, 922, 1458
865, 1225, 1344, 732, 1350
866, 622, 309, 286, 1275
867, 1034, 1033, 1207, 1371
868, 279, 562, 294, 1256
869, 799, 837, 1244, 1378
870, 1125, 791, 1113, 1227
871, 736, 1240, 1195, 1339
872, 817, 801, 816, 1223
873, 1240, 1329, 1205, 1459
874, 351, 1198, 669, 1357
875, 279, 327, 1222, 1256
876, 799, 1244, 1057, 1378
877, 781, 729, 790, 1166
878, 924, 863, 915, 1166
879, 708, 749, 1280, 1328
880, 1170, 1299, 1045, 1386
881, 286, 1197, 326, 1256
882, 1196, 742, 1270, 1327
883, 843, 897, 1244, 1373
884, 1089, 1268, 1227, 1408
885, 827, 826, 1172, 1310
886, 1212, 1259, 958, 1423
887, 1121, 1363, 1117, 1410
888, 406, 1318, 379, 1331
889, 873, 1237, 1208, 1433
890, 1135, 1207, 1030, 1325
891, 568, 574, 573, 1242
892, 664, 1173, 652, 1348
893, 1199, 1235, 1200, 1340
894, 479, 1224, 493, 1238
895, 375, 1208, 405, 1333
896, 333, 1173, 1358, 1418
897, 1171, 1163, 1405, 1413
898, 485, 942, 514, 1414
899, 1038, 1015, 1250, 1330
900, 1077, 209, 1093, 1188
901, 1056, 1223, 1069, 1258
902, 379, 1318, 1265, 1331
903, 1128, 1018, 1030, 1250
904, 1026, 1041, 1371, 1427
905, 917, 1274, 1165, 1431
906, 837, 838, 839, 1175
907, 698, 697, 696, 1175
908, 850, 898, 896, 1257
909, 324, 326, 286, 1197
910, 1225, 1344, 399, 1424
911, 1184, 1296, 1212, 1309
912, 278, 978, 314, 1354
913, 539, 1214, 549, 1428
914, 1142, 1153, 255, 1273
915, 583, 585, 584, 1309
916, 743, 697, 698, 1283
917, 905, 233, 1249, 1303
918, 706, 1281, 704, 1328
919, 333, 1358, 315, 1418
920, 691, 685, 690, 1253
921, 512, 297, 1352, 1389
922, 1201, 1177, 1321, 1404
923, 1108, 795, 794, 1227
924, 926, 611, 1288, 1319
925, 1184, 1309, 1343, 1348
926, 233, 234, 905, 1249
927, 322, 1200, 290, 1276
928, 1050, 1056, 1069, 1258
929, 286, 622, 1197, 1256
930, 782, 1204, 718, 1289
931, 347, 770, 382, 1265
932, 297, 1171, 321, 1444
933, 1095, 1105, 1100, 1226
934, 312, 639, 1243, 1451
935, 323, 291, 296, 1263
936, 997, 1162, 1004, 1300
937, 736, 1195, 1240, 1346
938, 938, 444, 532, 1460
939, 135, 1321, 1255, 1413
940, 429, 19, 1278, 1458
941, 797, 793, 791, 1375
942, 927, 642, 1216, 1420
943, 803, 390, 1198, 1372
944, 571, 620, 544, 1243
945, 744, 721, 692, 1230
946, 751, 682, 685, 1174
947, 1196, 1230, 1172, 1323
948, 1122, 1254, 1191, 1364
949, 648, 1355, 1261, 1453
950, 402, 405, 375, 1208
951, 1019, 1219, 341, 1458
952, 958, 1212, 1291, 1390
953, 652, 1173, 561, 1276
954, 685, 686, 690, 1270
955, 351, 669, 1198, 1442
956, 770, 382, 1265, 1289
957, 468, 1369, 1218, 1419
958, 939, 431, 935, 1439
959, 1213, 1244, 897, 1373
960, 734, 733, 735, 1280
961, 333, 300, 277, 1173
962, 800, 1228, 829, 1251
963, 1186, 1293, 425, 1440
964, 980, 1000, 991, 1349
965, 850, 1054, 898, 1257
966, 865, 881, 923, 1447
967, 643, 574, 575, 1234
968, 596, 651, 598, 1415
969, 341, 273, 19, 1219
970, 1098, 1103, 1110, 1226
971, 474, 1238, 1194, 1446
972, 483, 484, 1224, 1267
973, 309, 324, 286, 1275
974, 490, 1212, 498, 1259
975, 997, 972, 1162, 1297
976, 918, 812, 373, 1237
977, 969, 510, 443, 1324
978, 1201, 1321, 1234, 1404
979, 1225, 1293, 399, 1344
980, 1066, 1258, 1213, 1306
981, 690, 1239, 1270, 1327
982, 368, 401, 371, 1443
983, 390, 408, 409, 1198
984, 351, 409, 408, 1198
985, 695, 1220, 694, 1260
986, 772, 1186, 1248, 1302
987, 468, 465, 1369, 1419
988, 990, 1169, 1326, 1399
989, 657, 312, 639, 1243
990, 579, 1338, 577, 1355
991, 985, 1170, 1007, 1297
992, 907, 847, 1320, 1373
993, 548, 571, 544, 1243
994, 333, 1173, 277, 1284
995, 876, 824, 873, 1239
996, 1017, 228, 229, 1381
997, 1102, 1106, 1094, 1227
998, 1002, 1413, 1255, 1422
999, 1158, 1157, 1109, 1226
1000, 283, 1217, 439, 1279
1001, 300, 1173, 333, 1418
1002, 1208, 1333, 375, 1397
1003, 1116, 1123, 1118, 1227
1004, 1045, 1170, 1023, 1299
1005, 290, 1200, 628, 1276
1006, 928, 965, 1233, 1332
1007, 1172, 1274, 827, 1310
1008, 589, 1184, 587, 1296
1009, 1083, 1080, 1087, 1226
1010, 547, 1229, 511, 1428
1011, 1184, 1309, 1212, 1343
1012, 990, 1009, 1252, 1316
1013, 675, 735, 733, 1271
1014, 1005, 1241, 972, 1297
1015, 657, 340, 312, 1243
1016, 1010, 1317, 1269, 1386
1017, 20, 273, 342, 1219
1018, 776, 1305, 1165, 1421
1019, 1077, 1093, 1086, 1226
1020, 402, 1208, 375, 1397
1021, 1028, 1047, 1169, 1273
1022, 811, 1211, 394, 1385
1023, 504, 526, 538, 1173
1024, 614, 662, 560, 1199
1025, 390, 1198, 409, 1357
1026, 526, 538, 1173, 1418
1027, 990, 1252, 1169, 1316
1028, 1211, 1248, 417, 1385
1029, 855, 1237, 880, 1454
1030, 534, 1192, 430, 1285
1031, 1108, 794, 1096, 1227
1032, 1179, 1343, 1309, 1348
1033, 708, 1189, 706, 1328
1034, 556, 934, 951, 1290
1035, 734, 1202, 710, 1280
1036, 596, 598, 1236, 1415
1037, 386, 403, 1166, 1333
1038, 403, 387, 1166, 1334
1039, 1201, 1247, 1168, 1355
1040, 435, 315, 1358, 1418
1041, 1168, 1247, 1201, 1429
1042, 1180, 1288, 611, 1319
1043, 501, 503, 434, 1199
1044, 546, 551, 542, 1428
1045, 387, 418, 1166, 1286
1046, 1205, 1240, 203, 1252
1047, 200, 1315, 1219, 1339
1048, 816, 1174, 819, 1365
1049, 1203, 1320, 1350, 1373
1050, 1169, 1264, 1182, 1326
1051, 1160, 1154, 1226, 1410
1052, 1064, 1251, 1249, 1328
1053, 1140, 1250, 1144, 1349
1054, 1168, 1355, 580, 1453
1055, 927, 961, 940, 1420
1056, 744, 777, 1230, 1246
1057, 493, 479, 484, 1224
1058, 1253, 1456, 1374, 1457
1059, 1063, 1220, 694, 1383
1060, 515, 1267, 1214, 1428
1061, 697, 1175, 1283, 1314
1062, 623, 1197, 1256, 1394
1063, 1060, 1054, 850, 1228
1064, 1124, 795, 1108, 1227
1065, 721, 742, 1196, 1327
1066, 824, 873, 1239, 1456
1067, 295, 281, 332, 1352
1068, 856, 1198, 884, 1308
1069, 1224, 1238, 479, 1417
1070, 1108, 1102, 1118, 1227
1071, 987, 1326, 1297, 1399
1072, 297, 321, 1171, 1389
1073, 934, 962, 960, 1192
1074, 962, 950, 960, 1192
1075, 619, 1224, 605, 1341
1076, 958, 1291, 959, 1390
1077, 1269, 1317, 1162, 1386
1078, 468, 470, 1180, 1369
1079, 706, 1189, 707, 1281
1080, 1101, 1084, 1082, 1268
1081, 677, 1211, 353, 1357
1082, 905, 1221, 809, 1303
1083, 333, 288, 315, 1358
1084, 445, 1243, 545, 1416
1085, 1040, 169, 1014, 1317
1086, 255, 1073, 1051, 1383
1087, 1157, 1155, 1161, 1226
1088, 1230, 1246, 392, 1400
1089, 991, 1131, 980, 1349
1090, 400, 425, 1293, 1440
1091, 613, 647, 1222, 1256
1092, 753, 1202, 734, 1265
1093, 782, 734, 1204, 1265
1094, 1075, 1328, 1064, 1376
1095, 506, 435, 315, 1358
1096, 1172, 1246, 1165, 1421
1097, 1082, 1080, 1100, 1268
1098, 1081, 1360, 1191, 1434
1099, 969, 443, 1233, 1324
1100, 133, 1000, 134, 1177
1101, 1158, 1109, 1092, 1226
1102, 848, 879, 1391, 1400
1103, 1261, 1355, 1168, 1453
1104, 137, 527, 136, 1300
1105, 900, 1205, 872, 1329
1106, 525, 485, 1180, 1439
1107, 331, 1217, 283, 1279
1108, 351, 1198, 408, 1442
1109, 1082, 1100, 1097, 1268
1110, 641, 631, 566, 1387
1111, 874, 1320, 847, 1373
1112, 906, 1231, 882, 1440
1113, 1090, 796, 792, 1375
1114, 526, 1294, 1173, 1342
1115, 649, 1192, 556, 1290
1116, 1089, 1084, 1079, 1375
1117, 753, 754, 1202, 1318
1118, 907, 874, 847, 1373
1119, 1179, 1235, 1193, 1347
1120, 1038, 1015, 1330, 1404
1121, 1171, 1352, 527, 1413
1122, 1221, 1303, 1271, 1396
1123, 1176, 1257, 762, 1295
1124, 862, 1225, 914, 1286
1125, 1045, 1263, 1170, 1386
1126, 848, 827, 826, 1172
1127, 897, 1213, 851, 1244
1128, 1098, 1117, 1099, 1254
1129, 1075, 720, 1058, 1328
1130, 1195, 1240, 1206, 1345
1131, 946, 936, 618, 1261
1132, 309, 622, 634, 1275
1133, 707, 1189, 706, 1407
1134, 394, 412, 1211, 1357
1135, 256, 1205, 255, 1383
1136, 1128, 1135, 1136, 1250
1137, 1255, 1321, 1209, 1413
1138, 1175, 1313, 1260, 1378
1139, 731, 789, 1164, 1295
1140, 508, 477, 496, 1197
1141, 1099, 1117, 1114, 1254
1142, 1194, 1238, 1216, 1415
1143, 1106, 1227, 1101, 1268
1144, 506, 315, 288, 1358
1145, 138, 1004, 972, 1389
1146, 412, 417, 394, 1211
1147, 353, 417, 412, 1211
1148, 1189, 1287, 1167, 1447
1149, 950, 1192, 962, 1285
1150, 982, 1240, 202, 1339
1151, 253, 1188, 254, 1376
1152, 1191, 1254, 1122, 1363
1153, 833, 919, 1167, 1447
1154, 1115, 1191, 1122, 1363
1155, 1197, 1394, 623, 1438
1156, 754, 710, 753, 1202
1157, 19, 429, 922, 1458
1158, 494, 445, 539, 1416
1159, 789, 1281, 1164, 1295
1160, 820, 1239, 876, 1359
1161, 273, 313, 338, 1263
1162, 1250, 1255, 1177, 1330
1163, 1040, 1163, 1034, 1330
1164, 580, 1168, 579, 1355
1165, 1229, 631, 1290, 1387
1166, 1056, 1065, 1069, 1223
1167, 845, 1320, 844, 1406
1168, 914, 1225, 802, 1286
1169, 1097, 1101, 1082, 1268
1170, 1219, 1315, 1195, 1339
1171, 613, 1256, 1222, 1441
1172, 1191, 1088, 1268, 1360
1173, 351, 409, 1198, 1357
1174, 439, 1217, 283, 1409
1175, 1193, 1261, 635, 1291
1176, 1155, 1120, 1161, 1410
1177, 134, 1255, 977, 1321
1178, 949, 1285, 1216, 1439
1179, 759, 1305, 368, 1443
1180, 1123, 1116, 1122, 1364
1181, 253, 1156, 254, 1188
1182, 977, 1255, 135, 1321
1183, 408, 1198, 390, 1372
1184, 837, 1175, 839, 1406
1185, 616, 1291, 1212, 1309
1186, 607, 628, 1200, 1276
1187, 415, 1230, 392, 1400
1188, 717, 681, 684, 1213
1189, 589, 590, 587, 1184
1190, 464, 463, 461, 1184
1191, 448, 486, 441, 1215
1192, 527, 1352, 1171, 1389
1193, 987, 1297, 1185, 1399
1194, 1204, 1335, 916, 1396
1195, 881, 1310, 1274, 1447
1196, 726, 1253, 1166, 1388
1197, 969, 443, 944, 1233
1198, 848, 827, 1172, 1274
1199, 306, 1222, 521, 1358
1200, 1043, 1045, 1299, 1386
1201, 1116, 1094, 1099, 1254
1202, 839, 1175, 838, 1445
1203, 698, 1175, 696, 1425
1204, 1205, 1273, 1252, 1437
1205, 1175, 1302, 1406, 1425
1206, 1109, 1095, 1083, 1226
1207, 529, 1214, 483, 1416
1208, 1028, 1169, 1047, 1427
1209, 1160, 1154, 1086, 1226
1210, 232, 1364, 1191, 1396
1211, 485, 514, 468, 1414
1212, 965, 1261, 1233, 1332
1213, 1114, 1116, 1099, 1254
1214, 385, 399, 1344, 1424
1215, 278, 314, 338, 1354
1216, 1173, 1342, 1307, 1358
1217, 676, 1240, 1206, 1346
1218, 1038, 167, 1015, 1404
1219, 1131, 1148, 980, 1356
1220, 707, 1281, 1189, 1407
1221, 541, 545, 553, 1243
1222, 1180, 1236, 596, 1311
1223, 872, 1205, 228, 1329
1224, 299, 322, 290, 1276
1225, 1007, 1170, 985, 1354
1226, 675, 749, 1221, 1280
1227, 721, 746, 742, 1327
1228, 776, 783, 1421, 1443
1229, 884, 1211, 864, 1308
1230, 574, 567, 612, 1242
1231, 661, 1197, 623, 1438
1232, 1035, 1299, 1162, 1386
1233, 934, 1192, 960, 1290
1234, 956, 939, 935, 1439
1235, 687, 1176, 689, 1323
1236, 975, 1182, 982, 1339
1237, 965, 944, 928, 1233
1238, 1088, 1078, 1081, 1191
1239, 1122, 1115, 1112, 1191
1240, 1175, 1302, 1231, 1406
1241, 990, 1326, 986, 1399
1242, 1019, 1263, 1219, 1398
1243, 1057, 1244, 1067, 1378
1244, 405, 1334, 1208, 1433
1245, 793, 125, 126, 1187
1246, 491, 474, 480, 1216
1247, 1144, 1349, 1250, 1356
1248, 306, 521, 288, 1358
1249, 1172, 1230, 1196, 1392
1250, 1185, 1371, 1232, 1427
1251, 843, 844, 1190, 1406
1252, 742, 686, 688, 1270
1253, 571, 655, 620, 1243
1254, 748, 1211, 730, 1283
1255, 1216, 1285, 961, 1420
1256, 837, 838, 1175, 1313
1257, 475, 1194, 473, 1337
1258, 126, 1289, 1187, 1377
1259, 463, 1184, 464, 1419
1260, 475, 474, 473, 1194
1261, 402, 405, 1208, 1433
1262, 802, 1225, 914, 1293
1263, 957, 961, 927, 1216
1264, 949, 961, 957, 1216
1265, 682, 1174, 751, 1353
1266, 546, 1229, 551, 1428
1267, 706, 1189, 708, 1407
1268, 712, 1186, 1302, 1344
1269, 1141, 1262, 1140, 1349
1270, 832, 1287, 1189, 1322
1271, 697, 696, 1175, 1314
1272, 1165, 1402, 1391, 1431
1273, 843, 844, 874, 1190
1274, 1023, 1170, 1045, 1398
1275, 727, 1253, 1203, 1353
1276, 1167, 919, 1431, 1447
1277, 298, 297, 321, 1444
1278, 832, 1189, 830, 1322
1279, 367, 671, 777, 1230
1280, 701, 722, 1272, 1430
1281, 939, 485, 431, 1439
1282, 1178, 1336, 1218, 1419
1283, 1057, 899, 1049, 1244
1284, 586, 584, 585, 1179
1285, 458, 460, 459, 1179
1286, 363, 373, 812, 1237
1287, 1150, 1029, 1140, 1262
1288, 1001, 1241, 1007, 1354
1289, 1124, 1108, 1118, 1227
1290, 1174, 1239, 1253, 1456
1291, 1202, 1167, 1287, 1449
1292, 895, 871, 840, 1329
1293, 1147, 1207, 1135, 1325
1294, 208, 209, 1077, 1188
1295, 233, 1111, 234, 1188
1296, 949, 961, 1216, 1285
1297, 686, 1270, 742, 1327
1298, 523, 1192, 493, 1267
1299, 208, 209, 1188, 1376
1300, 674, 1305, 759, 1443
1301, 1330, 1405, 1163, 1413
1302, 403, 1333, 405, 1334
1303, 479, 1417, 1238, 1446
1304, 677, 1211, 748, 1248
1305, 982, 203, 1240, 1252
1306, 390, 409, 362, 1357
1307, 394, 362, 412, 1357
1308, 504, 526, 1173, 1342
1309, 790, 1166, 726, 1333
1310, 924, 860, 1166, 1334
1311, 1202, 1318, 1245, 1449
1312, 753, 710, 734, 1202
1313, 1233, 1332, 1261, 1412
1314, 253, 1249, 1188, 1376
1315, 726, 1166, 1253, 1333
1316, 1109, 1157, 1103, 1226
1317, 126, 1187, 125, 1377
1318, 748, 711, 772, 1248
1319, 821, 823, 896, 1176
1320, 762, 689, 687, 1176
1321, 1165, 1274, 1172, 1421
1322, 297, 298, 281, 1352
1323, 958, 959, 929, 1390
1324, 1196, 1270, 688, 1323
1325, 749, 708, 706, 1328
1326, 1131, 1349, 1144, 1356
1327, 1078, 1191, 1088, 1268
1328, 333, 1173, 1284, 1358
1329, 790, 729, 726, 1166
1330, 863, 924, 860, 1166
1331, 1203, 1253, 727, 1388
1332, 852, 916, 1335, 1396
1333, 1104, 1254, 1094, 1268
1334, 1209, 1321, 1255, 1404
1335, 1224, 1267, 1192, 1387
1336, 1147, 1136, 1135, 1207
1337, 785, 1312, 707, 1407
1338, 1002, 1255, 996, 1422
1339, 817, 821, 1223, 1359
1340, 376, 1334, 405, 1433
1341, 202, 1240, 736, 1339
1342, 1209, 1255, 1330, 1404
1343, 386, 403, 418, 1166
1344, 418, 403, 387, 1166
1345, 776, 1421, 1165, 1443
1346, 645, 592, 1178, 1441
1347, 480, 1216, 1238, 1285
1348, 1008, 984, 1339, 1354
1349, 782, 770, 1265, 1289
1350, 255, 1205, 256, 1437
1351, 1092, 1109, 1083, 1226
1352, 582, 1235, 627, 1338
1353, 1183, 1272, 1198, 1430
1354, 958, 1291, 1212, 1423
1355, 232, 1191, 1303, 1396
1356, 1170, 1263, 1045, 1398
1357, 646, 299, 628, 1276
1358, 346, 385, 399, 1344
1359, 727, 751, 1253, 1353
1360, 279, 294, 327, 1256
1361, 1206, 1240, 1195, 1346
1362, 956, 1319, 1180, 1439
1363, 1297, 1326, 1185, 1399
1364, 653, 170, 1171, 1444
1365, 507, 482, 1217, 1416
1366, 1242, 1352, 332, 1444
1367, 1204, 1280, 1221, 1367
1368, 649, 1290, 631, 1387
1369, 454, 455, 1412, 1429
1370, 1041, 1232, 1325, 1371
1371, 821, 823, 1176, 1359
1372, 1025, 1299, 1185, 1304
1373, 962, 1192, 934, 1420
1374, 1206, 1240, 676, 1459
1375, 1088, 1191, 1081, 1360
1376, 1391, 1402, 910, 1431
1377, 782, 1265, 1204, 1289
1378, 1122, 1191, 1112, 1364
1379, 1079, 1090, 792, 1375
1380, 1195, 870, 1301, 1345
1381, 1001, 978, 1241, 1354
1382, 1105, 1226, 1098, 1254
1383, 1190, 1244, 1213, 1373
1384, 1008, 1339, 1219, 1354
1385, 1178, 1282, 519, 1369
1386, 346, 668, 385, 1344
1387, 134, 133, 1177, 1321
1388, 394, 1211, 417, 1385
1389, 133, 1000, 1177, 1349
1390, 1013, 1020, 1021, 1182
1391, 983, 982, 975, 1182
1392, 561, 277, 646, 1276
1393, 857, 920, 1372, 1382
1394, 1222, 1284, 647, 1441
1395, 843, 1190, 874, 1373
1396, 1183, 1283, 700, 1430
1397, 1202, 1280, 1204, 1367
1398, 135, 1321, 1209, 1366
1399, 956, 926, 967, 1288
1400, 858, 871, 1206, 1382
1401, 1100, 1254, 1104, 1268
1402, 1037, 1028, 1047, 1427
1403, 718, 782, 735, 1204
1404, 687, 764, 762, 1257
1405, 757, 375, 1333, 1397
1406, 207, 1271, 1191, 1408
1407, 400, 425, 378, 1293
1408, 1202, 1265, 753, 1318
1409, 872, 900, 229, 1205
1410, 600, 599, 1194, 1379
1411, 1220, 1260, 695, 1314
1412, 611, 1288, 1180, 1311
1413, 764, 687, 683, 1270
1414, 570, 1229, 631, 1290
1415, 579, 1168, 1338, 1355
1416, 425, 377, 378, 1344
1417, 817, 1359, 1223, 1365
1418, 704, 1058, 720, 1328
1419, 1063, 1220, 1072, 1260
1420, 353, 1211, 412, 1357
1421, 1000, 977, 134, 1255
1422, 814, 903, 393, 1278
1423, 957, 949, 1216, 1439
1424, 467, 466, 519, 1178
1425, 593, 645, 592, 1178
1426, 506, 288, 521, 1358
1427, 570, 626, 931, 1290
1428, 452, 517, 536, 1247
1429, 203, 1240, 1205, 1459
1430, 1265, 1335, 1331, 1367
1431, 1057, 799, 899, 1244
1432, 1031, 1207, 1033, 1371
1433, 635, 1193, 583, 1453
1434, 1017, 229, 1044, 1273
1435, 1078, 207, 1191, 1408
1436, 607, 628, 627, 1200
1437, 576, 577, 575, 1234
1438, 690, 1270, 686, 1327
1439, 985, 1007, 1005, 1297
1440, 474, 1194, 1292, 1450
1441, 328, 1284, 1222, 1358
1442, 1231, 1385, 882, 1440
1443, 845, 846, 844, 1320
1444, 405, 1333, 1208, 1334
1445, 825, 1374, 1456, 1457
1446, 726, 727, 1253, 1388
1447, 1066, 1056, 1258, 1306
1448, 729, 1388, 1166, 1424
1449, 823, 896, 1176, 1310
1450, 707, 706, 708, 1407
1451, 761, 694, 695, 1220
1452, 1178, 1222, 1282, 1394
1453, 603, 622, 1197, 1275
1454, 494, 515, 1214, 1428
1455, 776, 1165, 1305, 1443
1456, 398, 1278, 19, 1315
1457, 630, 664, 652, 1348
1458, 200, 1219, 1008, 1339
1459, 1049, 1066, 1067, 1244
1460, 525, 1180, 1292, 1439
1461, 1221, 1280, 749, 1328
1462, 527, 1171, 137, 1389
1463, 1292, 1369, 472, 1450
1464, 478, 524, 530, 1181
1465, 604, 656, 650, 1181
1466, 1231, 1302, 1186, 1320
1467, 1331, 1335, 868, 1367
1468, 666, 705, 779, 1281
1469, 504, 1173, 538, 1358
1470, 626, 951, 931, 1290
1471, 278, 338, 1263, 1354
1472, 655, 1243, 633, 1435
1473, 1307, 1342, 1266, 1358
1474, 679, 770, 347, 1265
1475, 605, 1401, 1224, 1435
1476, 1043, 1045, 1023, 1299
1477, 650, 1181, 656, 1362
1478, 1254, 1268, 1191, 1364
1479, 765, 1260, 1244, 1425
1480, 1255, 1321, 1177, 1404
1481, 536, 1199, 503, 1340
1482, 699, 700, 701, 1183
1483, 762, 689, 1176, 1295
1484, 957, 1216, 927, 1319
1485, 589, 590, 1184, 1336
1486, 986, 1326, 987, 1399
1487, 461, 464, 1184, 1342
1488, 206, 718, 735, 1271
1489, 600, 601, 599, 1379
1490, 709, 1167, 785, 1407
1491, 736, 1195, 201, 1339
1492, 201, 1195, 1315, 1339
1493, 587, 1184, 590, 1307
1494, 1213, 1244, 1190, 1448
1495, 201, 736, 719, 1195
1496, 803, 884, 856, 1198
1497, 1189, 1322, 1287, 1447
1498, 826, 1172, 1310, 1392
1499, 1247, 1340, 453, 1429
1500, 474, 1194, 475, 1446
1501, 295, 486, 281, 1352
1502, 536, 452, 1247, 1340
1503, 668, 385, 1344, 1424
1504, 623, 1197, 622, 1256
1505, 458, 460, 1179, 1294
1506, 489, 1193, 1343, 1390
1507, 903, 357, 393, 1278
1508, 569, 933, 618, 1261
1509, 1168, 1412, 455, 1429
1510, 1026, 1371, 1185, 1427
1511, 855, 878, 1400, 1454
1512, 321, 1171, 1269, 1444
1513, 1121, 1117, 1120, 1410
1514, 1229, 1290, 1267, 1387
1515, 1305, 1312, 1165, 1421
1516, 205, 1187, 1085, 1375
1517, 455, 1168, 453, 1347
1518, 299, 646, 277, 1276
1519, 687, 1270, 1176, 1323
1520, 755, 785, 709, 1167
1521, 644, 1218, 591, 1336
1522, 1302, 1320, 1231, 1406
1523, 1244, 1260, 1067, 1378
1524, 460, 459, 1179, 1342
1525, 413, 1286, 399, 1424
1526, 1221, 1328, 675, 1434
1527, 715, 1305, 776, 1421
1528, 512, 1352, 527, 1389
1529, 705, 666, 704, 1281
1530, 530, 1181, 524, 1403
1531, 1230, 1237, 1196, 1454
1532, 564, 577, 576, 1201
1533, 626, 556, 951, 1290
1534, 647, 1222, 279, 1284
1535, 46, 142, 2, 342
1536, 341, 1, 21, 175
1537, 170, 638, 1269, 1444
1538, 1187, 1271, 206, 1408
1539, 1244, 1425, 1190, 1448
1540, 200, 342, 981, 1219
1541, 692, 1421, 1172, 1436
1542, 946, 618, 933, 1261
1543, 936, 559, 1261, 1291
1544, 1064, 1328, 1249, 1376
1545, 669, 1357, 1198, 1430
1546, 936, 559, 618, 1261
1547, 1191, 1268, 1078, 1408
1548, 422, 379, 1265, 1331
1549, 422, 406, 379, 1331
1550, 1156, 1188, 253, 1410
1551, 515, 483, 529, 1214
1552, 628, 1200, 290, 1370
1553, 296, 172, 280, 1269
1554, 534, 523, 430, 1192
1555, 703, 1190, 1425, 1448
1556, 1198, 1272, 1183, 1382
1557, 298, 332, 1352, 1444
1558, 809, 867, 1367, 1455
1559, 916, 1335, 1204, 1367
1560, 777, 745, 392, 1246
1561, 543, 494, 539, 1428
1562, 586, 1179, 585, 1348
1563, 1211, 1357, 677, 1430
1564, 446, 297, 281, 1352
1565, 280, 172, 663, 1269
1566, 351, 750, 391, 1357
1567, 206, 1085, 205, 1187
1568, 231, 230, 1119, 1187
1569, 1198, 1272, 722, 1430
1570, 853, 1195, 870, 1458
1571, 1221, 1328, 1249, 1455
1572, 1195, 1315, 1219, 1458
1573, 675, 733, 749, 1280
1574, 568, 1209, 168, 1404
1575, 1195, 1278, 1346, 1432
1576, 461, 1342, 1184, 1343
1577, 340, 657, 552, 1243
1578, 613, 1394, 1256, 1441
1579, 1238, 1285, 1216, 1420
1580, 1026, 1185, 1025, 1427
1581, 290, 628, 299, 1276
1582, 1274, 1310, 1164, 1447
1583, 800, 828, 1060, 1251
1584, 1170, 1326, 985, 1354
1585, 403, 1166, 1333, 1334
1586, 1165, 1402, 1305, 1443
1587, 275, 441, 1215, 1380
1588, 168, 1209, 573, 1405
1589, 126, 793, 1187, 1375
1590, 322, 1276, 300, 1418
1591, 851, 1213, 818, 1306
1592, 587, 1184, 1307, 1348
1593, 716, 666, 779, 1295
1594, 1072, 1220, 1062, 1378
1595, 645, 1178, 1394, 1441
1596, 232, 1112, 1191, 1364
1597, 892, 395, 1245, 1402
1598, 958, 941, 1291, 1423
1599, 771, 675, 1328, 1434
1600, 1205, 1252, 203, 1437
1601, 995, 1356, 1393, 1422
1602, 1111, 1188, 233, 1363
1603, 767, 1203, 773, 1350
1604, 1184, 1343, 1342, 1348
1605, 1158, 1092, 1086, 1226
1606, 1013, 1182, 1021, 1398
1607, 814, 1210, 886, 1278
1608, 688, 721, 1196, 1323
1609, 475, 1194, 1337, 1446
1610, 719, 201, 1195, 1315
1611, 1081, 1078, 207, 1191
1612, 232, 1112, 1115, 1191
1613, 987, 1185, 1297, 1298
1614, 950, 932, 430, 1285
1615, 387, 863, 370, 1286
1616, 457, 1193, 509, 1347
1617, 832, 831, 1287, 1322
1618, 605, 1341, 1224, 1401
1619, 207, 1081, 1191, 1434
1620, 664, 1284, 1173, 1307
1621, 1187, 1271, 1191, 1396
1622, 331, 339, 283, 1217
1623, 898, 1065, 801, 1223
1624, 593, 645, 1178, 1394
1625, 615, 1193, 635, 1291
1626, 470, 485, 468, 1180
1627, 1160, 1156, 1154, 1410
1628, 416, 381, 1245, 1305
1629, 1063, 1051, 1072, 1220
1630, 1072, 1051, 1062, 1220
1631, 863, 1286, 1166, 1374
1632, 682, 1258, 1174, 1353
1633, 234, 1188, 1111, 1410
1634, 534, 480, 1238, 1285
1635, 1342, 1343, 1179, 1348
1636, 1013, 1020, 1182, 1381
1637, 393, 1210, 420, 1372
1638, 637, 566, 631, 1229
1639, 700, 1283, 1183, 1314
1640, 561, 632, 277, 1284
1641, 1278, 1210, 1346, 1432
1642, 457, 459, 489, 1343
1643, 841, 1308, 1183, 1382
1644, 473, 1337, 1194, 1450
1645, 1038, 1015, 1033, 1250
1646, 1210, 1345, 1272, 1382
1647, 823, 1310, 1176, 1359
1648, 1169, 1273, 1047, 1426
1649, 1168, 1340, 1247, 1429
1650, 844, 874, 1190, 1320
1651, 699, 700, 1183, 1314
1652, 840, 1183, 841, 1313
1653, 706, 1189, 1281, 1328
1654, 653, 1171, 170, 1405
1655, 283, 1217, 339, 1409
1656, 799, 837, 899, 1244
1657, 932, 499, 430, 1285
1658, 1186, 1293, 846, 1320
1659, 910, 1391, 808, 1402
1660, 901, 907, 1203, 1373
1661, 649, 660, 556, 1420
1662, 562, 279, 647, 1256
1663, 467, 1178, 519, 1369
1664, 773, 767, 727, 1203
1665, 901, 907, 861, 1203
1666, 557, 926, 947, 1319
1667, 509, 1332, 1193, 1390
1668, 594, 591, 1218, 1336
1669, 732, 780, 1225, 1350
1670, 858, 1345, 920, 1382
1671, 1201, 1351, 564, 1355
1672, 1132, 1134, 1012, 1325
1673, 332, 325, 295, 1242
1674, 1077, 208, 1188, 1360
1675, 538, 1358, 1173, 1418
1676, 815, 1070, 851, 1306
1677, 700, 722, 701, 1430
1678, 525, 1180, 470, 1292
1679, 642, 927, 1216, 1319
1680, 1028, 1020, 1017, 1381
1681, 593, 1178, 592, 1336
1682, 1195, 1346, 1315, 1432
1683, 829, 1251, 1228, 1322
1684, 696, 1260, 1175, 1314
1685, 785, 1167, 1312, 1407
1686, 1085, 1187, 206, 1408
1687, 1256, 1282, 1222, 1394
1688, 1228, 1257, 1176, 1295
1689, 1165, 1312, 1305, 1431
1690, 1272, 1382, 1206, 1384
1691, 719, 1195, 736, 1346
1692, 853, 870, 1195, 1345
1693, 629, 560, 1199, 1370
1694, 457, 489, 509, 1193
1695, 583, 635, 615, 1193
1696, 632, 302, 277, 1284
1697, 822, 1359, 1196, 1392
1698, 1179, 1276, 1200, 1294
1699, 1063, 1051, 1220, 1383
1700, 633, 1435, 1243, 1451
1701, 695, 761, 1220, 1314
1702, 688, 721, 742, 1196
1703, 1061, 1048, 716, 1257
1704, 201, 1315, 200, 1339
1705, 1201, 1262, 564, 1351
1706, 734, 735, 782, 1204
1707, 816, 1174, 1306, 1457
1708, 1265, 1204, 1335, 1367
1709, 392, 1246, 414, 1400
1710, 1183, 1382, 1272, 1384
1711, 464, 1266, 1184, 1342
1712, 1229, 1267, 505, 1428
1713, 864, 882, 1211, 1385
1714, 439, 1217, 482, 1279
1715, 1023, 1264, 1170, 1398
1716, 507, 483, 482, 1416
1717, 429, 19, 398, 1278
1718, 1183, 1272, 701, 1384
1719, 1187, 1191, 1364, 1396
1720, 1136, 1250, 1207, 1356
1721, 1018, 1033, 1030, 1250
1722, 787, 205, 126, 1289
1723, 588, 616, 1212, 1309
1724, 830, 1189, 832, 1455
1725, 340, 552, 541, 1243
1726, 1189, 1251, 830, 1322
1727, 854, 1249, 1052, 1251
1728, 936, 1261, 963, 1291
1729, 672, 375, 365, 1333
1730, 348, 376, 806, 1334
1731, 1171, 1317, 170, 1405
1732, 524, 1181, 478, 1446
1733, 1335, 1377, 852, 1396
1734, 990, 999, 1169, 1399
1735, 1191, 1271, 1187, 1408
1736, 801, 1065, 1070, 1306
1737, 1209, 1405, 1330, 1413
1738, 330, 325, 305, 1215
1739, 684, 1213, 1258, 1353
1740, 1034, 1163, 1304, 1371
1741, 696, 1175, 1260, 1425
1742, 741, 772, 712, 1186
1743, 875, 846, 906, 1186
1744, 906, 875, 1186, 1440
1745, 1003, 974, 994, 1277
1746, 204, 738, 1205, 1383
1747, 650, 604, 1181, 1379
1748, 745, 354, 392, 1246
1749, 724, 1272, 1206, 1384
1750, 1195, 1315, 1278, 1432
1751, 719, 1315, 1195, 1346
1752, 1163, 1300, 1171, 1317
1753, 232, 1191, 1115, 1303
1754, 1206, 1195, 1345, 1346
1755, 689, 1176, 1295, 1323
1756, 988, 987, 1185, 1399
1757, 1070, 1065, 1056, 1306
1758, 1174, 1306, 1223, 1365
1759, 622, 623, 661, 1197
1760, 895, 1220, 1313, 1378
1761, 275, 325, 330, 1215
1762, 1005, 1001, 972, 1241
1763, 887, 834, 1202, 1367
1764, 756, 677, 748, 1248
1765, 920, 1210, 814, 1372
1766, 988, 1185, 1277, 1399
1767, 1201, 1411, 438, 1429
1768, 839, 1406, 1175, 1445
1769, 593, 1178, 1311, 1394
1770, 134, 977, 135, 1321
1771, 1131, 1144, 1148, 1356
1772, 511, 1229, 505, 1428
1773, 866, 1293, 1225, 1320
1774, 767, 1203, 1350, 1448
1775, 381, 670, 349, 1318
1776, 1168, 1355, 1261, 1412
1777, 822, 1196, 876, 1392
1778, 627, 1200, 628, 1370
1779, 964, 1229, 931, 1290
1780, 1014, 1034, 1040, 1163
1781, 795, 1124, 791, 1227
1782, 587, 585, 1309, 1348
1783, 859, 1208, 1334, 1433
1784, 135, 1255, 977, 1413
1785, 649, 556, 1192, 1420
1786, 850, 800, 1060, 1228
1787, 732, 1344, 1225, 1424
1788, 522, 492, 443, 1412
1789, 1200, 1294, 1276, 1418
1790, 446, 512, 297, 1352
1791, 1183, 841, 1313, 1445
1792, 1196, 1327, 1237, 1361
1793, 226, 853, 870, 1458
1794, 551, 1229, 547, 1428
1795, 1168, 453, 1340, 1429
1796, 846, 1186, 875, 1293
1797, 474, 473, 1194, 1450
1798, 600, 1194, 599, 1415
1799, 321, 1269, 1171, 1389
1800, 340, 274, 312, 1243
1801, 822, 876, 1196, 1359
1802, 1229, 1387, 1267, 1428
1803, 1202, 1331, 887, 1367
1804, 812, 363, 1237, 1433
1805, 864, 884, 811, 1211
1806, 1255, 1177, 1330, 1404
1807, 994, 1399, 1277, 1452
1808, 1241, 1297, 1170, 1386
1809, 1162, 1297, 1241, 1386
1810, 703, 1425, 702, 1448
1811, 768, 668, 346, 1344
1812, 286, 294, 562, 1256
1813, 479, 1238, 476, 1446
1814, 402, 1208, 1397, 1433
1815, 975, 1008, 984, 1339
1816, 459, 1179, 1342, 1343
1817, 1205, 1383, 256, 1437
1818, 1193, 1309, 1179, 1343
1819, 1075, 720, 1328, 1376
1820, 277, 300, 299, 1276
1821, 483, 515, 484, 1267
1822, 736, 1240, 676, 1346
1823, 699, 1183, 701, 1384
1824, 1188, 1360, 208, 1434
1825, 1174, 1223, 1270, 1365
1826, 1035, 1162, 1304, 1317
1827, 853, 1195, 1278, 1345
1828, 814, 920, 886, 1210
1829, 1013, 1182, 1301, 1381
1830, 541, 274, 340, 1243
1831, 1030, 1207, 1031, 1325
1832, 611, 1180, 596, 1311
1833, 895, 1313, 836, 1378
1834, 901, 1203, 861, 1457
1835, 1255, 1413, 1163, 1422
1836, 835, 1220, 895, 1378
1837, 551, 540, 547, 1229
1838, 583, 1193, 615, 1309
1839, 530, 1181, 1279, 1417
1840, 933, 1233, 965, 1261
1841, 1191, 1268, 1254, 1360
1842, 1136, 1207, 1147, 1393
1843, 1185, 1326, 1264, 1427
1844, 652, 1173, 1276, 1348
1845, 1034, 1031, 1033, 1371
1846, 1087, 1080, 1088, 1360
1847, 386, 781, 365, 1333
1848, 348, 915, 387, 1334
1849, 749, 675, 1221, 1328
1850, 816, 1306, 1174, 1365
1851, 1189, 1280, 708, 1407
1852, 298, 332, 281, 1352
1853, 787, 126, 426, 1289
1854, 230, 1187, 231, 1377
1855, 493, 523, 534, 1192
1856, 509, 1193, 489, 1390
1857, 1033, 1031, 1030, 1207
1858, 722, 1198, 723, 1272
1859, 656, 1181, 604, 1401
1860, 1266, 1336, 1178, 1419
1861, 548, 544, 550, 1243
1862, 613, 1222, 647, 1441
1863, 866, 1225, 914, 1320
1864, 530, 1279, 1181, 1403
1865, 1057, 1049, 1067, 1244
1866, 1243, 1435, 1217, 1451
1867, 1053, 765, 665, 1260
1868, 1210, 1432, 420, 1442
1869, 1256, 1394, 1222, 1441
1870, 231, 1187, 1119, 1364
1871, 726, 1166, 729, 1388
1872, 415, 392, 414, 1400
1873, 278, 978, 141, 314
1874, 739, 725, 1208, 1333
1875, 1173, 1294, 526, 1418
1876, 869, 916, 1204, 1367
1877, 703, 1302, 1190, 1350
1878, 1085, 1375, 1187, 1408
1879, 582, 627, 629, 1338
1880, 755, 785, 1167, 1312
1881, 1053, 665, 1063, 1260
1882, 1180, 1311, 1218, 1369
1883, 997, 1298, 1162, 1300
1884, 208, 1376, 1188, 1434
1885, 990, 1009, 979, 1252
1886, 611, 651, 1180, 1319
1887, 589, 1184, 1296, 1336
1888, 328, 288, 1284, 1358
1889, 738, 1205, 1383, 1459
1890, 1179, 1309, 585, 1348
1891, 445, 1409, 1243, 1416
1892, 1196, 1237, 1230, 1361
1893, 203, 1205, 738, 1459
1894, 1219, 1398, 1301, 1458
1895, 392, 415, 367, 1230
1896, 530, 478, 1181, 1417
1897, 339, 1217, 331, 1451
1898, 1221, 1249, 1188, 1303
1899, 1272, 1372, 1210, 1382
1900, 135, 1209, 447, 1366
1901, 927, 940, 642, 1420
1902, 1264, 1326, 1170, 1398
1903, 1272, 1345, 1206, 1382
1904, 1309, 1343, 1193, 1390
1905, 204, 1383, 1205, 1437
1906, 1061, 1068, 1048, 1257
1907, 715, 1312, 1305, 1421
1908, 731, 1295, 1164, 1436
1909, 692, 1172, 1323, 1436
1910, 515, 505, 1267, 1428
1911, 1028, 1264, 1169, 1427
1912, 874, 1190, 1320, 1373
1913, 603, 1275, 1197, 1379
1914, 772, 712, 1186, 1302
1915, 589, 587, 588, 1296
1916, 1181, 656, 1362, 1401
1917, 823, 1310, 1359, 1392
1918, 536, 434, 1199, 1380
1919, 979, 1252, 1009, 1316
1920, 413, 360, 399, 1286
1921, 583, 1193, 1309, 1453
1922, 1207, 1393, 1356, 1422
1923, 395, 369, 892, 1449
1924, 739, 1208, 725, 1327
1925, 420, 1432, 350, 1442
1926, 482, 1279, 1217, 1417
1927, 615, 1291, 616, 1309
1928, 1168, 1340, 453, 1347
1929, 755, 1167, 1305, 1312
1930, 828, 1052, 1060, 1251
1931, 483, 484, 479, 1224
1932, 552, 657, 548, 1243
1933, 805, 1400, 878, 1454
1934, 761, 694, 1220, 1383
1935, 540, 551, 546, 1229
1936, 1170, 1264, 1023, 1299
1937, 603, 1197, 661, 1438
1938, 1214, 1267, 1224, 1387
1939, 234, 253, 909, 1249
1940, 691, 727, 751, 1253
1941, 416, 368, 381, 1305
1942, 1172, 1196, 1323, 1392
1943, 863, 1166, 860, 1374
1944, 748, 677, 730, 1211
1945, 421, 1210, 393, 1278
1946, 386, 365, 403, 1333
1947, 1212, 1343, 1309, 1390
1948, 858, 1206, 1345, 1382
1949, 906, 845, 882, 1231
1950, 403, 348, 387, 1334
1951, 322, 299, 300, 1276
1952, 1113, 791, 1124, 1227
1953, 773, 1203, 727, 1388
1954, 679, 782, 770, 1265
1955, 949, 516, 1285, 1439
1956, 471, 472, 1369, 1450
1957, 999, 1316, 1169, 1399
1958, 869, 1204, 916, 1396
1959, 872, 229, 228, 1205
1960, 738, 203, 204, 1205
1961, 1178, 592, 1336, 1441
1962, 861, 1203, 907, 1374
1963, 1190, 1350, 1320, 1373
1964, 1267, 1387, 1214, 1428
1965, 1185, 1399, 1326, 1427
1966, 594, 1218, 1311, 1336
1967, 568, 573, 168, 1209
1968, 504, 1266, 1342, 1358
1969, 1172, 1246, 1230, 1400
1970, 1132, 1032, 1232, 1325
1971, 703, 702, 740, 1448
1972, 1174, 1258, 1223, 1306
1973, 283, 439, 319, 1279
1974, 135, 442, 1321, 1366
1975, 275, 1215, 330, 1380
1976, 876, 1196, 855, 1392
1977, 916, 868, 1335, 1367
1978, 703, 1302, 698, 1425
1979, 493, 534, 480, 1238
1980, 204, 1205, 203, 1437
1981, 279, 1222, 328, 1284
1982, 1029, 1018, 1140, 1250
1983, 710, 1280, 1202, 1407
1984, 727, 1203, 767, 1353
1985, 559, 635, 1261, 1291
1986, 1024, 1299, 1264, 1427
1987, 712, 741, 1186, 1344
1988, 1217, 1417, 1401, 1435
1989, 901, 1373, 1203, 1457
1990, 1401, 1417, 1224, 1435
1991, 1167, 1287, 1189, 1407
1992, 997, 1297, 1162, 1298
1993, 594, 1288, 1218, 1368
1994, 827, 1274, 881, 1310
1995, 1034, 1033, 1015, 1330
1996, 1201, 1247, 1234, 1411
1997, 836, 1313, 837, 1378
1998, 620, 655, 641, 1214
1999, 515, 529, 494, 1214
2000, 642, 940, 625, 1420
2001, 860, 1166, 1334, 1374
2002, 1171, 1300, 137, 1389
2003, 804, 892, 369, 1449
2004, 1253, 1333, 1166, 1456
2005, 918, 1237, 373, 1454
2006, 931, 964, 952, 1229
2007, 1231, 1248, 1186, 1302
2008, 1163, 1171, 1300, 1413
2009, 256, 255, 1051, 1383
2010, 833, 1167, 1287, 1447
2011, 1198, 1372, 1272, 1382
2012, 963, 1291, 1261, 1332
2013, 375, 405, 365, 1333
2014, 376, 348, 405, 1334
2015, 504, 1342, 1173, 1358
2016, 1137, 998, 1316, 1437
2017, 834, 887, 1202, 1449
2018, 1018, 1128, 1140, 1250
2019, 1194, 1379, 599, 1438
2020, 1261, 1355, 1233, 1412
2021, 577, 1201, 564, 1355
2022, 1305, 1312, 1167, 1431
2023, 133, 1324, 132, 1349
2024, 755, 754, 758, 1305
2025, 446, 281, 486, 1352
2026, 1070, 815, 801, 1306
2027, 820, 824, 876, 1239
2028, 995, 1393, 993, 1422
2029, 838, 1175, 1313, 1445
2030, 1341, 1379, 1194, 1446
2031, 1035, 1162, 1299, 1304
2032, 207, 1191, 1271, 1434
2033, 1328, 1376, 771, 1434
2034, 1236, 1292, 1180, 1415
2035, 869, 809, 867, 1367
2036, 1007, 985, 984, 1354
2037, 612, 284, 316, 1242
2038, 593, 1311, 1178, 1336
2039, 474, 1292, 472, 1450
2040, 1217, 1401, 608, 1435
2041, 641, 566, 620, 1214
2042, 1333, 1334, 1166, 1456
2043, 593, 597, 645, 1394
2044, 395, 1245, 369, 1449
2045, 985, 1326, 984, 1354
2046, 1277, 1399, 1232, 1452
2047, 350, 1432, 680, 1442
2048, 1046, 1301, 1398, 1458
2049, 677, 353, 391, 1357
2050, 437, 336, 319, 1403
2051, 975, 982, 202, 1339
2052, 1204, 1377, 1335, 1396
2053, 750, 351, 669, 1357
2054, 892, 1402, 1245, 1431
2055, 448, 1215, 517, 1366
2056, 525, 485, 470, 1180
2057, 651, 596, 611, 1180
2058, 1046, 1398, 1219, 1458
2059, 722, 669, 1198, 1430
2060, 365, 405, 403, 1333
2061, 1076, 1052, 854, 1249
2062, 1066, 1070, 1056, 1306
2063, 403, 405, 348, 1334
2064, 1198, 1308, 1183, 1430
2065, 203, 202, 982, 1240
2066, 1168, 1233, 1355, 1412
2067, 859, 873, 1208, 1433
2068, 786, 1272, 1210, 1346
2069, 232, 1303, 809, 1396
2070, 831, 1287, 1322, 1447
2071, 1025, 1185, 1299, 1427
2072, 1236, 1311, 1178, 1394
2073, 896, 913, 850, 1228
2074, 864, 1211, 811, 1385
2075, 876, 873, 880, 1237
2076, 737, 1206, 676, 1459
2077, 818, 1306, 1213, 1457
2078, 897, 818, 851, 1213
2079, 1211, 1283, 1231, 1445
2080, 494, 1214, 529, 1416
2081, 873, 859, 1208, 1456
2082, 274, 312, 1243, 1451
2083, 1194, 599, 1415, 1438
2084, 579, 1338, 1168, 1453
2085, 730, 1211, 677, 1430
2086, 1025, 1299, 1024, 1427
2087, 350, 680, 760, 1442
2088, 1132, 1012, 1032, 1325
2089, 1188, 1249, 1221, 1376
2090, 1259, 1414, 1218, 1419
2091, 470, 1292, 1180, 1369
2092, 1220, 1314, 761, 1384
2093, 1027, 1025, 1026, 1185
2094, 774, 379, 670, 1318
2095, 1265, 1331, 1202, 1367
2096, 810, 872, 228, 1329
2097, 1183, 1308, 1198, 1382
2098, 643, 567, 1215, 1395
2099, 395, 893, 356, 1402
2100, 455, 1168, 1347, 1412
2101, 831, 832, 830, 1322
2102, 604, 1341, 1181, 1379
2103, 1207, 1255, 1163, 1422
2104, 1099, 1116, 266, 1094
2105, 1082, 1097, 1100, 261
2106, 1264, 1185, 1299, 1326
2107, 408, 1198, 1372, 1442
2108, 1114, 1116, 266, 1099
2109, 1100, 1082, 261, 1080
2110, 1182, 1264, 1021, 1398
2111, 1091, 126, 205, 1375
2112, 703, 1190, 1302, 1425
2113, 389, 350, 760, 1442
2114, 434, 503, 536, 1199
2115, 560, 662, 629, 1199
2116, 606, 1216, 642, 1420
2117, 737, 724, 1206, 1384
2118, 1178, 1218, 1311, 1369
2119, 536, 503, 452, 1340
2120, 669, 723, 1198, 1442
2121, 231, 1377, 1187, 1396
2122, 725, 691, 690, 1253
2123, 140, 301, 139, 1241
2124, 629, 627, 560, 1370
2125, 650, 1181, 1362, 1379
2126, 644, 1296, 1218, 1336
2127, 333, 1284, 288, 1358
2128, 757, 375, 672, 1333
2129, 806, 376, 891, 1334
2130, 535, 1282, 1197, 1450
2131, 732, 713, 780, 1350
2132, 201, 200, 1008, 1339
2133, 917, 849, 1274, 1431
2134, 817, 821, 898, 1223
2135, 1137, 1006, 998, 1437
2136, 1187, 1364, 1191, 1408
2137, 1182, 1326, 1264, 1398
2138, 795, 791, 794, 1227
2139, 517, 448, 441, 1215
2140, 574, 643, 567, 1215
2141, 856, 857, 1198, 1382
2142, 665, 694, 1063, 1260
2143, 828, 800, 829, 1251
2144, 404, 401, 1391, 1443
2145, 635, 1261, 1193, 1453
2146, 767, 1353, 1203, 1448
2147, 1025, 1185, 1027, 1304
2148, 603, 634, 622, 1275
2149, 988, 1185, 989, 1277
2150, 591, 644, 594, 1218
2151, 447, 1352, 1209, 1413
2152, 1215, 1380, 1247, 1395
2153, 808, 1391, 372, 1402
2154, 1208, 1333, 1253, 1456
2155, 1202, 1287, 834, 1449
2156, 950, 932, 154, 430
2157, 155, 925, 950, 430
2158, 557, 611, 926, 1319
2159, 1001, 1007, 978, 1354
2160, 989, 988, 987, 1185
2161, 171, 663, 172, 1269
2162, 863, 862, 1286, 1374
2163, 1191, 1115, 1303, 1363
2164, 438, 1324, 1201, 1429
2165, 700, 697, 1283, 1314
2166, 1019, 1016, 1263, 1398
2167, 393, 421, 420, 1210
2168, 1159, 253, 234, 1410
2169, 729, 352, 778, 1424
2170, 1003, 1277, 994, 1399
2171, 387, 370, 418, 1286
2172, 932, 154, 430, 499
2173, 818, 1213, 1373, 1457
2174, 875, 400, 1293, 1440
2175, 1310, 1176, 1359, 1392
2176, 395, 892, 1245, 1449
2177, 650, 1362, 1275, 1379
2178, 613, 562, 647, 1256
2179, 447, 1209, 135, 1413
2180, 1244, 1406, 1190, 1425
2181, 437, 319, 495, 1403
2182, 1170, 1297, 985, 1326
2183, 759, 381, 368, 1305
2184, 1091, 798, 126, 1375
2185, 588, 1212, 616, 1423
2186, 204, 256, 1383, 1437
2187, 483, 1224, 479, 1417
2188, 460, 1179, 1294, 1342
2189, 1241, 1269, 1162, 1386
2190, 1266, 1307, 1184, 1342
2191, 511, 505, 1229, 1460
2192, 1188, 1376, 1221, 1434
2193, 1171, 1405, 653, 1444
2194, 525, 431, 485, 1439
2195, 1224, 1387, 605, 1435
2196, 504, 1266, 464, 1342
2197, 301, 140, 278, 1241
2198, 1216, 1285, 516, 1439
2199, 1183, 1308, 841, 1445
2200, 256, 1074, 766, 1383
2201, 749, 771, 675, 1328
2202, 892, 893, 395, 1402
2203, 1188, 1363, 1111, 1410
2204, 687, 688, 1270, 1323
2205, 1234, 1321, 1201, 1411
2206, 579, 578, 577, 1338
2207, 856, 857, 803, 1198
2208, 669, 723, 722, 1198
2209, 603, 622, 661, 1197
2210, 496, 477, 535, 1197
2211, 726, 1253, 725, 1333
2212, 516, 1216, 480, 1285
2213, 626, 570, 631, 1290
2214, 739, 757, 725, 1333
2215, 319, 439, 495, 1279
2216, 641, 1387, 1214, 1435
2217, 773, 1350, 1203, 1388
2218, 1297, 1299, 1185, 1326
2219, 1212, 1296, 588, 1309
2220, 524, 1337, 1181, 1446
2221, 1188, 1303, 233, 1363
2222, 737, 1384, 1206, 1459
2223, 200, 981, 1008, 1219
2224, 286, 562, 622, 1256
2225, 490, 462, 498, 1212
2226, 1097, 1106, 1101, 1268
2227, 453, 451, 1247, 1429
2228, 1208, 1253, 1239, 1456
2229, 290, 322, 276, 1200
2230, 274, 1243, 1409, 1451
2231, 1071, 1228, 1060, 1251
2232, 987, 989, 1185, 1298
2233, 1210, 1272, 786, 1442
2234, 1163, 1371, 1207, 1422
2235, 951, 556, 188, 934
2236, 1027, 1185, 1026, 1371
2237, 1184, 1266, 464, 1419
2238, 1036, 1133, 1139, 1426
2239, 1001, 140, 139, 1241
2240, 321, 1269, 335, 1444
2241, 1174, 1270, 1239, 1365
2242, 470, 472, 1292, 1369
2243, 416, 1305, 1245, 1402
2244, 859, 1334, 1208, 1456
2245, 641, 1214, 655, 1435
2246, 818, 1213, 897, 1373
2247, 1167, 1202, 1287, 1407
2248, 855, 805, 878, 1454
2249, 376, 891, 1334, 1433
2250, 1176, 1323, 1270, 1359
2251, 323, 1241, 278, 1263
2252, 1253, 1353, 1174, 1457
2253, 803, 1198, 857, 1372
2254, 598, 1236, 1415, 1438
2255, 1238, 1341, 1194, 1446
2256, 1248, 1385, 1231, 1440
2257, 538, 435, 1358, 1418
2258, 1119, 1227, 1123, 1364
2259, 236, 1152, 1324, 1349
2260, 1159, 234, 1127, 1410
2261, 829, 1228, 913, 1322
2262, 1215, 1247, 1234, 1395
2263, 1002, 977, 996, 1255
2264, 1247, 1380, 1199, 1395
2265, 887, 1331, 1202, 1449
2266, 962, 1285, 1192, 1420
2267, 590, 1307, 1184, 1336
2268, 776, 1305, 674, 1443
2269, 846, 1293, 866, 1320
2270, 629, 1199, 662, 1395
2271, 1142, 1316, 1273, 1437
2272, 869, 1367, 1204, 1396
2273, 1318, 1331, 406, 1449
2274, 865, 827, 881, 1310
2275, 1190, 844, 1320, 1406
2276, 1251, 1281, 1189, 1328
2277, 419, 1318, 369, 1449
2278, 730, 1283, 1211, 1430
2279, 853, 1278, 1195, 1458
2280, 1100, 1104, 1097, 1268
2281, 381, 758, 670, 1318
2282, 617, 1216, 606, 1415
2283, 1136, 1356, 1207, 1393
2284, 1013, 1301, 1182, 1398
2285, 319, 1279, 495, 1403
2286, 964, 952, 1229, 1460
2287, 918, 880, 812, 1237
2288, 955, 958, 1259, 1423
2289, 621, 310, 41, 289
2290, 447, 1209, 1352, 1366
2291, 556, 187, 934, 1420
2292, 1170, 1264, 1299, 1326
2293, 761, 1383, 1220, 1384
2294, 675, 1271, 1221, 1434
2295, 337, 434, 320, 1380
2296, 187, 940, 934, 1420
2297, 955, 958, 948, 1259
2298, 369, 1318, 406, 1449
2299, 538, 435, 506, 1358
2300, 750, 1357, 669, 1430
2301, 750, 677, 1357, 1430
2302, 349, 381, 92, 670
2303, 723, 1272, 1198, 1442
2304, 615, 1193, 1291, 1309
2305, 1045, 1039, 1263, 1386
2306, 1023, 1264, 1024, 1299
2307, 1052, 1249, 1064, 1251
2308, 1019, 1219, 1046, 1398
2309, 582, 583, 584, 1235
2310, 1181, 1337, 524, 1403
2311, 337, 320, 304, 1380
2312, 1193, 509, 1347, 1412
2313, 479, 493, 476, 1238
2314, 1189, 1287, 832, 1455
2315, 1108, 1096, 1102, 1227
2316, 1297, 1299, 1170, 1386
2317, 1217, 339, 1409, 1451
2318, 875, 1293, 1186, 1440
2319, 1113, 1124, 1118, 1227
2320, 468, 465, 467, 1369
2321, 1208, 1334, 1333, 1456
2322, 228, 227, 810, 1381
2323, 1158, 1086, 1154, 1226
2324, 990, 986, 999, 1399
2325, 866, 914, 1225, 1293
2326, 448, 517, 449, 1366
2327, 522, 443, 1233, 1412
2328, 419, 369, 1245, 1449
2329, 395, 419, 369, 1245
2330, 482, 439, 507, 1217
2331, 696, 1260, 765, 1425
2332, 1012, 1134, 1135, 1325
2333, 1147, 1207, 1325, 1393
2334, 1210, 1372, 1272, 1442
2335, 1198, 1272, 1372, 1442
2336, 1162, 1299, 1297, 1386
2337, 478, 1181, 1417, 1446
2338, 167, 166, 576, 1404
2339, 443, 510, 533, 1324
2340, 1255, 1356, 995, 1422
2341, 810, 1206, 871, 1329
2342, 603, 1379, 1197, 1438
2343, 946, 963, 936, 1261
2344, 1224, 1341, 1238, 1417
2345, 780, 732, 1225, 1424
2346, 868, 887, 1331, 1367
2347, 744, 745, 777, 1246
2348, 1036, 1273, 1133, 1426
2349, 686, 685, 683, 1270
2350, 1036, 1139, 1011, 1426
2351, 462, 1212, 490, 1390
2352, 132, 1324, 1152, 1349
2353, 570, 637, 631, 1229
2354, 1071, 1048, 1068, 1228
2355, 689, 1323, 1295, 1436
2356, 1216, 1292, 1194, 1415
2357, 1275, 1362, 1181, 1379
2358, 135, 1209, 1321, 1413
2359, 976, 1298, 1163, 1422
2360, 847, 866, 914, 1320
2361, 588, 1296, 1212, 1423
2362, 667, 683, 682, 1258
2363, 611, 594, 1288, 1311
2364, 638, 335, 1269, 1444
2365, 868, 1331, 813, 1335
2366, 1270, 1323, 1196, 1359
2367, 582, 583, 1235, 1453
2368, 1211, 1308, 1283, 1445
2369, 786, 752, 1210, 1432
2370, 580, 579, 577, 1355
2371, 922, 1278, 853, 1458
2372, 393, 894, 814, 1372
2373, 794, 791, 792, 1227
2374, 462, 1343, 1212, 1390
2375, 484, 523, 493, 1267
2376, 572, 1242, 316, 1444
2377, 19, 922, 225, 1458
2378, 543, 539, 549, 1428
2379, 367, 415, 411, 1230
2380, 316, 1242, 332, 1444
2381, 1181, 1341, 604, 1401
2382, 1203, 1353, 1253, 1457
2383, 977, 1255, 1002, 1413
2384, 1101, 1106, 1096, 1227
2385, 833, 1287, 831, 1447
2386, 206, 1271, 207, 1408
2387, 1383, 1384, 761, 1459
2388, 1150, 1140, 1141, 1262
2389, 133, 438, 132, 1324
2390, 187, 556, 625, 1420
2391, 1118, 267, 1116, 1102
2392, 1101, 1084, 262, 1082
2393, 34, 561, 632, 277
2394, 1192, 1285, 1238, 1420
2395, 132, 236, 1152, 1324
2396, 1265, 1318, 1202, 1331
2397, 692, 693, 1421, 1436
2398, 594, 1311, 591, 1336
2399, 481, 501, 502, 1200
2400, 779, 1281, 789, 1295
2401, 1170, 1299, 1297, 1326
2402, 1212, 1291, 616, 1423
2403, 858, 1206, 810, 1345
2404, 676, 1206, 724, 1346
2405, 1166, 1388, 1286, 1424
2406, 1258, 1306, 1174, 1353
2407, 1113, 1123, 1119, 1227
2408, 804, 369, 1331, 1449
2409, 519, 1282, 471, 1369
2410, 917, 910, 849, 1431
2411, 785, 747, 707, 1312
2412, 1193, 1332, 509, 1412
2413, 388, 1278, 1315, 1432
2414, 1000, 995, 1255, 1356
2415, 367, 1230, 411, 1361
2416, 420, 1210, 421, 1432
2417, 1154, 1157, 1158, 1226
2418, 393, 359, 894, 1372
2419, 1198, 857, 1372, 1382
2420, 1141, 1140, 1144, 1349
2421, 474, 472, 473, 1450
2422, 843, 837, 839, 1406
2423, 752, 786, 1210, 1346
2424, 886, 1210, 920, 1345
2425, 1179, 1276, 1294, 1348
2426, 1204, 1265, 1202, 1367
2427, 626, 649, 556, 1290
2428, 893, 372, 356, 1402
2429, 187, 625, 940, 1420
2430, 588, 615, 616, 1309
2431, 351, 389, 669, 1442
2432, 397, 1289, 126, 1377
2433, 908, 361, 396, 1331
2434, 612, 316, 572, 1242
2435, 1175, 1406, 1244, 1425
2436, 277, 632, 34, 302
2437, 644, 594, 1218, 1368
2438, 1012, 1135, 1030, 1325
2439, 571, 548, 657, 1243
2440, 487, 521, 436, 1222
2441, 958, 941, 959, 1291
2442, 988, 986, 987, 1399
2443, 981, 314, 978, 1354
2444, 655, 571, 633, 1243
2445, 1187, 1364, 231, 1396
2446, 369, 406, 1331, 1449
2447, 1238, 1417, 1341, 1446
2448, 449, 517, 452, 1247
2449, 1216, 1319, 957, 1439
2450, 989, 1277, 1185, 1298
2451, 204, 256, 766, 1383
2452, 284, 332, 316, 1242
2453, 1137, 1316, 1142, 1437
2454, 517, 1215, 441, 1380
2455, 1214, 1416, 1243, 1435
2456, 893, 808, 372, 1402
2457, 518, 1414, 1259, 1419
2458, 434, 488, 320, 1380
2459, 413, 399, 385, 1424
2460, 1034, 1163, 1014, 1304
2461, 679, 774, 753, 1265
2462, 936, 618, 178, 946
2463, 423, 1265, 382, 1289
2464, 439, 507, 1217, 1409
2465, 1213, 1306, 1258, 1353
2466, 329, 323, 296, 1241
2467, 364, 407, 1248, 1440
2468, 328, 279, 327, 1222
2469, 561, 664, 632, 1284
2470, 1187, 1377, 1289, 1396
2471, 516, 491, 1216, 1439
2472, 699, 1314, 1183, 1384
2473, 420, 1372, 1210, 1442
2474, 1151, 1006, 1137, 1437
2475, 856, 1198, 1308, 1382
2476, 959, 1291, 963, 1332
2477, 202, 736, 201, 1339
2478, 1186, 1248, 1231, 1440
2479, 629, 1338, 1199, 1395
2480, 1181, 1379, 1341, 1446
2481, 170, 1317, 169, 1405
2482, 605, 608, 1401, 1435
2483, 1028, 1017, 1047, 1273
2484, 282, 1275, 318, 1403
2485, 518, 1218, 1414, 1419
2486, 443, 533, 1233, 1324
2487, 411, 1230, 415, 1454
2488, 1102, 267, 1116, 1094
2489, 262, 1097, 1101, 1082
2490, 1072, 1260, 1220, 1378
2491, 468, 518, 1218, 1414
2492, 995, 1356, 992, 1393
2493, 792, 1227, 791, 1375
2494, 419, 1245, 381, 1318
2495, 77, 377, 364, 741
2496, 265, 1114, 1099, 1117
2497, 1080, 1100, 1083, 260
2498, 1266, 1284, 1222, 1307
2499, 1098, 265, 1099, 1117
2500, 1100, 1095, 1083, 260
2501, 1087, 1077, 1226, 1360
2502, 416, 368, 1305, 1402
2503, 756, 673, 384, 1248
2504, 360, 802, 424, 1293
2505, 1046, 1219, 1019, 1458
2506, 1025, 1023, 1024, 1299
2507, 248, 1012, 1132, 1134
2508, 1138, 1129, 974, 240
2509, 1225, 1350, 780, 1388
2510, 419, 1245, 1318, 1449
2511, 195, 1055, 1050, 1258
2512, 979, 1316, 998, 1437
2513, 476, 1238, 474, 1446
2514, 1190, 1406, 1302, 1425
2515, 1168, 1412, 1261, 1453
2516, 325, 332, 284, 1242
2517, 582, 584, 627, 1235
2518, 1185, 1277, 1232, 1371
2519, 380, 879, 911, 1400
2520, 746, 1327, 1361, 1397
2521, 1095, 1109, 1103, 1226
2522, 635, 648, 1261, 1453
2523, 419, 406, 369, 1318
2524, 1271, 1303, 1191, 1396
2525, 1208, 1327, 739, 1397
2526, 1266, 1307, 1222, 1441
2527, 928, 944, 144, 492
2528, 1066, 1056, 1055, 1258
2529, 643, 614, 567, 1395
2530, 1323, 1359, 1176, 1392
2531, 1019, 1016, 313, 1263
2532, 899, 837, 843, 1244
2533, 618, 177, 946, 933
2534, 829, 800, 913, 1228
2535, 888, 834, 1287, 1449
2536, 494, 440, 515, 1428
2537, 1231, 1248, 1211, 1385
2538, 1289, 1377, 1204, 1396
2539, 307, 39, 563, 309
2540, 1145, 1147, 1325, 1393
2541, 1178, 1311, 1218, 1336
2542, 1189, 1280, 1221, 1328
2543, 313, 1016, 174, 1263
2544, 1222, 1307, 1284, 1441
2545, 1099, 1105, 1098, 1254
2546, 461, 463, 462, 1343
2547, 959, 1291, 1332, 1390
2548, 150, 939, 942, 485
2549, 1145, 1132, 1232, 1325
2550, 1218, 1296, 644, 1368
2551, 752, 1346, 1210, 1432
2552, 598, 1415, 599, 1438
2553, 886, 1278, 1210, 1345
2554, 834, 1287, 1202, 1367
2555, 362, 884, 101, 390
2556, 351, 750, 73, 391
2557, 1185, 1027, 1304, 1371
2558, 491, 480, 516, 1216
2559, 606, 617, 642, 1216
2560, 177, 618, 569, 933
2561, 443, 144, 944, 492
2562, 487, 497, 519, 1282
2563, 1180, 1288, 1218, 1311
2564, 165, 1029, 1150, 1262
2565, 33, 646, 561, 277
2566, 364, 425, 407, 1440
2567, 389, 420, 350, 1442
2568, 393, 903, 98, 357
2569, 1292, 1319, 1180, 1415
2570, 759, 758, 381, 1305
2571, 276, 290, 1200, 1370
2572, 1132, 1232, 1032, 1426
2573, 1023, 1021, 1264, 1398
2574, 232, 231, 1364, 1396
2575, 671, 1230, 367, 1361
2576, 98, 814, 903, 393
2577, 432, 948, 528, 1259
2578, 1134, 249, 1012, 1135
2579, 609, 605, 1387, 1435
2580, 524, 1337, 508, 1403
2581, 642, 1216, 617, 1319
2582, 430, 155, 925, 500
2583, 364, 384, 673, 1248
2584, 1203, 1374, 861, 1457
2585, 349, 670, 379, 1318
2586, 1114, 1117, 1121, 1254
2587, 1106, 1104, 1094, 1268
2588, 858, 871, 810, 1206
2589, 737, 724, 676, 1206
2590, 1162, 1298, 1297, 1299
2591, 569, 659, 1351, 1355
2592, 717, 684, 763, 1213
2593, 366, 1391, 879, 1400
2594, 446, 527, 512, 1352
2595, 451, 438, 1411, 1429
2596, 852, 869, 916, 1396
2597, 859, 1334, 891, 1433
2598, 359, 390, 100, 1372
2599, 899, 851, 1049, 1244
2600, 1230, 411, 1361, 1454
2601, 1218, 1288, 594, 1311
2602, 858, 842, 871, 1382
2603, 470, 471, 472, 1369
2604, 232, 231, 1112, 1364
2605, 565, 621, 608, 1401
2606, 806, 348, 111, 376
2607, 83, 365, 672, 375
2608, 1092, 1083, 1086, 1226
2609, 997, 1005, 972, 1297
2610, 672, 365, 781, 1333
2611, 806, 915, 348, 1334
2612, 582, 1338, 579, 1453
2613, 1078, 206, 207, 1408
2614, 1183, 1314, 1283, 1445
2615, 724, 1206, 1272, 1346
2616, 760, 669, 389, 1442
2617, 1209, 1330, 1255, 1413
2618, 597, 596, 1236, 1311
2619, 225, 1019, 341, 1458
2620, 1173, 1294, 1276, 1348
2621, 736, 202, 676, 1240
2622, 750, 677, 391, 1357
2623, 893, 1402, 892, 1431
2624, 1057, 1067, 1072, 1378
2625, 1274, 1312, 1165, 1431
2626, 1135, 250, 1030, 1128
2627, 878, 826, 855, 1392
2628, 1239, 1359, 820, 1365
2629, 121, 369, 361, 908
2630, 347, 379, 94, 774
2631, 1246, 1421, 745, 1443
2632, 324, 318, 282, 1275
2633, 1207, 1356, 1255, 1422
2634, 441, 53, 275, 295
2635, 899, 843, 897, 1244
2636, 1166, 1374, 1286, 1388
2637, 668, 1344, 732, 1424
2638, 361, 396, 122, 908
2639, 646, 33, 299, 277
2640, 682, 684, 1258, 1353
2641, 953, 969, 1233, 1324
2642, 829, 830, 1251, 1322
2643, 783, 745, 1421, 1443
2644, 134, 450, 133, 1321
2645, 1138, 1145, 1146, 1452
2646, 822, 876, 855, 1392
2647, 1283, 1314, 1175, 1445
2648, 969, 944, 953, 1233
2649, 366, 879, 380, 1400
2650, 786, 1432, 1210, 1442
2651, 1196, 1359, 1323, 1392
2652, 854, 883, 905, 1249
2653, 465, 464, 1266, 1419
2654, 1196, 1270, 1239, 1327
2655, 284, 567, 28, 305
2656, 469, 1222, 487, 1266
2657, 959, 1332, 945, 1390
2658, 1221, 1280, 1189, 1455
2659, 468, 1218, 518, 1419
2660, 953, 1233, 933, 1351
2661, 908, 396, 813, 1331
2662, 626, 556, 188, 951
2663, 1133, 246, 1036, 1139
2664, 1041, 1232, 1032, 1325
2665, 363, 410, 373, 1237
2666, 235, 1262, 1324, 1351
2667, 754, 709, 710, 1407
2668, 1116, 1114, 1122, 1254
2669, 941, 616, 1291, 1423
2670, 1019, 1022, 1016, 1398
2671, 1163, 1304, 1300, 1317
2672, 877, 1231, 1406, 1445
2673, 1222, 1284, 1266, 1358
2674, 1011, 1036, 246, 1139
2675, 961, 962, 940, 1420
2676, 359, 894, 99, 393
2677, 350, 760, 71, 389
2678, 423, 347, 382, 1265
2679, 857, 858, 920, 1382
2680, 369, 121, 804, 908
2681, 451, 1411, 1247, 1429
2682, 1221, 1376, 1328, 1434
2683, 1199, 1338, 1235, 1340
2684, 829, 913, 923, 1322
2685, 236, 235, 1262, 1324
2686, 869, 868, 916, 1367
2687, 1076, 909, 253, 1249
2688, 665, 1053, 1063, 192
2689, 1217, 1409, 507, 1416
2690, 1098, 1105, 1103, 1226
2691, 331, 283, 319, 1279
2692, 866, 802, 914, 1293
2693, 126, 125, 397, 1377
2694, 1039, 173, 1016, 1263
2695, 1210, 1278, 421, 1432
2696, 320, 54, 275, 1380
2697, 1236, 1369, 1292, 1450
2698, 744, 777, 671, 1230
2699, 854, 1052, 828, 1251
2700, 236, 1324, 1262, 1349
2701, 866, 846, 875, 1293
2702, 280, 638, 335, 1269
2703, 396, 1331, 1265, 1335
2704, 1089, 1082, 1084, 1268
2705, 880, 1237, 918, 1454
2706, 402, 376, 405, 1433
2707, 1008, 1219, 981, 1354
2708, 531, 311, 343, 1409
2709, 979, 1252, 1316, 1437
2710, 1067, 1260, 1072, 1378
2711, 894, 814, 99, 393
2712, 680, 760, 71, 350
2713, 1055, 195, 681, 1258
2714, 1154, 1155, 1157, 1226
2715, 1075, 775, 720, 1376
2716, 1173, 1307, 1342, 1348
2717, 135, 447, 442, 1366
2718, 1145, 1232, 1146, 1452
2719, 647, 1284, 595, 1441
2720, 1222, 1394, 1178, 1441
2721, 597, 1236, 598, 1438
2722, 877, 1231, 845, 1406
2723, 330, 285, 304, 1380
2724, 1031, 1325, 1207, 1371
2725, 329, 296, 280, 1269
2726, 1182, 1301, 1219, 1398
2727, 949, 516, 932, 1285
2728, 589, 1296, 644, 1336
2729, 1088, 1080, 1082, 1268
2730, 1182, 1219, 1301, 1339
2731, 861, 1374, 825, 1457
2732, 948, 432, 930, 1259
2733, 745, 744, 714, 1246
2734, 1213, 1190, 1373, 1448
2735, 327, 306, 328, 1222
2736, 935, 939, 151, 431
2737, 184, 557, 926, 947
2738, 890, 1385, 383, 1440
2739, 869, 232, 809, 1396
2740, 1050, 196, 764, 1061
2741, 236, 235, 1324, 1351
2742, 511, 444, 505, 1460
2743, 1284, 1307, 1266, 1358
2744, 758, 92, 381, 670
2745, 1001, 139, 972, 1241
2746, 819, 825, 824, 1456
2747, 1071, 1064, 1058, 1251
2748, 249, 1030, 1012, 1135
2749, 1213, 1353, 684, 1448
2750, 442, 1321, 1366, 1411
2751, 887, 868, 834, 1367
2752, 743, 748, 730, 1283
2753, 634, 563, 39, 309
2754, 505, 1267, 1229, 1460
2755, 1297, 1298, 1185, 1299
2756, 250, 1018, 1030, 1128
2757, 850, 913, 800, 1228
2758, 305, 614, 29, 285
2759, 1176, 1295, 1323, 1436
2760, 168, 1330, 1209, 1405
2761, 976, 1163, 1298, 1300
2762, 1032, 1426, 1232, 1427
2763, 961, 1285, 962, 1420
2764, 494, 543, 440, 1428
2765, 1099, 1094, 1104, 1254
2766, 623, 1256, 613, 1394
2767, 531, 513, 311, 1409
2768, 1221, 1189, 1328, 1455
2769, 995, 992, 993, 1393
2770, 999, 1316, 1399, 1452
2771, 422, 1265, 396, 1331
2772, 526, 435, 538, 1418
2773, 1149, 1426, 1316, 1452
2774, 374, 1361, 410, 1397
2775, 1243, 1416, 1217, 1435
2776, 611, 596, 594, 1311
2777, 893, 910, 808, 1402
2778, 1149, 1146, 1426, 1452
2779, 1273, 1316, 1252, 1437
2780, 706, 705, 704, 1281
2781, 354, 1246, 745, 1443
2782, 499, 932, 516, 1285
2783, 763, 1213, 684, 1448
2784, 336, 319, 65, 437
2785, 582, 1235, 1338, 1453
2786, 285, 560, 30, 303
2787, 341, 19, 225, 1458
2788, 414, 1246, 404, 1391
2789, 604, 601, 1341, 1379
2790, 389, 669, 72, 351
2791, 447, 1352, 486, 1366
2792, 617, 1319, 1216, 1415
2793, 1086, 1087, 1077, 1226
2794, 384, 407, 417, 1248
2795, 1298, 1299, 1162, 1304
2796, 1298, 1371, 1163, 1422
2797, 491, 1292, 1216, 1439
2798, 1274, 1312, 1167, 1447
2799, 274, 1409, 339, 1451
2800, 902, 424, 802, 1293
2801, 1155, 1226, 1154, 1410
2802, 1185, 1298, 1277, 1371
2803, 726, 691, 725, 1253
2804, 714, 692, 693, 1421
2805, 1163, 1300, 976, 1413
2806, 926, 956, 947, 1319
2807, 1167, 1431, 1274, 1447
2808, 38, 622, 309, 286
2809, 905, 809, 233, 1303
2810, 1047, 1273, 1036, 1426
2811, 1220, 1183, 1313, 1314
2812, 466, 465, 464, 1266
2813, 288, 59, 315, 506
2814, 765, 1059, 1053, 193
2815, 1046, 1301, 1013, 1398
2816, 295, 486, 52, 281
2817, 1188, 1221, 1303, 1434
2818, 506, 59, 315, 435
2819, 417, 1248, 407, 1385
2820, 1176, 1270, 1223, 1359
2821, 1014, 1304, 1163, 1317
2822, 302, 333, 277, 1284
2823, 1300, 1304, 1162, 1317
2824, 647, 279, 302, 1284
2825, 495, 439, 482, 1279
2826, 364, 673, 77, 741
2827, 380, 116, 911, 879
2828, 392, 777, 88, 745
2829, 1183, 1314, 1220, 1384
2830, 845, 877, 882, 1231
2831, 100, 894, 359, 1372
2832, 649, 631, 610, 1387
2833, 897, 851, 899, 1244
2834, 537, 139, 49, 301
2835, 559, 618, 178, 936
2836, 534, 430, 499, 1285
2837, 589, 644, 591, 1336
2838, 638, 280, 663, 1269
2839, 1145, 1129, 1147, 1393
2840, 333, 328, 288, 1284
2841, 1249, 1328, 1221, 1376
2842, 1219, 1339, 1195, 1458
2843, 291, 174, 1016, 1263
2844, 195, 1050, 667, 1258
2845, 679, 347, 94, 774
2846, 569, 970, 933, 1351
2847, 581, 582, 579, 1453
2848, 890, 383, 807, 1440
2849, 310, 621, 41, 565
2850, 908, 396, 122, 813
2851, 344, 374, 410, 1397
2852, 1277, 1371, 1298, 1422
2853, 1016, 173, 291, 1263
2854, 1145, 1134, 1132, 1325
2855, 726, 727, 691, 1253
2856, 1167, 1312, 1274, 1431
2857, 745, 1246, 714, 1421
2858, 1065, 898, 221, 1054
2859, 678, 784, 85, 344
2860, 313, 174, 291, 1263
2861, 203, 676, 1240, 1459
2862, 307, 1275, 563, 1362
2863, 1071, 1060, 1052, 1251
2864, 1057, 1049, 899, 218
2865, 640, 1288, 594, 1368
2866, 559, 635, 618, 1261
2867, 423, 1265, 1289, 1335
2868, 979, 998, 1006, 1437
2869, 652, 1276, 586, 1348
2870, 605, 604, 1341, 1401
2871, 372, 1391, 401, 1402
2872, 878, 879, 848, 1400
2873, 1206, 1345, 1272, 1346
2874, 1272, 1345, 1210, 1346
2875, 917, 848, 879, 1391
2876, 1139, 1132, 247, 1426
2877, 1023, 1045, 1022, 1398
2878, 248, 1012, 1032, 1132
2879, 974, 994, 1138, 240
2880, 571, 633, 1243, 1451
2881, 1190, 1320, 1302, 1406
2882, 1313, 1314, 1183, 1445
2883, 571, 657, 639, 1243
2884, 1174, 1353, 1306, 1457
2885, 297, 51, 446, 281
2886, 653, 170, 169, 1405
2887, 699, 761, 1314, 1384
2888, 354, 414, 392, 1246
2889, 1186, 1293, 1225, 1344
2890, 159, 571, 544, 548
2891, 539, 128, 545, 445
2892, 320, 488, 54, 1380
2893, 671, 721, 1230, 1361
2894, 626, 189, 931, 951
2895, 384, 75, 756, 353
2896, 1214, 1387, 1224, 1435
2897, 1074, 1063, 694, 1383
2898, 1225, 1293, 1186, 1320
2899, 1171, 1300, 1269, 1317
2900, 1261, 1291, 1193, 1332
2901, 631, 649, 626, 1290
2902, 282, 63, 293, 496
2903, 1237, 1361, 1327, 1397
2904, 410, 1237, 1361, 1454
2905, 1128, 251, 1018, 1140
2906, 165, 166, 1029, 1262
2907, 351, 408, 389, 1442
2908, 959, 963, 945, 1332
2909, 937, 654, 180, 1423
2910, 1225, 1388, 780, 1424
2911, 979, 203, 1252, 1437
2912, 308, 307, 1362, 1403
2913, 1209, 1330, 168, 1404
2914, 410, 1397, 1237, 1433
2915, 760, 669, 72, 389
2916, 859, 891, 873, 1433
2917, 880, 812, 1237, 1433
2918, 1064, 1052, 1076, 1249
2919, 1240, 1252, 1205, 1381
2920, 632, 647, 302, 1284
2921, 165, 1262, 235, 1351
2922, 1247, 1411, 1201, 1429
2923, 622, 634, 38, 309
2924, 521, 1222, 469, 1358
2925, 1185, 1299, 1298, 1304
2926, 1307, 1336, 590, 1441
2927, 471, 1369, 1282, 1450
2928, 597, 596, 598, 1236
2929, 1287, 1367, 834, 1455
2930, 890, 104, 807, 383
2931, 76, 756, 673, 384
2932, 165, 235, 636, 1351
2933, 757, 83, 672, 375
2934, 891, 806, 111, 376
2935, 1269, 1300, 1162, 1317
2936, 618, 648, 569, 1261
2937, 1264, 1299, 1185, 1427
2938, 660, 619, 606, 1420
2939, 437, 319, 65, 495
2940, 626, 189, 570, 931
2941, 1102, 1096, 1106, 1227
2942, 1306, 1353, 1213, 1457
2943, 1037, 1426, 1032, 1427
2944, 1203, 1350, 1225, 1388
2945, 1277, 1325, 1232, 1371
2946, 780, 1350, 773, 1388
2947, 560, 30, 614, 285
2948, 410, 402, 1397, 1433
2949, 469, 1222, 1266, 1358
2950, 705, 789, 779, 1281
2951, 410, 1361, 411, 1454
2952, 1118, 1123, 1113, 1227
2953, 832, 1287, 834, 1455
2954, 183, 954, 926, 1288
2955, 803, 101, 884, 390
2956, 750, 73, 669, 351
2957, 533, 522, 1233, 1429
2958, 442, 1366, 449, 1411
2959, 932, 950, 962, 1285
2960, 990, 979, 982, 1252
2961, 695, 1260, 696, 1314
2962, 1053, 1063, 1072, 1260
2963, 480, 474, 476, 1238
2964, 100, 390, 803, 1372
2965, 374, 85, 784, 344
2966, 530, 437, 495, 1403
2967, 1253, 1374, 1203, 1457
2968, 380, 366, 116, 879
2969, 354, 392, 88, 745
2970, 1175, 1314, 1313, 1445
2971, 1163, 1298, 1300, 1304
2972, 558, 937, 966, 1423
2973, 912, 802, 360, 1286
2974, 118, 372, 356, 893
2975, 371, 90, 368, 759
2976, 898, 801, 817, 1223
2977, 1282, 1394, 1197, 1438
2978, 543, 547, 440, 1428
2979, 807, 383, 345, 1440
2980, 1298, 1304, 1163, 1371
2981, 37, 562, 286, 294
2982, 388, 1278, 398, 1315
2983, 1176, 1310, 1295, 1436
2984, 933, 953, 965, 1233
2985, 694, 665, 1063, 192
2986, 739, 725, 690, 1327
2987, 530, 495, 1279, 1403
2988, 964, 938, 952, 1460
2989, 410, 1361, 1237, 1397
2990, 408, 1372, 420, 1442
2991, 1182, 1252, 1240, 1381
2992, 592, 590, 1336, 1441
2993, 695, 694, 665, 1260
2994, 361, 369, 406, 1331
2995, 964, 1229, 1290, 1460
2996, 597, 598, 599, 1438
2997, 452, 453, 451, 1247
2998, 370, 863, 912, 1286
2999, 1032, 247, 1132, 1426
3000, 860, 1374, 1334, 1456
3001, 983, 984, 985, 1326
3002, 680, 1432, 786, 1442
3003, 893, 118, 372, 808
3004, 90, 371, 674, 759
3005, 1193, 1347, 1235, 1453
3006, 336, 437, 64, 1403
3007, 408, 420, 389, 1442
3008, 522, 1412, 1233, 1429
3009, 911, 355, 380, 1400
3010, 571, 1243, 639, 1451
3011, 388, 421, 1278, 1432
3012, 103, 383, 890, 1385
3013, 635, 581, 648, 1453
3014, 650, 563, 1275, 1362
3015, 933, 965, 946, 1261
3016, 485, 942, 150, 514
3017, 885, 861, 825, 1457
3018, 597, 593, 596, 1311
3019, 64, 282, 336, 1403
3020, 774, 670, 753, 1318
3021, 1239, 1270, 1196, 1359
3022, 220, 1070, 801, 1065
3023, 1164, 1295, 1310, 1436
3024, 949, 932, 961, 1285
3025, 587, 585, 588, 1309
3026, 1068, 1060, 1071, 1228
3027, 636, 970, 569, 1351
3028, 1045, 1039, 1016, 1263
3029, 679, 753, 734, 1265
3030, 667, 681, 195, 1258
3031, 400, 424, 902, 1293
3032, 927, 642, 947, 1319
3033, 1060, 828, 223, 1052
3034, 198, 704, 1048, 1058
3035, 1263, 1354, 1219, 1398
3036, 593, 592, 591, 1336
3037, 1241, 1263, 1170, 1354
3038, 1220, 1384, 1383, 1459
3039, 172, 24, 280, 663
3040, 558, 966, 1368, 1423
3041, 396, 813, 1331, 1335
3042, 440, 547, 511, 1428
3043, 659, 564, 1351, 1355
3044, 1184, 1342, 1307, 1348
3045, 783, 745, 714, 1421
3046, 173, 1016, 291, 174
3047, 877, 845, 839, 1406
3048, 141, 140, 978, 278
3049, 654, 937, 558, 1423
3050, 384, 673, 76, 364
3051, 104, 807, 383, 345
3052, 805, 355, 911, 1400
3053, 877, 1406, 839, 1445
3054, 572, 1405, 1242, 1444
3055, 764, 1061, 716, 1257
3056, 293, 62, 287, 436
3057, 311, 274, 343, 1409
3058, 308, 318, 307, 1403
3059, 204, 766, 738, 1383
3060, 569, 648, 659, 1355
3061, 1175, 1231, 1283, 1445
3062, 704, 720, 706, 1328
3063, 1149, 1130, 1146, 1452
3064, 292, 537, 49, 301
3065, 996, 1298, 976, 1422
3066, 593, 591, 1311, 1336
3067, 995, 996, 1255, 1422
3068, 274, 339, 312, 1451
3069, 1169, 1426, 1232, 1452
3070, 1029, 1038, 1018, 1250
3071, 862, 863, 860, 1374
3072, 382, 347, 95, 770
3073, 1149, 1273, 1142, 1316
3074, 440, 511, 505, 1428
3075, 387, 109, 370, 863
3076, 615, 635, 559, 1291
3077, 775, 254, 209, 1376
3078, 853, 1278, 886, 1345
3079, 54, 441, 275, 1380
3080, 1029, 1018, 251, 1140
3081, 836, 837, 799, 1378
3082, 1162, 1300, 1298, 1304
3083, 690, 686, 742, 1327
3084, 319, 283, 66, 439
3085, 496, 282, 63, 508
3086, 1178, 1266, 1222, 1441
3087, 1032, 1011, 247, 1426
3088, 1149, 1316, 1130, 1452
3089, 1162, 1300, 1269, 1389
3090, 522, 443, 533, 1233
3091, 1187, 1227, 1364, 1408
3092, 1187, 1375, 1227, 1408
3093, 531, 445, 513, 1409
3094, 352, 81, 386, 729
3095, 125, 230, 921, 1377
3096, 1197, 1438, 1337, 1450
3097, 1132, 1146, 1232, 1426
3098, 726, 729, 728, 1388
3099, 613, 623, 562, 1256
3100, 358, 1335, 397, 1377
3101, 478, 1417, 479, 1446
3102, 1245, 1305, 1167, 1431
3103, 951, 934, 960, 1290
3104, 467, 519, 471, 1369
3105, 400, 902, 875, 1293
3106, 1103, 1105, 1095, 1226
3107, 165, 564, 1262, 1351
3108, 740, 767, 1350, 1448
3109, 53, 441, 486, 295
3110, 452, 453, 1247, 1340
3111, 838, 1313, 841, 1445
3112, 709, 785, 707, 1407
3113, 815, 851, 818, 1306
3114, 1228, 1281, 1164, 1322
3115, 321, 280, 335, 1269
3116, 597, 1394, 1236, 1438
3117, 505, 523, 1267, 1460
3118, 397, 1335, 1289, 1377
3119, 404, 1246, 354, 1443
3120, 1139, 247, 1011, 1426
3121, 916, 868, 813, 1335
3122, 815, 220, 1070, 801
3123, 1024, 1264, 1028, 1427
3124, 650, 601, 604, 1379
3125, 864, 811, 882, 1385
3126, 734, 710, 733, 1280
3127, 55, 320, 337, 434
3128, 404, 1391, 1246, 1443
3129, 1047, 1036, 1011, 1426
3130, 1141, 236, 1262, 1349
3131, 366, 414, 404, 1391
3132, 103, 394, 383, 1385
3133, 404, 401, 372, 1391
3134, 415, 1230, 1400, 1454
3135, 740, 767, 773, 1350
3136, 414, 354, 404, 1246
3137, 605, 609, 608, 1435
3138, 198, 704, 666, 1048
3139, 828, 223, 800, 1060
3140, 867, 834, 1367, 1455
3141, 567, 28, 612, 284
3142, 755, 1305, 715, 1312
3143, 730, 677, 750, 1430
3144, 533, 454, 522, 1429
3145, 174, 1016, 313, 1019
3146, 141, 978, 981, 314
3147, 454, 1412, 522, 1429
3148, 1234, 1366, 1321, 1411
3149, 824, 1239, 820, 1365
3150, 776, 783, 715, 1421
3151, 548, 541, 552, 1243
3152, 135, 977, 1002, 1413
3153, 1282, 1369, 1236, 1450
3154, 27, 316, 612, 284
3155, 844, 847, 874, 1320
3156, 782, 679, 734, 1265
3157, 508, 64, 437, 1403
3158, 951, 964, 931, 1290
3159, 100, 803, 894, 1372
3160, 276, 317, 290, 1370
3161, 716, 762, 1257, 1295
3162, 988, 1277, 1003, 1399
3163, 937, 180, 941, 1423
3164, 1164, 1281, 1228, 1295
3165, 1089, 1375, 1085, 1408
3166, 456, 455, 453, 1347
3167, 867, 832, 834, 1455
3168, 170, 1269, 171, 1317
3169, 576, 1234, 568, 1404
3170, 518, 1259, 498, 1419
3171, 1173, 1342, 1294, 1348
3172, 936, 963, 959, 1291
3173, 1303, 1360, 1191, 1363
3174, 486, 446, 52, 281
3175, 889, 892, 1245, 1431
3176, 32, 628, 646, 299
3177, 512, 51, 446, 297
3178, 776, 759, 674, 1305
3179, 653, 638, 170, 1444
3180, 955, 1368, 1259, 1414
3181, 703, 698, 702, 1425
3182, 1230, 1361, 1237, 1454
3183, 55, 320, 434, 488
3184, 1197, 1282, 1256, 1394
3185, 557, 947, 642, 1319
3186, 510, 236, 132, 1324
3187, 1337, 1438, 1194, 1450
3188, 1087, 1086, 1083, 1226
3189, 168, 169, 1330, 1405
3190, 460, 1294, 526, 1342
3191, 86, 374, 784, 1361
3192, 687, 688, 686, 1270
3193, 1244, 1260, 1175, 1425
3194, 398, 19, 20, 1315
3195, 64, 508, 282, 1403
3196, 895, 840, 836, 1313
3197, 695, 699, 761, 1314
3198, 1203, 1373, 1350, 1448
3199, 909, 1076, 854, 1249
3200, 1218, 1296, 1259, 1419
3201, 1188, 1360, 1303, 1363
3202, 922, 429, 903, 1278
3203, 574, 568, 575, 1234
3204, 880, 1237, 873, 1433
3205, 1251, 1281, 1228, 1322
3206, 1151, 1137, 1142, 1437
3207, 823, 865, 896, 1310
3208, 346, 399, 378, 1344
3209, 366, 380, 414, 1400
3210, 1310, 1323, 1176, 1392
3211, 768, 732, 668, 1344
3212, 1191, 1360, 1303, 1434
3213, 160, 620, 542, 544
3214, 129, 539, 543, 494
3215, 1180, 1292, 1236, 1369
3216, 545, 541, 550, 1243
3217, 614, 29, 567, 305
3218, 323, 278, 338, 1263
3219, 1169, 1316, 1426, 1452
3220, 1269, 1300, 1171, 1389
3221, 1042, 170, 171, 1317
3222, 1122, 1112, 1123, 1364
3223, 880, 873, 812, 1433
3224, 765, 763, 702, 1425
3225, 903, 814, 886, 1278
3226, 410, 1237, 363, 1433
3227, 1170, 1263, 1241, 1386
3228, 1242, 1405, 1352, 1444
3229, 1169, 1232, 1399, 1452
3230, 607, 646, 628, 1276
3231, 280, 296, 24, 172
3232, 1218, 1336, 1296, 1419
3233, 1036, 1044, 1133, 1273
3234, 186, 625, 642, 940
3235, 516, 932, 499, 153
3236, 1185, 1304, 1298, 1371
3237, 841, 1308, 864, 1445
3238, 279, 328, 302, 1284
3239, 477, 1337, 473, 1450
3240, 395, 416, 1245, 1402
3241, 832, 831, 833, 1287
3242, 485, 151, 939, 431
3243, 184, 557, 611, 926
3244, 927, 186, 642, 940
3245, 516, 949, 932, 153
3246, 927, 642, 185, 947
3247, 170, 638, 171, 1269
3248, 477, 508, 524, 1337
3249, 466, 469, 487, 1266
3250, 1190, 1350, 1373, 1448
3251, 530, 1279, 482, 1417
3252, 133, 991, 1000, 1349
3253, 982, 979, 203, 1252
3254, 452, 1247, 451, 1411
3255, 440, 505, 515, 1428
3256, 571, 639, 633, 1451
3257, 1220, 1313, 1260, 1314
3258, 679, 95, 347, 770
3259, 1273, 1316, 1149, 1426
3260, 808, 910, 917, 1391
3261, 1071, 1052, 1064, 1251
3262, 955, 1368, 966, 1423
3263, 399, 1293, 378, 1344
3264, 373, 1237, 410, 1454
3265, 360, 424, 399, 1293
3266, 488, 441, 54, 1380
3267, 495, 319, 66, 439
3268, 1194, 1415, 1236, 1438
3269, 1242, 1352, 1209, 1366
3270, 521, 487, 469, 1222
3271, 159, 571, 620, 544
3272, 445, 539, 128, 494
3273, 310, 339, 331, 1451
3274, 995, 996, 977, 1255
3275, 1023, 1022, 1021, 1398
3276, 329, 301, 323, 1241
3277, 1176, 1323, 1310, 1436
3278, 456, 458, 457, 1347
3279, 1172, 1323, 1310, 1392
3280, 456, 453, 1340, 1347
3281, 1260, 1313, 1220, 1378
3282, 1188, 1303, 1360, 1434
3283, 587, 1307, 630, 1348
3284, 357, 421, 393, 1278
3285, 375, 84, 344, 1397
3286, 823, 1359, 822, 1392
3287, 929, 945, 146, 1390
3288, 236, 510, 969, 1324
3289, 721, 744, 671, 1230
3290, 1145, 1132, 1146, 1232
3291, 1100, 1105, 1104, 1254
3292, 1255, 1330, 1163, 1413
3293, 294, 286, 326, 1256
3294, 1278, 1315, 1195, 1458
3295, 701, 722, 723, 1272
3296, 606, 642, 625, 1420
3297, 1233, 1351, 1201, 1355
3298, 235, 970, 636, 1351
3299, 125, 921, 428, 1377
3300, 165, 636, 564, 1351
3301, 542, 566, 161, 546
3302, 543, 547, 130, 440
3303, 955, 966, 937, 1423
3304, 613, 647, 595, 1441
3305, 963, 1261, 965, 1332
3306, 955, 943, 1368, 1414
3307, 652, 561, 646, 1276
3308, 740, 713, 703, 1350
3309, 462, 489, 1343, 1390
3310, 587, 586, 585, 1348
3311, 1209, 1352, 1242, 1405
3312, 236, 1324, 953, 1351
3313, 20, 788, 427, 1315
3314, 1133, 1273, 1149, 1426
3315, 1040, 168, 169, 1330
3316, 715, 755, 776, 1305
3317, 1137, 1149, 1142, 1316
3318, 391, 677, 74, 353
3319, 102, 811, 362, 394
3320, 1203, 1374, 1253, 1388
3321, 1253, 1374, 1166, 1388
3322, 400, 105, 345, 1440
3323, 438, 533, 1324, 1429
3324, 227, 226, 870, 1301
3325, 1204, 1289, 1265, 1335
3326, 928, 963, 965, 1332
3327, 512, 527, 137, 1389
3328, 624, 1296, 588, 1423
3329, 183, 926, 611, 1288
3330, 357, 903, 429, 1278
3331, 360, 370, 912, 1286
3332, 1089, 1079, 1085, 1375
3333, 973, 1009, 999, 1316
3334, 1074, 694, 766, 1383
3335, 930, 955, 1259, 1414
3336, 696, 665, 765, 1260
3337, 940, 962, 934, 1420
3338, 840, 841, 838, 1313
3339, 699, 697, 700, 1314
3340, 37, 562, 622, 286
3341, 557, 185, 642, 947
3342, 652, 607, 586, 1276
3343, 86, 367, 374, 1361
3344, 1184, 1336, 1266, 1419
3345, 535, 477, 473, 1450
3346, 287, 61, 306, 521
3347, 323, 301, 278, 1241
3348, 623, 622, 562, 1256
3349, 1236, 1282, 1178, 1369
3350, 829, 830, 828, 1251
3351, 848, 917, 849, 1274
3352, 419, 381, 349, 1318
3353, 1188, 1226, 1360, 1363
3354, 1236, 1394, 1282, 1438
3355, 1201, 1233, 1324, 1351
3356, 708, 749, 733, 1280
3357, 1179, 1294, 1342, 1348
3358, 1038, 1033, 1018, 1250
3359, 936, 941, 179, 1291
3360, 1252, 1273, 1169, 1316
3361, 236, 953, 235, 1351
3362, 202, 203, 676, 1240
3363, 478, 479, 476, 1446
3364, 722, 750, 669, 1430
3365, 605, 608, 604, 1401
3366, 1226, 1363, 1188, 1410
3367, 410, 363, 402, 1433
3368, 1143, 1356, 1136, 1393
3369, 746, 739, 1327, 1397
3370, 1000, 980, 995, 1356
3371, 1310, 1323, 1172, 1436
3372, 1147, 1135, 1134, 1325
3373, 352, 1286, 413, 1424
3374, 1164, 1310, 1274, 1436
3375, 1175, 1260, 1313, 1314
3376, 1180, 1319, 1292, 1439
3377, 587, 590, 630, 1307
3378, 1169, 1399, 1316, 1452
3379, 897, 843, 874, 1373
3380, 427, 788, 769, 1315
3381, 576, 575, 568, 1234
3382, 910, 1402, 893, 1431
3383, 419, 416, 381, 1245
3384, 209, 775, 12, 254
3385, 234, 253, 16, 909
3386, 432, 1259, 518, 1414
3387, 105, 400, 875, 1440
3388, 1121, 1122, 1254, 1363
3389, 999, 973, 1316, 1452
3390, 1035, 1299, 1025, 1304
3391, 644, 640, 594, 1368
3392, 355, 115, 911, 380
3393, 367, 777, 87, 392
3394, 509, 433, 1332, 1390
3395, 243, 980, 1131, 1148
3396, 1160, 209, 12, 254
3397, 234, 1159, 16, 253
3398, 449, 1247, 452, 1411
3399, 705, 706, 707, 1281
3400, 474, 491, 472, 1292
3401, 1146, 1232, 1426, 1452
3402, 293, 62, 436, 496
3403, 930, 1259, 432, 1414
3404, 1274, 1312, 1164, 1436
3405, 476, 493, 480, 1238
3406, 677, 756, 75, 353
3407, 1165, 1312, 1274, 1421
3408, 1220, 1383, 1329, 1459
3409, 1153, 1133, 1044, 1273
3410, 769, 1315, 719, 1432
3411, 1190, 1302, 1320, 1350
3412, 668, 346, 79, 768
3413, 700, 697, 743, 1283
3414, 1136, 1144, 1250, 1356
3415, 836, 835, 895, 1378
3416, 302, 647, 35, 279
3417, 1091, 126, 5, 205
3418, 125, 1125, 6, 230
3419, 647, 35, 632, 302
3420, 289, 1279, 308, 1362
3421, 589, 591, 590, 1336
3422, 866, 902, 802, 1293
3423, 671, 86, 784, 1361
3424, 957, 1319, 956, 1439
3425, 1253, 1166, 1374, 1456
3426, 921, 904, 428, 1377
3427, 427, 769, 388, 1315
3428, 388, 1315, 769, 1432
3429, 165, 1150, 235, 1262
3430, 1274, 1310, 1172, 1436
3431, 1003, 988, 989, 1277
3432, 1296, 1336, 1184, 1419
3433, 1274, 1421, 1312, 1436
3434, 747, 1312, 693, 1436
3435, 617, 651, 1319, 1415
3436, 375, 757, 84, 1397
3437, 1261, 1412, 1193, 1453
3438, 656, 621, 1362, 1401
3439, 346, 78, 768, 1344
3440, 358, 904, 1335, 1377
3441, 738, 1383, 761, 1459
3442, 327, 326, 287, 1256
3443, 1106, 1097, 1104, 1268
3444, 805, 355, 1400, 1454
3445, 702, 1425, 763, 1448
3446, 1194, 1292, 1236, 1415
3447, 900, 872, 895, 1329
3448, 995, 977, 1000, 1255
3449, 678, 344, 84, 1397
3450, 1220, 1329, 1384, 1459
3451, 1128, 1144, 1140, 1250
3452, 57, 334, 520, 502
3453, 1250, 1255, 1207, 1356
3454, 805, 855, 880, 1454
3455, 393, 420, 359, 1372
3456, 573, 1242, 572, 1405
3457, 525, 470, 472, 1292
3458, 400, 106, 902, 424
3459, 987, 1297, 997, 1298
3460, 966, 954, 640, 1368
3461, 418, 413, 352, 1286
3462, 708, 1280, 710, 1407
3463, 1353, 1373, 1213, 1457
3464, 364, 407, 384, 1248
3465, 126, 5, 205, 787
3466, 230, 6, 125, 921
3467, 126, 1091, 5, 798
3468, 1125, 125, 6, 797
3469, 235, 1141, 236, 1262
3470, 1233, 1324, 533, 1429
3471, 297, 50, 292, 1389
3472, 955, 1259, 1368, 1423
3473, 731, 779, 789, 1295
3474, 79, 385, 346, 668
3475, 764, 667, 196, 1050
3476, 650, 1275, 603, 1379
3477, 288, 60, 506, 521
3478, 234, 1111, 1127, 1410
3479, 1203, 1353, 1373, 1448
3480, 731, 689, 1295, 1436
3481, 781, 386, 81, 729
3482, 109, 387, 915, 863
3483, 165, 10, 636, 235
3484, 236, 132, 8, 510
3485, 60, 288, 306, 521
3486, 12, 1093, 209, 1160
3487, 1159, 234, 16, 1127
3488, 536, 488, 434, 1380
3489, 634, 650, 563, 1275
3490, 537, 292, 50, 1389
3491, 459, 1342, 461, 1343
3492, 358, 428, 904, 1377
3493, 518, 498, 463, 1419
3494, 1069, 1054, 1068, 1257
3495, 954, 183, 640, 1288
3496, 1178, 1282, 1236, 1394
3497, 746, 1361, 678, 1397
3498, 711, 698, 703, 1302
3499, 611, 557, 651, 1319
3500, 208, 1360, 1081, 1434
3501, 959, 945, 929, 1390
3502, 947, 957, 927, 1319
3503, 979, 1009, 998, 1316
3504, 1213, 1373, 1353, 1448
3505, 398, 388, 421, 1278
3506, 816, 818, 885, 1457
3507, 683, 687, 686, 1270
3508, 504, 469, 1266, 1358
3509, 833, 888, 834, 1287
3510, 966, 954, 182, 640
3511, 504, 460, 526, 1342
3512, 1022, 1019, 1046, 1398
3513, 530, 495, 482, 1279
3514, 1053, 1072, 1067, 1260
3515, 468, 518, 465, 1419
3516, 628, 32, 290, 299
3517, 816, 1306, 818, 1457
3518, 1266, 1336, 1307, 1441
3519, 255, 256, 1142, 1437
3520, 401, 404, 371, 1443
3521, 1183, 1308, 1283, 1430
3522, 899, 799, 1057, 218
3523, 415, 1400, 355, 1454
3524, 525, 1292, 491, 1439
3525, 616, 179, 941, 1291
3526, 1193, 1332, 1291, 1390
3527, 346, 377, 78, 1344
3528, 432, 149, 930, 1414
3529, 1121, 1115, 1122, 1363
3530, 1197, 1282, 1438, 1450
3531, 764, 716, 762, 1257
3532, 1279, 1401, 1217, 1417
3533, 930, 943, 955, 1414
3534, 1172, 1421, 1274, 1436
3535, 637, 161, 566, 546
3536, 440, 547, 130, 511
3537, 821, 822, 823, 1359
3538, 331, 308, 289, 1279
3539, 1352, 1405, 1171, 1444
3540, 1223, 1359, 1270, 1365
3541, 27, 316, 572, 612
3542, 1184, 1307, 1266, 1336
3543, 381, 368, 91, 759
3544, 119, 356, 395, 893
3545, 395, 356, 416, 1402
3546, 460, 461, 459, 1342
3547, 665, 765, 1053, 193
3548, 461, 504, 464, 1342
3549, 311, 67, 283, 1409
3550, 1168, 1338, 1235, 1453
3551, 792, 791, 793, 1375
3552, 1040, 1034, 1015, 1330
3553, 965, 953, 944, 1233
3554, 948, 432, 528, 148
3555, 817, 820, 1359, 1365
3556, 671, 367, 86, 1361
3557, 1334, 1374, 1166, 1456
3558, 1194, 1379, 1337, 1446
3559, 969, 236, 8, 510
3560, 970, 636, 10, 235
3561, 684, 681, 682, 1258
3562, 993, 1393, 1277, 1422
3563, 105, 875, 807, 1440
3564, 520, 526, 1294, 1418
3565, 1203, 1373, 1353, 1457
3566, 638, 663, 171, 1269
3567, 914, 802, 912, 1286
3568, 1133, 1149, 1139, 1426
3569, 558, 654, 181, 937
3570, 205, 1085, 1091, 1375
3571, 687, 689, 688, 1323
3572, 807, 345, 105, 1440
3573, 918, 373, 114, 1454
3574, 1143, 1136, 1147, 1393
3575, 1143, 242, 1148, 1356
3576, 757, 678, 84, 1397
3577, 775, 1075, 254, 1376
3578, 1280, 1287, 1202, 1407
3579, 724, 1272, 786, 1346
3580, 726, 728, 727, 1388
3581, 1221, 1367, 1280, 1455
3582, 1143, 992, 242, 1356
3583, 817, 820, 821, 1359
3584, 1173, 1307, 1284, 1358
3585, 988, 1003, 994, 1399
3586, 945, 433, 146, 1390
3587, 234, 909, 905, 1249
3588, 447, 486, 448, 1366
3589, 1337, 1379, 1194, 1438
3590, 1063, 694, 191, 1074
3591, 216, 835, 1062, 1073
3592, 106, 400, 902, 875
3593, 1216, 1319, 1292, 1415
3594, 243, 980, 991, 1131
3595, 716, 197, 1048, 1061
3596, 443, 969, 143, 510
3597, 636, 176, 569, 970
3598, 600, 617, 606, 1415
3599, 693, 1312, 1421, 1436
3600, 768, 78, 741, 1344
3601, 953, 1324, 1233, 1351
3602, 1115, 233, 1303, 1363
3603, 1219, 1301, 1339, 1458
3604, 1197, 1379, 1337, 1438
3605, 1277, 1298, 989, 1422
3606, 406, 349, 379, 1318
3607, 1195, 1339, 1301, 1458
3608, 780, 668, 732, 1424
3609, 1041, 1027, 1026, 1371
3610, 126, 798, 793, 1375
3611, 432, 948, 930, 148
3612, 1012, 1041, 1032, 1325
3613, 396, 1265, 423, 1335
3614, 208, 771, 1376, 1434
3615, 1341, 1417, 1181, 1446
3616, 422, 379, 347, 1265
3617, 222, 850, 1060, 1054
3618, 61, 287, 436, 521
3619, 841, 864, 877, 1445
3620, 1201, 1324, 1233, 1429
3621, 624, 1368, 1296, 1423
3622, 1236, 1292, 1194, 1450
3623, 564, 166, 165, 1262
3624, 526, 481, 520, 1294
3625, 1144, 1128, 1136, 1250
3626, 1236, 1311, 1180, 1369
3627, 805, 115, 911, 355
3628, 671, 777, 87, 367
3629, 948, 930, 955, 1259
3630, 334, 57, 276, 502
3631, 609, 605, 610, 1387
3632, 410, 374, 411, 1361
3633, 990, 983, 986, 1326
3634, 780, 713, 773, 1350
3635, 350, 420, 421, 1432
3636, 695, 665, 696, 1260
3637, 136, 447, 135, 1413
3638, 1169, 1316, 1273, 1426
3639, 943, 1288, 954, 1368
3640, 396, 422, 423, 1265
3641, 504, 469, 464, 1266
3642, 316, 332, 298, 1444
3643, 351, 391, 409, 1357
3644, 391, 353, 412, 1357
3645, 898, 221, 801, 1065
3646, 873, 824, 859, 1456
3647, 634, 603, 650, 1275
3648, 813, 868, 887, 1331
3649, 1087, 1088, 1081, 1360
3650, 411, 373, 410, 1454
3651, 1337, 1379, 1181, 1446
3652, 1224, 1401, 1341, 1417
3653, 1266, 1178, 1336, 1441
3654, 678, 746, 784, 1361
3655, 834, 888, 887, 1449
3656, 954, 1288, 640, 1368
3657, 231, 852, 1377, 1396
3658, 936, 179, 559, 1291
3659, 1232, 1277, 1185, 1399
3660, 901, 874, 907, 1373
3661, 619, 605, 602, 1341
3662, 935, 152, 949, 1439
3663, 833, 831, 919, 1447
3664, 499, 516, 480, 1285
3665, 396, 358, 123, 1335
3666, 852, 230, 231, 1377
3667, 1233, 1355, 1201, 1429
3668, 1198, 1357, 1308, 1430
3669, 1026, 1037, 1032, 1427
3670, 229, 15, 1044, 1153
3671, 238, 973, 1130, 1316
3672, 856, 884, 864, 1308
3673, 521, 469, 506, 1358
3674, 837, 836, 838, 1313
3675, 697, 695, 696, 1314
3676, 640, 182, 966, 558
3677, 377, 741, 78, 1344
3678, 1254, 1191, 1360, 1363
3679, 1030, 1031, 1012, 1325
3680, 181, 966, 558, 937
3681, 761, 766, 694, 1383
3682, 123, 813, 396, 1335
3683, 1267, 1290, 1229, 1460
3684, 1308, 1357, 1211, 1430
3685, 454, 455, 522, 1412
3686, 719, 736, 752, 1346
3687, 853, 886, 870, 1345
3688, 451, 438, 450, 1411
3689, 378, 377, 346, 1344
3690, 969, 143, 944, 443
3691, 970, 176, 569, 933
3692, 1191, 1303, 1271, 1434
3693, 40, 289, 307, 1362
3694, 102, 811, 884, 362
3695, 74, 750, 677, 391
3696, 1254, 1360, 1226, 1363
3697, 432, 528, 498, 1259
3698, 1209, 1321, 1234, 1366
3699, 1259, 1296, 1218, 1368
3700, 407, 1385, 1248, 1440
3701, 1202, 1331, 1318, 1449
3702, 1268, 1364, 1227, 1408
3703, 729, 728, 1388, 1424
3704, 1089, 1078, 1088, 1268
3705, 1247, 1338, 1199, 1340
3706, 458, 481, 460, 1294
3707, 300, 333, 315, 1418
3708, 822, 820, 876, 1359
3709, 861, 907, 862, 1374
3710, 966, 640, 558, 1368
3711, 358, 904, 123, 1335
3712, 688, 692, 721, 1323
3713, 308, 1362, 1279, 1403
3714, 692, 1323, 689, 1436
3715, 297, 512, 50, 1389
3716, 1292, 1319, 1216, 1439
3717, 717, 1055, 1059, 194
3718, 921, 6, 125, 428
3719, 126, 5, 787, 426
3720, 863, 109, 370, 912
3721, 205, 787, 718, 1289
3722, 1178, 1311, 1236, 1369
3723, 1078, 1268, 1089, 1408
3724, 541, 548, 550, 1243
3725, 1153, 229, 15, 255
3726, 674, 783, 776, 1443
3727, 752, 769, 719, 1432
3728, 475, 1337, 524, 1446
3729, 705, 707, 789, 1281
3730, 733, 710, 708, 1280
3731, 1189, 1281, 1251, 1322
3732, 1245, 1402, 1305, 1431
3733, 1246, 1391, 1165, 1443
3734, 729, 352, 81, 778
3735, 730, 700, 1283, 1430
3736, 621, 289, 40, 1362
3737, 455, 1347, 509, 1412
3738, 406, 422, 361, 1331
3739, 1236, 1438, 1282, 1450
3740, 383, 1385, 407, 1440
3741, 819, 824, 820, 1365
3742, 920, 814, 894, 1372
3743, 641, 609, 1387, 1435
3744, 537, 50, 512, 1389
3745, 468, 514, 518, 1414
3746, 588, 616, 624, 1423
3747, 904, 813, 123, 1335
3748, 943, 967, 1288, 1414
3749, 1132, 1139, 1146, 1426
3750, 1175, 1406, 1231, 1445
3751, 998, 973, 238, 1316
3752, 930, 149, 942, 1414
3753, 787, 426, 770, 1289
3754, 40, 307, 563, 1362
3755, 720, 199, 1075, 1058
3756, 854, 1076, 224, 1052
3757, 560, 31, 303, 1370
3758, 1165, 1305, 1402, 1431
3759, 1165, 1421, 1246, 1443
3760, 935, 957, 956, 1439
3761, 311, 513, 67, 1409
3762, 830, 854, 828, 1251
3763, 1168, 1235, 1338, 1340
3764, 883, 830, 832, 1455
3765, 924, 859, 860, 1334
3766, 725, 790, 726, 1333
3767, 647, 632, 595, 1284
3768, 1168, 1338, 1247, 1340
3769, 1270, 1359, 1239, 1365
3770, 985, 1297, 987, 1326
3771, 641, 655, 609, 1435
3772, 1237, 1327, 1208, 1397
3773, 1191, 1364, 1268, 1408
3774, 823, 826, 1310, 1392
3775, 692, 689, 693, 1436
3776, 558, 1368, 624, 1423
3777, 1022, 1013, 1021, 1398
3778, 979, 204, 203, 1437
3779, 505, 500, 523, 1460
3780, 238, 1130, 1137, 1316
3781, 490, 929, 146, 1390
3782, 719, 200, 201, 1315
3783, 509, 489, 433, 1390
3784, 1182, 1301, 1240, 1339
3785, 747, 693, 731, 1436
3786, 827, 823, 826, 1310
3787, 611, 640, 183, 1288
3788, 682, 751, 684, 1353
3789, 712, 732, 741, 1344
3790, 1276, 1294, 1173, 1418
3791, 303, 317, 304, 1370
3792, 616, 559, 179, 1291
3793, 383, 407, 345, 1440
3794, 456, 503, 501, 1340
3795, 835, 216, 900, 1073
3796, 694, 191, 1074, 766
3797, 591, 592, 590, 1336
3798, 638, 280, 25, 663
3799, 980, 1148, 242, 1356
3800, 475, 473, 477, 1337
3801, 889, 893, 892, 1431
3802, 1164, 1312, 1274, 1447
3803, 759, 91, 381, 758
3804, 892, 119, 395, 893
3805, 1240, 1301, 1195, 1339
3806, 1289, 1335, 1204, 1377
3807, 645, 1394, 613, 1441
3808, 755, 715, 785, 1312
3809, 614, 643, 662, 1395
3810, 238, 1137, 998, 1316
3811, 980, 242, 992, 1356
3812, 1168, 1355, 1233, 1429
3813, 1275, 1337, 1197, 1379
3814, 624, 644, 1296, 1368
3815, 1155, 1154, 1156, 1410
3816, 716, 197, 666, 1048
3817, 222, 850, 800, 1060
3818, 290, 303, 31, 1370
3819, 1168, 1347, 1412, 1453
3820, 648, 618, 635, 1261
3821, 1201, 1324, 1262, 1351
3822, 1028, 1024, 1021, 1264
3823, 786, 1272, 723, 1442
3824, 387, 348, 110, 915
3825, 82, 365, 386, 781
3826, 659, 577, 564, 1355
3827, 770, 426, 382, 1289
3828, 612, 572, 573, 1242
3829, 290, 31, 628, 1370
3830, 1193, 1412, 1347, 1453
3831, 1169, 1399, 1232, 1427
3832, 1277, 1393, 1207, 1422
3833, 298, 321, 335, 1444
3834, 207, 208, 1081, 1434
3835, 1134, 1145, 1147, 1325
3836, 818, 1373, 901, 1457
3837, 439, 283, 67, 1409
3838, 761, 1384, 737, 1459
3839, 922, 853, 225, 1458
3840, 359, 408, 390, 1372
3841, 598, 600, 599, 1415
3842, 355, 114, 373, 1454
3843, 114, 805, 918, 1454
3844, 656, 608, 621, 1401
3845, 992, 1356, 1143, 1393
3846, 945, 1332, 433, 1390
3847, 563, 621, 40, 1362
3848, 492, 509, 1332, 1412
3849, 817, 816, 819, 1365
3850, 1170, 1354, 1263, 1398
3851, 560, 628, 31, 1370
3852, 1283, 1308, 1183, 1445
3853, 453, 454, 451, 1429
3854, 416, 419, 395, 1245
3855, 1275, 1337, 1181, 1403
3856, 716, 779, 762, 1295
3857, 1202, 1287, 1280, 1367
3858, 627, 628, 560, 1370
3859, 1056, 1050, 1055, 1258
3860, 1232, 1426, 1169, 1427
3861, 429, 1, 19, 922
3862, 427, 20, 2, 788
3863, 961, 932, 962, 1285
3864, 1233, 1412, 1168, 1429
3865, 335, 280, 25, 638
3866, 574, 612, 573, 1242
3867, 906, 882, 807, 1440
3868, 160, 620, 566, 542
3869, 494, 543, 129, 440
3870, 445, 507, 1409, 1416
3871, 324, 309, 318, 1275
3872, 943, 1288, 1368, 1414
3873, 1235, 1340, 1168, 1347
3874, 815, 816, 801, 1306
3875, 715, 693, 1312, 1421
3876, 494, 529, 445, 1416
3877, 862, 914, 912, 1286
3878, 137, 1300, 1004, 1389
3879, 1141, 1152, 236, 1349
3880, 1234, 1321, 1209, 1404
3881, 1240, 1301, 1182, 1381
3882, 1043, 1039, 1045, 1386
3883, 1341, 1401, 1181, 1417
3884, 327, 294, 326, 1256
3885, 860, 1334, 859, 1456
3886, 849, 1431, 919, 1447
3887, 1049, 851, 219, 1070
3888, 594, 593, 591, 1311
3889, 11, 1006, 1151, 1437
3890, 849, 1274, 1431, 1447
3891, 847, 846, 866, 1320
3892, 514, 149, 432, 1414
3893, 1037, 1024, 1028, 1427
3894, 152, 935, 431, 1439
3895, 208, 771, 209, 1376
3896, 142, 141, 314, 46
3897, 175, 174, 21, 313
3898, 908, 887, 804, 1331
3899, 672, 781, 790, 1333
3900, 806, 924, 915, 1334
3901, 333, 302, 328, 1284
3902, 1142, 1149, 1133, 1273
3903, 956, 957, 947, 1319
3904, 422, 396, 361, 1331
3905, 937, 941, 958, 1423
3906, 450, 1321, 442, 1411
3907, 1024, 1026, 1025, 1427
3908, 20, 200, 788, 1315
3909, 207, 1271, 675, 1434
3910, 693, 747, 715, 1312
3911, 1159, 1156, 253, 1410
3912, 415, 414, 380, 1400
3913, 604, 601, 602, 1341
3914, 457, 509, 455, 1347
3915, 1235, 1347, 1168, 1453
3916, 993, 1277, 989, 1422
3917, 922, 903, 853, 1278
3918, 1151, 256, 11, 1437
3919, 323, 338, 291, 1263
3920, 681, 1055, 717, 194
3921, 965, 963, 946, 1261
3922, 274, 553, 45, 343
3923, 340, 552, 44, 541
3924, 595, 1284, 664, 1307
3925, 1122, 1114, 1121, 1254
3926, 751, 727, 767, 1353
3927, 1105, 1099, 1104, 1254
3928, 753, 670, 754, 1318
3929, 410, 402, 344, 1397
3930, 236, 8, 132, 1152
3931, 761, 738, 766, 1383
3932, 1022, 1046, 1013, 1398
3933, 383, 417, 407, 1385
3934, 385, 778, 352, 1424
3935, 1031, 1041, 1325, 1371
3936, 311, 339, 274, 1409
3937, 671, 746, 721, 1361
3938, 1199, 1338, 1247, 1395
3939, 986, 985, 987, 1326
3940, 966, 943, 954, 1368
3941, 953, 236, 969, 1324
3942, 754, 670, 758, 1318
3943, 513, 445, 507, 1409
3944, 702, 698, 696, 1425
3945, 439, 67, 513, 1409
3946, 207, 735, 675, 1271
3947, 943, 942, 967, 1414
3948, 580, 659, 648, 1355
3949, 498, 518, 432, 1259
3950, 406, 419, 349, 1318
3951, 852, 1335, 904, 1377
3952, 1023, 1021, 1024, 1264
3953, 397, 426, 126, 1289
3954, 1061, 1069, 1068, 1257
3955, 1280, 1287, 1189, 1455
3956, 1271, 1303, 1221, 1434
3957, 1034, 1304, 1027, 1371
3958, 291, 338, 313, 1263
3959, 1232, 1399, 1185, 1427
3960, 1077, 1081, 208, 1360
3961, 848, 849, 827, 1274
3962, 659, 636, 569, 1351
3963, 595, 1284, 1307, 1441
3964, 870, 858, 810, 1345
3965, 736, 676, 724, 1346
3966, 1076, 16, 253, 909
3967, 1075, 12, 775, 254
3968, 1236, 1194, 1438, 1450
3969, 1136, 1148, 1144, 1356
3970, 225, 1046, 1019, 1458
3971, 583, 615, 585, 1309
3972, 515, 505, 484, 1267
3973, 553, 274, 45, 541
3974, 44, 340, 541, 274
3975, 1189, 1287, 1280, 1407
3976, 1261, 1332, 1193, 1412
3977, 1217, 1409, 1243, 1451
3978, 684, 1353, 767, 1448
3979, 132, 1152, 991, 1349
3980, 802, 107, 360, 424
3981, 397, 423, 382, 1289
3982, 1181, 1337, 1275, 1379
3983, 307, 318, 309, 1275
3984, 762, 731, 689, 1295
3985, 1008, 981, 984, 1354
3986, 114, 355, 805, 1454
3987, 256, 204, 11, 1437
3988, 748, 772, 673, 1248
3989, 228, 1017, 1020, 1381
3990, 1280, 1367, 1287, 1455
3991, 492, 522, 509, 1412
3992, 471, 1282, 535, 1450
3993, 806, 110, 348, 915
3994, 365, 82, 672, 781
3995, 650, 656, 563, 1362
3996, 462, 490, 489, 1390
3997, 680, 786, 760, 1442
3998, 881, 1274, 849, 1447
3999, 207, 206, 735, 1271
4000, 452, 503, 453, 1340
4001, 475, 524, 478, 1446
4002, 1037, 1011, 1032, 1426
4003, 1243, 1409, 1217, 1416
4004, 942, 149, 514, 1414
4005, 746, 678, 739, 1397
4006, 827, 849, 881, 1274
4007, 1277, 1325, 1207, 1393
4008, 482, 483, 479, 1417
4009, 989, 993, 1003, 1277
4010, 398, 421, 357, 1278
4011, 237, 1137, 1006, 998
4012, 1036, 1044, 245, 1133
4013, 877, 839, 838, 1445
4014, 490, 146, 433, 1390
4015, 945, 928, 145, 1332
4016, 1075, 1064, 254, 1376
4017, 530, 524, 437, 1403
4018, 437, 524, 508, 1403
4019, 297, 292, 321, 1389
4020, 928, 492, 145, 1332
4021, 782, 718, 770, 1289
4022, 624, 558, 644, 1368
4023, 720, 704, 199, 1058
4024, 224, 828, 854, 1052
4025, 1057, 1062, 217, 1378
4026, 1014, 169, 170, 1317
4027, 608, 656, 604, 1401
4028, 360, 413, 370, 1286
4029, 603, 599, 1379, 1438
4030, 880, 918, 805, 1454
4031, 359, 420, 408, 1372
4032, 208, 675, 771, 1434
4033, 904, 852, 916, 1335
4034, 1283, 1308, 1211, 1430
4035, 756, 748, 673, 1248
4036, 517, 488, 536, 1380
4037, 345, 425, 400, 1440
4038, 385, 80, 352, 778
4039, 737, 699, 701, 1384
4040, 772, 711, 712, 1302
4041, 1035, 1025, 1027, 1304
4042, 488, 517, 441, 1380
4043, 514, 432, 518, 1414
4044, 773, 727, 728, 1388
4045, 415, 380, 355, 1400
4046, 668, 778, 385, 1424
4047, 204, 1006, 11, 1437
4048, 1329, 1383, 1205, 1459
4049, 1150, 10, 165, 235
4050, 955, 937, 958, 1423
4051, 955, 943, 966, 1368
4052, 1108, 268, 1118, 1102
4053, 1101, 1090, 263, 1084
4054, 275, 330, 320, 1380
4055, 973, 1130, 1316, 1452
4056, 590, 595, 1307, 1441
4057, 385, 352, 413, 1424
4058, 938, 532, 157, 968
4059, 658, 190, 971, 931
4060, 108, 360, 370, 912
4061, 887, 804, 1331, 1449
4062, 1212, 1296, 1259, 1423
4063, 557, 642, 617, 1319
4064, 1206, 1384, 1329, 1459
4065, 970, 953, 933, 1351
4066, 442, 448, 449, 1366
4067, 533, 438, 451, 1429
4068, 411, 415, 355, 1454
4069, 889, 910, 893, 1431
4070, 746, 739, 742, 1327
4071, 636, 659, 564, 1351
4072, 1142, 1133, 1153, 1273
4073, 863, 862, 912, 1286
4074, 280, 321, 329, 1269
4075, 1275, 1181, 1362, 1403
4076, 1120, 1159, 1127, 1410
4077, 378, 424, 400, 1293
4078, 334, 322, 300, 1418
4079, 949, 152, 516, 1439
4080, 700, 743, 730, 1283
4081, 909, 1076, 224, 854
4082, 1075, 775, 199, 720
4083, 681, 667, 682, 1258
4084, 372, 401, 356, 1402
4085, 640, 611, 594, 1288
4086, 590, 592, 595, 1441
4087, 1115, 1111, 233, 1363
4088, 433, 945, 145, 1332
4089, 786, 680, 752, 1432
4090, 256, 1051, 1074, 1383
4091, 1237, 1397, 1208, 1433
4092, 572, 653, 1405, 1444
4093, 778, 385, 80, 668
4094, 926, 954, 967, 1288
4095, 987, 1005, 997, 1297
4096, 476, 474, 475, 1446
4097, 429, 903, 97, 922
4098, 788, 69, 427, 769
4099, 1010, 172, 1039, 1386
4100, 1082, 1089, 1088, 1268
4101, 1181, 1401, 1279, 1417
4102, 575, 578, 643, 1395
4103, 991, 1152, 1131, 1349
4104, 112, 363, 812, 1433
4105, 599, 601, 603, 1379
4106, 860, 825, 1374, 1456
4107, 1025, 1035, 1043, 1299
4108, 617, 651, 557, 1319
4109, 1035, 1014, 1042, 1317
4110, 996, 989, 1298, 1422
4111, 519, 497, 471, 1282
4112, 1296, 1368, 1259, 1423
4113, 367, 411, 374, 1361
4114, 233, 232, 1115, 1303
4115, 912, 108, 360, 802
4116, 1046, 226, 1301, 1458
4117, 1076, 253, 1064, 1249
4118, 680, 350, 70, 1432
4119, 974, 241, 1129, 1393
4120, 107, 802, 902, 424
4121, 738, 761, 737, 1459
4122, 847, 844, 846, 1320
4123, 1207, 1371, 1277, 1422
4124, 597, 623, 645, 1394
4125, 1153, 245, 1044, 1133
4126, 1006, 1151, 1137, 237
4127, 505, 523, 484, 1267
4128, 1036, 1047, 1017, 1273
4129, 336, 282, 318, 1403
4130, 425, 345, 407, 1440
4131, 936, 959, 941, 1291
4132, 529, 483, 507, 1416
4133, 68, 311, 531, 513
4134, 231, 1119, 1112, 1364
4135, 645, 613, 592, 1441
4136, 843, 839, 844, 1406
4137, 1129, 241, 1143, 1393
4138, 639, 657, 43, 312
4139, 383, 394, 417, 1385
4140, 987, 997, 989, 1298
4141, 357, 903, 97, 429
4142, 769, 69, 427, 388
4143, 428, 921, 124, 904
4144, 787, 96, 770, 426
4145, 943, 967, 954, 1288
4146, 1057, 217, 799, 1378
4147, 532, 444, 938, 157
4148, 190, 658, 570, 931
4149, 1277, 1207, 1325, 1371
4150, 829, 831, 830, 1322
4151, 1150, 1141, 235, 1262
4152, 376, 363, 112, 1433
4153, 992, 1143, 241, 1393
4154, 609, 633, 608, 1435
4155, 1090, 1101, 263, 1107
4156, 1124, 268, 1118, 1108
4157, 886, 853, 903, 1278
4158, 582, 581, 583, 1453
4159, 388, 769, 70, 1432
4160, 23, 296, 173, 172
4161, 139, 140, 48, 301
4162, 370, 413, 418, 1286
4163, 728, 780, 773, 1388
4164, 446, 486, 447, 1352
4165, 343, 68, 311, 531
4166, 342, 2, 20, 200
4167, 341, 19, 1, 225
4168, 340, 43, 657, 312
4169, 137, 1004, 138, 1389
4170, 1279, 1362, 1181, 1403
4171, 1149, 1146, 1139, 1426
4172, 559, 616, 615, 1291
4173, 792, 798, 1091, 1375
4174, 818, 897, 901, 1373
4175, 716, 764, 196, 1061
4176, 1286, 1388, 1225, 1424
4177, 867, 809, 883, 1455
4178, 911, 879, 878, 1400
4179, 745, 89, 354, 1443
4180, 1036, 1017, 1044, 1273
4181, 1144, 1131, 1141, 1349
4182, 543, 551, 547, 1428
4183, 136, 976, 1300, 1413
4184, 58, 435, 520, 1418
4185, 898, 850, 221, 1054
4186, 217, 1062, 835, 1378
4187, 491, 525, 472, 1292
4188, 815, 219, 851, 1070
4189, 1079, 792, 1091, 1375
4190, 497, 535, 471, 1282
4191, 96, 382, 770, 426
4192, 358, 428, 124, 904
4193, 556, 660, 625, 1420
4194, 923, 831, 1322, 1447
4195, 136, 976, 137, 1300
4196, 449, 452, 451, 1411
4197, 654, 558, 624, 1423
4198, 1126, 264, 1098, 1117
4199, 1109, 259, 1083, 1095
4200, 719, 769, 788, 1315
4201, 922, 1, 19, 225
4202, 200, 2, 20, 788
4203, 906, 807, 875, 1440
4204, 1259, 1368, 1218, 1414
4205, 586, 630, 652, 1348
4206, 1047, 1011, 1037, 1426
4207, 376, 112, 891, 1433
4208, 1161, 1126, 1120, 272
4209, 1159, 1120, 1127, 271
4210, 132, 991, 133, 1349
4211, 968, 164, 952, 555
4212, 971, 554, 952, 163
4213, 258, 1092, 1086, 1158
4214, 1093, 257, 1086, 1160
4215, 429, 398, 357, 1278
4216, 450, 442, 449, 1411
4217, 629, 578, 1338, 1395
4218, 193, 765, 1059, 717
4219, 708, 709, 707, 1407
4220, 433, 145, 492, 1332
4221, 1041, 1012, 1031, 1325
4222, 867, 868, 869, 1367
4223, 347, 423, 422, 1265
4224, 923, 881, 831, 1447
4225, 344, 402, 375, 1397
4226, 999, 1399, 994, 1452
4227, 320, 330, 304, 1380
4228, 680, 70, 769, 1432
4229, 319, 308, 331, 1279
4230, 851, 899, 1049, 218
4231, 416, 401, 368, 1402
4232, 388, 70, 350, 1432
4233, 894, 803, 857, 1372
4234, 1098, 1110, 264, 1126
4235, 985, 1005, 987, 1297
4236, 839, 845, 844, 1406
4237, 132, 1152, 244, 991
4238, 1092, 259, 1083, 1109
4239, 696, 765, 702, 1425
4240, 866, 875, 902, 1293
4241, 1218, 1368, 1288, 1414
4242, 752, 724, 786, 1346
4243, 858, 886, 920, 1345
4244, 1025, 1043, 1023, 1299
4245, 676, 203, 738, 1459
4246, 117, 879, 366, 1391
4247, 976, 1298, 997, 1300
4248, 1035, 1304, 1014, 1317
4249, 858, 857, 842, 1382
4250, 510, 132, 438, 1324
4251, 730, 722, 700, 1430
4252, 465, 463, 464, 1419
4253, 624, 589, 588, 1296
4254, 992, 241, 974, 1393
4255, 228, 1020, 227, 1381
4256, 607, 652, 646, 1276
4257, 428, 358, 397, 1377
4258, 805, 911, 878, 1400
4259, 995, 993, 996, 1422
4260, 336, 318, 308, 1403
4261, 58, 315, 435, 1418
4262, 1046, 226, 1013, 1301
4263, 617, 598, 651, 1415
4264, 763, 684, 767, 1448
4265, 252, 165, 1029, 1150
4266, 623, 613, 645, 1394
4267, 976, 997, 1004, 1300
4268, 579, 582, 629, 1338
4269, 881, 849, 919, 1447
4270, 709, 708, 710, 1407
4271, 724, 723, 786, 1272
4272, 635, 583, 581, 1453
4273, 135, 442, 134, 1321
4274, 289, 308, 307, 1362
4275, 152, 431, 516, 1439
4276, 542, 551, 549, 1428
4277, 1109, 1158, 270, 1157
4278, 202, 201, 975, 1339
4279, 467, 471, 470, 1369
4280, 857, 920, 894, 1372
4281, 162, 637, 554, 546
4282, 511, 547, 131, 555
4283, 810, 871, 872, 1329
4284, 1143, 1148, 1136, 1356
4285, 334, 58, 520, 1418
4286, 909, 854, 905, 1249
4287, 699, 737, 761, 1384
4288, 576, 568, 167, 1404
4289, 1152, 244, 991, 1131
4290, 960, 925, 964, 1290
4291, 823, 822, 826, 1392
4292, 740, 702, 763, 1448
4293, 525, 491, 431, 1439
4294, 813, 887, 908, 1331
4295, 1124, 211, 795, 791
4296, 797, 210, 1125, 791
4297, 1063, 1074, 1051, 1383
4298, 1181, 1362, 1279, 1401
4299, 901, 861, 885, 1457
4300, 1090, 215, 792, 796
4301, 792, 214, 1091, 798
4302, 996, 989, 976, 1298
4303, 861, 860, 825, 1374
4304, 992, 995, 980, 1356
4305, 988, 994, 999, 1399
4306, 239, 994, 1138, 1452
4307, 629, 662, 578, 1395
4308, 112, 812, 891, 1433
4309, 252, 1029, 1140, 1150
4310, 554, 658, 637, 162
4311, 532, 511, 131, 555
4312, 211, 1124, 1113, 791
4313, 1113, 1125, 210, 791
4314, 477, 524, 475, 1337
4315, 580, 577, 659, 1355
4316, 832, 833, 834, 1287
4317, 964, 1290, 925, 1460
4318, 725, 757, 672, 1333
4319, 859, 806, 891, 1334
4320, 792, 215, 1090, 1079
4321, 1091, 214, 792, 1079
4322, 771, 1328, 720, 1376
4323, 472, 471, 473, 1450
4324, 541, 45, 44, 274
4325, 169, 168, 573, 1405
4326, 773, 713, 740, 1350
4327, 680, 71, 70, 350
4328, 814, 98, 99, 393
4329, 296, 291, 23, 173
4330, 540, 952, 164, 555
4331, 554, 540, 952, 163
4332, 301, 140, 48, 278
4333, 156, 444, 938, 1460
4334, 227, 1013, 226, 1301
4335, 558, 640, 644, 1368
4336, 117, 372, 808, 1391
4337, 462, 489, 459, 1343
4338, 573, 572, 653, 1405
4339, 534, 499, 480, 1285
4340, 664, 595, 632, 1284
4341, 1120, 1155, 1159, 1410
4342, 882, 811, 890, 1385
4343, 826, 822, 855, 1392
4344, 456, 457, 455, 1347
4345, 1078, 1085, 206, 1408
4346, 266, 1116, 267, 1094
4347, 1082, 262, 1097, 261
4348, 481, 526, 460, 1294
4349, 706, 720, 749, 1328
4350, 852, 904, 921, 1377
4351, 1108, 1096, 794, 212
4352, 217, 835, 799, 1378
4353, 1034, 1014, 1027, 1304
4354, 312, 310, 42, 1451
4355, 187, 625, 186, 940
4356, 932, 154, 499, 153
4357, 455, 509, 522, 1412
4358, 731, 693, 689, 1436
4359, 371, 354, 89, 1443
4360, 795, 1108, 794, 212
4361, 232, 869, 231, 1396
4362, 504, 538, 469, 1358
4363, 510, 438, 533, 1324
4364, 895, 872, 871, 1329
4365, 1103, 1109, 270, 1157
4366, 312, 42, 639, 1451
4367, 552, 657, 158, 548
4368, 553, 545, 127, 531
4369, 867, 834, 868, 1367
4370, 459, 461, 462, 1343
4371, 442, 447, 448, 1366
4372, 745, 674, 89, 1443
4373, 371, 89, 674, 1443
4374, 117, 366, 372, 1391
4375, 464, 469, 466, 1266
4376, 999, 986, 988, 1399
4377, 58, 334, 315, 1418
4378, 531, 545, 127, 445
4379, 571, 158, 657, 548
4380, 841, 856, 864, 1308
4381, 409, 412, 362, 1357
4382, 827, 865, 823, 1310
4383, 938, 925, 156, 1460
4384, 724, 701, 723, 1272
4385, 957, 935, 949, 1439
4386, 231, 869, 852, 1396
4387, 718, 787, 770, 1289
4388, 638, 26, 335, 1444
4389, 856, 842, 857, 1382
4390, 427, 388, 398, 1315
4391, 749, 720, 771, 1328
4392, 818, 901, 885, 1457
4393, 1130, 973, 239, 1452
4394, 1114, 266, 265, 1099
4395, 1080, 261, 1100, 260
4396, 624, 644, 589, 1296
4397, 291, 22, 173, 174
4398, 342, 142, 200, 981
4399, 175, 1019, 341, 225
4400, 140, 141, 47, 278
4401, 780, 1388, 728, 1424
4402, 117, 808, 879, 1391
4403, 925, 500, 156, 1460
4404, 739, 690, 742, 1327
4405, 520, 435, 526, 1418
4406, 123, 122, 396, 813
4407, 94, 95, 347, 679
4408, 565, 42, 310, 1451
4409, 838, 841, 877, 1445
4410, 556, 187, 188, 934
4411, 154, 155, 950, 430
4412, 233, 809, 232, 1303
4413, 630, 595, 664, 1307
4414, 311, 283, 339, 1409
4415, 757, 739, 678, 1397
4416, 450, 134, 442, 1321
4417, 222, 800, 223, 1060
4418, 197, 198, 666, 1048
4419, 399, 424, 378, 1293
4420, 998, 1009, 973, 1316
4421, 1155, 1161, 1120, 272
4422, 1120, 1159, 1155, 271
4423, 77, 78, 377, 741
4424, 1158, 1086, 258, 1154
4425, 1160, 257, 1086, 1154
4426, 641, 610, 631, 1387
4427, 439, 513, 507, 1409
4428, 91, 92, 381, 758
4429, 395, 120, 119, 892
4430, 760, 72, 71, 389
4431, 894, 99, 100, 359
4432, 316, 335, 26, 1444
4433, 460, 504, 461, 1342
4434, 862, 860, 861, 1374
4435, 840, 838, 836, 1313
4436, 699, 695, 697, 1314
4437, 750, 74, 73, 391
4438, 101, 102, 884, 362
4439, 818, 816, 815, 1306
4440, 715, 714, 693, 1421
4441, 366, 117, 116, 879
4442, 88, 89, 354, 745
4443, 678, 85, 84, 344
4444, 812, 112, 113, 363
4445, 615, 588, 585, 1309
4446, 568, 168, 167, 1404
4447, 1138, 1130, 239, 1452
4448, 757, 84, 83, 375
4449, 891, 111, 112, 376
4450, 638, 572, 26, 1444
4451, 248, 1032, 247, 1132
4452, 994, 239, 1138, 240
4453, 805, 114, 115, 355
4454, 671, 87, 86, 367
4455, 692, 688, 689, 1323
4456, 673, 77, 76, 364
4457, 807, 104, 105, 345
4458, 530, 482, 478, 1417
4459, 603, 661, 599, 1438
4460, 803, 100, 101, 390
4461, 669, 73, 72, 351
4462, 453, 503, 456, 1340
4463, 316, 26, 572, 1444
4464, 817, 819, 820, 1365
4465, 997, 976, 989, 1298
4466, 983, 985, 986, 1326
4467, 125, 428, 397, 1377
4468, 711, 703, 712, 1302
4469, 771, 720, 775, 1376
4470, 860, 859, 825, 1456
4471, 1031, 1034, 1027, 1371
4472, 722, 730, 750, 1430
4473, 348, 111, 110, 806
4474, 82, 83, 365, 672
4475, 70, 69, 769, 388
4476, 903, 97, 98, 357
4477, 492, 509, 433, 1332
4478, 560, 31, 30, 303
4479, 41, 40, 621, 289
4480, 468, 467, 470, 1369
4481, 207, 675, 208, 1434
4482, 586, 587, 630, 1348
4483, 563, 40, 39, 307
4484, 35, 34, 632, 302
4485, 451, 454, 533, 1429
4486, 888, 892, 804, 1449
4487, 974, 993, 992, 1393
4488, 904, 916, 813, 1335
4489, 60, 59, 288, 506
4490, 611, 183, 184, 926
4491, 939, 150, 151, 485
4492, 762, 779, 731, 1295
4493, 1120, 1127, 1111, 1410
4494, 829, 923, 831, 1322
4495, 156, 500, 444, 1460
4496, 396, 423, 358, 1335
4497, 928, 144, 145, 492
4498, 669, 760, 723, 1442
4499, 963, 928, 945, 1332
4500, 609, 655, 633, 1435
4501, 784, 746, 671, 1361
4502, 194, 681, 1055, 195
4503, 136, 1002, 976, 1413
4504, 616, 654, 624, 1423
4505, 1035, 1027, 1014, 1304
4506, 1119, 1123, 1112, 1364
4507, 249, 250, 1030, 1135
4508, 385, 79, 80, 668
4509, 849, 889, 919, 1431
4510, 620, 160, 159, 544
4511, 539, 129, 128, 494
4512, 622, 38, 37, 286
4513, 34, 33, 561, 277
4514, 960, 964, 951, 1290
4515, 881, 919, 831, 1447
4516, 767, 684, 751, 1353
4517, 108, 107, 360, 802
4518, 729, 778, 728, 1424
4519, 1147, 1129, 1143, 1393
4520, 176, 177, 569, 933
4521, 143, 144, 944, 443
4522, 146, 147, 929, 490
4523, 981, 978, 984, 1354
4524, 973, 994, 239, 1452
4525, 979, 1006, 204, 1437
4526, 650, 603, 601, 1379
4527, 776, 755, 759, 1305
4528, 641, 609, 610, 1387
4529, 835, 836, 799, 1378
4530, 157, 444, 938, 156
4531, 189, 190, 570, 931
4532, 250, 251, 1018, 1128
4533, 235, 953, 970, 1351
4534, 1019, 341, 313, 175
4535, 981, 342, 142, 314
4536, 715, 783, 714, 1421
4537, 996, 993, 989, 1422
4538, 1130, 1149, 1137, 1316
4539, 618, 177, 178, 946
4540, 482, 479, 478, 1417
4541, 92, 93, 349, 670
4542, 121, 120, 369, 804
4543, 999, 994, 973, 1452
4544, 445, 529, 507, 1416
4545, 543, 549, 551, 1428
4546, 925, 155, 156, 500
4547, 1130, 238, 239, 973
4548, 897, 874, 901, 1373
4549, 565, 639, 42, 1451
4550, 984, 978, 1007, 1354
4551, 54, 53, 275, 441
4552, 398, 20, 427, 1315
4553, 341, 1, 175, 225
4554, 342, 142, 2, 200
4555, 1008, 975, 201, 1339
4556, 63, 62, 293, 496
4557, 1085, 1079, 1091, 1375
4558, 578, 579, 629, 1338
4559, 148, 930, 432, 149
4560, 785, 715, 747, 1312
4561, 661, 597, 599, 1438
4562, 614, 30, 29, 285
4563, 741, 732, 768, 1344
4564, 567, 29, 28, 305
4565, 1087, 1081, 1077, 1360
4566, 211, 1113, 210, 791
4567, 604, 602, 605, 1341
4568, 752, 680, 769, 1432
4569, 179, 180, 616, 941
4570, 215, 792, 214, 1079
4571, 118, 117, 372, 808
4572, 371, 89, 90, 674
4573, 563, 656, 621, 1362
4574, 822, 821, 820, 1359
4575, 674, 745, 783, 1443
4576, 1011, 246, 247, 1139
4577, 1092, 17, 1109, 1158
4578, 1161, 18, 1110, 1126
4579, 343, 553, 4, 531
4580, 3, 657, 552, 340
4581, 471, 535, 473, 1450
4582, 1107, 14, 1090, 796
4583, 1108, 1124, 13, 795
4584, 290, 317, 303, 1370
4585, 867, 883, 832, 1455
4586, 540, 952, 163, 164
4587, 151, 152, 935, 431
4588, 557, 184, 185, 947
4589, 376, 402, 363, 1433
4590, 756, 76, 75, 384
4591, 890, 103, 104, 383
4592, 160, 566, 161, 542
4593, 543, 130, 129, 440
4594, 122, 121, 361, 908
4595, 93, 94, 379, 774
4596, 1039, 1043, 1010, 1386
4597, 188, 189, 626, 951
4598, 213, 794, 1096, 212
4599, 1002, 136, 135, 1413
4600, 198, 199, 704, 1058
4601, 828, 224, 223, 1052
4602, 1140, 251, 1029, 252
4603, 1031, 1027, 1041, 1371
4604, 1130, 1138, 1146, 1452
4605, 1129, 974, 240, 241
4606, 565, 42, 41, 310
4607, 858, 870, 886, 1345
4608, 736, 724, 752, 1346
4609, 248, 249, 1012, 1134
4610, 612, 28, 27, 284
4611, 1141, 1131, 1152, 1349
4612, 197, 716, 196, 1061
4613, 917, 879, 808, 1391
4614, 758, 759, 755, 1305
4615, 446, 51, 52, 281
4616, 850, 222, 221, 1054
4617, 356, 401, 416, 1402
4618, 516, 431, 491, 1439
4619, 617, 600, 598, 1415
4620, 943, 930, 942, 1414
4621, 1143, 992, 241, 242
4622, 409, 391, 412, 1357
4623, 47, 141, 46, 314
4624, 313, 21, 22, 174
4625, 296, 23, 24, 172
4626, 168, 1040, 1015, 1330
4627, 48, 49, 139, 301
4628, 593, 594, 596, 1311
4629, 486, 52, 53, 295
4630, 887, 888, 804, 1449
4631, 595, 630, 590, 1307
4632, 1142, 256, 1151, 1437
4633, 737, 676, 738, 1459
4634, 32, 31, 628, 290
4635, 9, 971, 554, 658
4636, 968, 532, 7, 555
4637, 371, 404, 354, 1443
4638, 382, 426, 397, 1289
4639, 315, 334, 300, 1418
4640, 382, 95, 96, 770
4641, 444, 500, 505, 1460
4642, 124, 123, 358, 904
4643, 1057, 1072, 1062, 1378
4644, 1137, 237, 238, 998
4645, 1036, 245, 246, 1133
4646, 146, 945, 145, 433
4647, 595, 592, 613, 1441
4648, 859, 824, 825, 1456
4649, 849, 910, 889, 1431
4650, 179, 559, 178, 936
4651, 638, 653, 572, 1444
4652, 138, 512, 137, 1389
4653, 67, 66, 283, 439
4654, 433, 489, 490, 1390
4655, 216, 1062, 835, 217
4656, 191, 694, 1063, 192
4657, 311, 68, 67, 513
4658, 790, 725, 672, 1333
4659, 806, 859, 924, 1334
4660, 778, 780, 728, 1424
4661, 404, 372, 366, 1391
4662, 537, 512, 138, 1389
4663, 760, 786, 723, 1442
4664, 639, 43, 42, 312
4665, 1059, 193, 717, 194
4666, 1049, 851, 218, 219
4667, 400, 106, 105, 875
4668, 33, 32, 646, 299
4669, 812, 873, 891, 1433
4670, 571, 159, 158, 548
4671, 545, 128, 127, 445
4672, 634, 39, 38, 309
4673, 66, 65, 319, 495
4674, 518, 463, 465, 1419
4675, 980, 243, 242, 1148
4676, 478, 476, 475, 1446
4677, 775, 209, 771, 1376
4678, 1014, 170, 1042, 1317
4679, 1078, 1089, 1085, 1408
4680, 512, 50, 51, 297
4681, 639, 565, 633, 1451
4682, 921, 230, 852, 1377
4683, 113, 114, 918, 373
4684, 784, 86, 85, 374
4685, 196, 667, 195, 1050
4686, 75, 74, 677, 353
4687, 811, 102, 103, 394
4688, 450, 449, 451, 1411
4689, 969, 8, 143, 510
4690, 176, 636, 10, 970
4691, 269, 1103, 270, 1157
4692, 355, 373, 411, 1454
4693, 799, 217, 1057, 218
4694, 740, 763, 767, 1448
4695, 262, 1084, 1101, 263
4696, 268, 267, 1118, 1102
4697, 59, 58, 315, 435
4698, 192, 665, 1053, 193
4699, 1004, 137, 976, 1300
4700, 1037, 1026, 1024, 1427
4701, 131, 130, 547, 511
4702, 637, 162, 161, 546
4703, 252, 10, 165, 1150
4704, 793, 798, 792, 1375
4705, 625, 660, 606, 1420
4706, 65, 64, 336, 437
4707, 115, 116, 911, 380
4708, 88, 87, 777, 392
4709, 64, 63, 282, 508
4710, 447, 527, 446, 1352
4711, 514, 942, 150, 149
4712, 257, 258, 1086, 1154
4713, 271, 1155, 1120, 272
4714, 78, 79, 346, 768
4715, 320, 55, 54, 488
4716, 219, 815, 220, 1070
4717, 1121, 1111, 1115, 1363
4718, 562, 37, 36, 294
4719, 287, 62, 61, 436
4720, 312, 339, 310, 1451
4721, 1152, 8, 132, 244
4722, 291, 313, 22, 174
4723, 278, 141, 47, 314
4724, 1095, 259, 1083, 260
4725, 264, 265, 1098, 1117
4726, 182, 181, 966, 558
4727, 719, 788, 200, 1315
4728, 81, 82, 386, 781
4729, 387, 110, 109, 915
4730, 57, 56, 276, 502
4731, 26, 27, 316, 572
4732, 900, 216, 15, 1073
4733, 1074, 191, 11, 766
4734, 291, 22, 23, 173
4735, 48, 140, 47, 278
4736, 298, 335, 316, 1444
4737, 175, 174, 313, 1019
4738, 141, 142, 314, 981
4739, 119, 118, 356, 893
4740, 368, 90, 91, 759
4741, 853, 226, 225, 1458
4742, 991, 244, 243, 1131
4743, 1090, 263, 14, 1107
4744, 268, 1124, 13, 1108
4745, 343, 4, 68, 531
4746, 657, 3, 43, 340
4747, 668, 780, 778, 1424
4748, 264, 1110, 18, 1126
4749, 1110, 269, 18, 1161
4750, 17, 259, 1092, 1109
4751, 17, 1109, 1158, 270
4752, 220, 801, 221, 1065
4753, 337, 56, 55, 434
4754, 573, 653, 169, 1405
4755, 964, 925, 938, 1460
4756, 469, 538, 506, 1358
4757, 1126, 1161, 18, 272
4758, 1127, 16, 1159, 271
4759, 12, 257, 1093, 1160
4760, 17, 1092, 258, 1158
4761, 1155, 1156, 1159, 1410
4762, 658, 554, 9, 162
4763, 532, 131, 7, 555
4764, 185, 186, 642, 927
4765, 153, 516, 949, 152
4766, 954, 182, 640, 183
4767, 350, 421, 388, 1432
4768, 553, 4, 45, 343
4769, 552, 44, 3, 340
4770, 25, 26, 335, 638
4771, 1090, 14, 215, 796
4772, 13, 1108, 795, 212
4773, 211, 13, 1124, 795
4774, 6, 210, 1125, 797
4775, 1091, 214, 5, 798
4776, 213, 14, 1107, 796
4777, 148, 528, 948, 147
4778, 226, 1046, 225, 1458
4779, 429, 97, 1, 922
4780, 2, 69, 427, 788
4781, 787, 5, 96, 426
4782, 921, 124, 6, 428
4783, 157, 532, 7, 968
4784, 971, 9, 190, 658
4785, 1006, 11, 1151, 237
4786, 1044, 15, 245, 1153
4787, 306, 61, 60, 521
4788, 36, 35, 647, 279
4789, 578, 662, 643, 1395
4790, 334, 58, 57, 520
4791, 554, 971, 9, 163
4792, 7, 164, 968, 555
4793, 537, 49, 50, 292
4794, 180, 181, 654, 937
4795, 657, 158, 3, 552
4796, 127, 4, 553, 531
4797, 109, 108, 370, 912
4798, 80, 81, 352, 778
4799, 1075, 775, 12, 199
4800, 909, 1076, 16, 224
4801, 24, 25, 280, 663
4802, 342, 46, 142, 314
4803, 21, 313, 341, 175
4804, 106, 107, 902, 424
4805, 1451, 289, 331, 310
4806, 1451, 331, 289, 1217
4807, 1242, 305, 325, 1215
4808, 1242, 325, 305, 284
4809, 1393, 1452, 1232, 1129
4810, 1232, 1452, 1393, 1277
4811, 1401, 1451, 289, 1217
4812, 289, 1451, 1401, 621
4813, 1260, 1059, 1067, 1053
4814, 1260, 1067, 1059, 1244
4815, 1071, 1281, 704, 1048
4816, 704, 1281, 1071, 1251
4817, 704, 1058, 1071, 1048
4818, 1071, 1058, 704, 1251
4819, 1460, 430, 523, 1290
4820, 1460, 523, 430, 500
4821, 1383, 900, 1220, 1329
4822, 1383, 1220, 900, 1073
4823, 974, 1452, 1138, 994
4824, 1138, 1452, 974, 1129
4825, 1452, 974, 1277, 994
4826, 1452, 1277, 974, 1393
4827, 1419, 498, 1212, 1259
4828, 1419, 1212, 498, 463
4829, 1451, 633, 608, 565
4830, 608, 1401, 1451, 565
4831, 1451, 1401, 608, 1217
4832, 1310, 913, 1164, 865
4833, 1310, 1164, 913, 1228
4834, 1322, 1164, 913, 865
4835, 1322, 913, 1164, 1228
4836, 1297, 1007, 1241, 1170
4837, 1297, 1241, 1007, 1005
4838, 1231, 846, 906, 845
4839, 1231, 906, 846, 1186
4840, 1382, 840, 841, 842
4841, 1382, 841, 840, 1183
4842, 1259, 490, 948, 528
4843, 1259, 948, 490, 1212
4844, 1375, 1084, 1090, 1227
4845, 1375, 1090, 1084, 1079
4846, 1096, 796, 213, 1107
4847, 213, 796, 1096, 794
4848, 1410, 1126, 1117, 1120
4849, 1410, 1117, 1126, 1226
4850, 711, 1283, 1302, 1231
4851, 434, 276, 56, 502
4852, 434, 56, 276, 337
4853, 1282, 436, 496, 1256
4854, 1282, 496, 436, 497
4855, 1387, 619, 605, 610
4856, 1387, 605, 619, 1224
4857, 1288, 1319, 956, 926
4858, 956, 1319, 1288, 1180
4859, 1288, 939, 956, 1180
4860, 1288, 956, 939, 967
4861, 1407, 1164, 1447, 1167
4862, 1447, 1164, 1407, 1322
4863, 1447, 1189, 1407, 1167
4864, 1407, 1189, 1447, 1322
4865, 1398, 1326, 1354, 1182
4866, 1398, 1354, 1326, 1170
4867, 1282, 496, 535, 1197
4868, 1282, 535, 496, 497
4869, 1455, 905, 809, 883
4870, 1455, 809, 905, 1221
4871, 1312, 789, 1436, 747
4872, 1312, 1436, 789, 1164
4873, 731, 1436, 789, 747
4874, 731, 789, 1436, 1164
4875, 1456, 1365, 824, 819
4876, 1456, 824, 1365, 1239
4877, 1449, 889, 1167, 888
4878, 1449, 1167, 889, 1431
4879, 1363, 1117, 1254, 1121
4880, 1363, 1254, 1117, 1226
4881, 1010, 1317, 1035, 1042
4882, 490, 1390, 948, 929
4883, 490, 948, 1390, 1212
4884, 958, 948, 1390, 929
4885, 958, 1390, 948, 1212
4886, 1322, 865, 1447, 1164
4887, 1322, 1447, 865, 923
4888, 1429, 455, 453, 454
4889, 1429, 453, 455, 1168
4890, 1413, 527, 1300, 136
4891, 1413, 1300, 527, 1171
4892, 1427, 1041, 1032, 1026
4893, 1427, 1032, 1041, 1232
4894, 1444, 297, 1352, 298
4895, 1444, 1352, 297, 1171
4896, 1289, 206, 205, 1187
4897, 1289, 205, 206, 718
4898, 1293, 425, 1344, 1186
4899, 1293, 1344, 425, 378
4900, 1386, 1317, 1035, 1010
4901, 1386, 1035, 1317, 1162
4902, 1453, 580, 579, 581
4903, 1453, 579, 580, 1168
4904, 741, 1344, 364, 1186
4905, 741, 364, 1344, 377
4906, 425, 364, 1344, 1186
4907, 425, 1344, 364, 377
4908, 1447, 865, 1310, 1164
4909, 1447, 1310, 865, 881
4910, 1161, 1103, 269, 1157
4911, 1161, 269, 1103, 1110
4912, 1449, 889, 892, 1245
4913, 1449, 892, 889, 888
4914, 1073, 835, 1220, 900
4915, 1073, 1220, 835, 1062
4916, 1457, 819, 816, 1174
4917, 1457, 816, 819, 885
4918, 1391, 1431, 917, 1165
4919, 917, 1431, 1391, 910
4920, 580, 1453, 648, 581
4921, 648, 1453, 580, 1355
4922, 1316, 990, 999, 1169
4923, 1316, 999, 990, 1009
4924, 1047, 1427, 1426, 1037
4925, 1426, 1427, 1047, 1169
4926, 1404, 1038, 166, 1177
4927, 1404, 166, 1038, 167
4928, 914, 1320, 907, 847
4929, 907, 1320, 914, 1225
4930, 1421, 692, 744, 714
4931, 1421, 744, 692, 1172
4932, 1402, 1443, 1391, 401
4933, 1391, 1443, 1402, 1165
4934, 1305, 1318, 381, 1245
4935, 381, 1318, 1305, 758
4936, 1348, 664, 1307, 630
4937, 1348, 1307, 664, 1173
4938, 1280, 675, 1271, 1221
4939, 1280, 1271, 675, 733
4940, 1379, 600, 1341, 1194
4941, 1379, 1341, 600, 601
4942, 1167, 889, 919, 833
4943, 1167, 919, 889, 1431
4944, 870, 1458, 1301, 226
4945, 1301, 1458, 870, 1195
4946, 1448, 1244, 763, 1213
4947, 1448, 763, 1244, 1425
4948, 717, 763, 1244, 1213
4949, 717, 1244, 763, 1425
4950, 1384, 1382, 1329, 1183
4951, 1384, 1329, 1382, 1206
4952, 871, 1329, 1382, 1183
4953, 871, 1382, 1329, 1206
4954, 1350, 712, 703, 1302
4955, 1350, 703, 712, 713
4956, 1427, 1326, 1169, 1399
4957, 1427, 1169, 1326, 1264
4958, 1420, 649, 619, 1192
4959, 1420, 619, 649, 660
4960, 1333, 1397, 739, 757
4961, 739, 1397, 1333, 1208
4962, 1448, 703, 1350, 740
4963, 1448, 1350, 703, 1190
4964, 347, 774, 1265, 379
4965, 1265, 774, 347, 679
4966, 1311, 597, 1394, 1236
4967, 1311, 1394, 597, 593
4968, 1440, 364, 1186, 1248
4969, 1440, 1186, 364, 425
4970, 1278, 1346, 1345, 1195
4971, 1345, 1346, 1278, 1210
4972, 1435, 1417, 1416, 1217
4973, 1435, 1416, 1417, 1224
4974, 719, 1432, 1346, 752
4975, 1346, 1432, 719, 1315
4976, 527, 1413, 447, 136
4977, 447, 1413, 527, 1352
4978, 812, 373, 113, 918
4979, 113, 373, 812, 363
4980, 1376, 253, 1064, 254
4981, 1376, 1064, 253, 1249
4982, 892, 369, 120, 804
4983, 892, 120, 369, 395
4984, 371, 759, 1443, 674
4985, 1443, 759, 371, 368
4986, 1289, 1396, 1271, 1187
4987, 1271, 1396, 1289, 1204
4988, 948, 490, 147, 528
4989, 147, 490, 948, 929
4990, 1309, 1390, 1291, 1212
4991, 1291, 1390, 1309, 1193
4992, 908, 369, 1331, 804
4993, 908, 1331, 369, 361
4994, 670, 379, 93, 349
4995, 670, 93, 379, 774
4996, 1269, 1010, 172, 171
4997, 1269, 172, 1010, 1386
4998, 1386, 1035, 1043, 1010
4999, 1386, 1043, 1035, 1299
5000, 1384, 724, 701, 737
5001, 1384, 701, 724, 1272
5002, 1405, 1413, 1352, 1171
5003, 1352, 1413, 1405, 1209
5004, 309, 563, 1275, 634
5005, 309, 1275, 563, 307
5006, 255, 900, 15, 1073
5007, 255, 15, 900, 229
5008, 766, 256, 11, 1074
5009, 766, 11, 256, 204
5010, 1398, 1016, 1045, 1022
5011, 1398, 1045, 1016, 1263
5012, 1404, 1015, 168, 167
5013, 1404, 168, 1015, 1330
5014, 1451, 1435, 608, 633
5015, 1451, 608, 1435, 1217
5016, 1452, 1145, 1129, 1138
5017, 1452, 1129, 1145, 1232
5018, 1389, 329, 321, 1269
5019, 1389, 321, 329, 292
5020, 1391, 414, 1400, 366
5021, 1391, 1400, 414, 1246
5022, 678, 1397, 784, 344
5023, 678, 784, 1397, 1361
5024, 374, 784, 1397, 344
5025, 374, 1397, 784, 1361
5026, 1423, 180, 616, 654
5027, 1423, 616, 180, 941
5028, 537, 301, 1389, 139
5029, 1389, 301, 537, 292
5030, 279, 562, 36, 294
5031, 279, 36, 562, 647
5032, 287, 521, 1222, 436
5033, 1222, 521, 287, 306
5034, 1403, 307, 1275, 318
5035, 1403, 1275, 307, 1362
5036, 1403, 319, 308, 336
5037, 1403, 308, 319, 1279
5038, 1335, 397, 423, 358
5039, 1335, 423, 397, 1289
5040, 1382, 841, 856, 842
5041, 1382, 856, 841, 1308
5042, 1385, 103, 811, 890
5043, 1385, 811, 103, 394
5044, 1410, 1121, 1111, 1120
5045, 1410, 1111, 1121, 1363
5046, 1381, 1013, 227, 1301
5047, 1381, 227, 1013, 1020
5048, 171, 1317, 1010, 1042
5049, 1010, 1317, 171, 1269
5050, 1450, 477, 1197, 535
5051, 1450, 1197, 477, 1337
5052, 623, 1438, 597, 661
5053, 597, 1438, 623, 1394
5054, 1277, 974, 993, 1003
5055, 1277, 993, 974, 1393
5056, 1440, 890, 882, 807
5057, 1440, 882, 890, 1385
5058, 976, 1422, 1002, 996
5059, 1283, 1302, 1175, 698
5060, 1283, 1175, 1302, 1231
5061, 711, 1283, 698, 1302
5062, 698, 1283, 711, 743
5063, 1413, 1422, 976, 1163
5064, 1413, 976, 1422, 1002

*NSET, NSET=CONSTRAINT_1
3, 4, 7, 9, 44, 45, 127, 128, 129, 130, 131, 158, 159, 160, 161, 162
163, 164, 539, 540, 541, 542, 543, 544, 545, 546, 547, 548, 549, 550, 551, 552
553, 554, 555

*NSET, NSET=DLOAD_1
194, 195, 196, 219, 220, 221, 1050, 1055, 1056, 1065, 1066, 1069, 1070

*MATERIAL, NAME=STRUCTURAL_STEEL
*ELASTIC
200000.000000, 0.300000

*SOLID SECTION, ELSET=ALL_ELEMENTS, MATERIAL=STRUCTURAL_STEEL

*BOUNDARY
CONSTRAINT_1, 1, 3

*STEP, NLGEOM=NO
*STATIC
0.1, 1.0

*CLOAD
DLOAD_1, 2, -50000.000000

*NODE FILE
U, RF
*EL FILE
S, E

*END STEP
