*HEADING
Bracket design domain created via CSG: base block with two cylindrical through-holes for dual-bolt loading.

*NODE, NSET=ALL_NODES
1, 0.000000, 0.000000, 0.000000
2, 0.000000, 0.000000, 24.242399
3, 0.000000, 48.484798, 0.000000
4, 0.000000, 48.484798, 24.242399
5, 90.909103, 0.000000, 0.000000
6, 90.909103, 0.000000, 24.242399
7, 90.909103, 48.484798, 24.242399
8, 37.878799, 24.242399, 24.242399
9, 81.818199, 24.242399, 24.242399
10, 90.909103, 48.484798, 0.000000
11, 37.878799, 24.242399, 0.000000
12, 81.818199, 24.242399, 0.000000
13, 0.000000, 0.000000, 4.848480
14, 0.000000, 0.000000, 9.696960
15, 0.000000, 0.000000, 14.545440
16, 0.000000, 0.000000, 19.393921
17, 0.000000, 4.848480, 0.000000
18, 0.000000, 9.696960, 0.000000
19, 0.000000, 14.545440, 0.000000
20, 0.000000, 19.393921, 0.000000
21, 0.000000, 24.242399, 0.000000
22, 0.000000, 29.090879, 0.000000
23, 0.000000, 33.939362, 0.000000
24, 0.000000, 38.787842, 0.000000
25, 0.000000, 43.636318, 0.000000
26, 0.000000, 48.484798, 4.848480
27, 0.000000, 48.484798, 9.696960
28, 0.000000, 48.484798, 14.545440
29, 0.000000, 48.484798, 19.393921
30, 0.000000, 4.848480, 24.242399
31, 0.000000, 9.696960, 24.242399
32, 0.000000, 14.545440, 24.242399
33, 0.000000, 19.393921, 24.242399
34, 0.000000, 24.242399, 24.242399
35, 0.000000, 29.090879, 24.242399
36, 0.000000, 33.939362, 24.242399
37, 0.000000, 38.787842, 24.242399
38, 0.000000, 43.636318, 24.242399
39, 4.784689, 0.000000, 0.000000
40, 9.569379, 0.000000, 0.000000
41, 14.354069, 0.000000, 0.000000
42, 19.138758, 0.000000, 0.000000
43, 23.923447, 0.000000, 0.000000
44, 28.708138, 0.000000, 0.000000
45, 33.492825, 0.000000, 0.000000
46, 38.277515, 0.000000, 0.000000
47, 43.062206, 0.000000, 0.000000
48, 47.846893, 0.000000, 0.000000
49, 52.631584, 0.000000, 0.000000
50, 57.416275, 0.000000, 0.000000
51, 62.200962, 0.000000, 0.000000
52, 66.985649, 0.000000, 0.000000
53, 71.770340, 0.000000, 0.000000
54, 76.555031, 0.000000, 0.000000
55, 81.339722, 0.000000, 0.000000
56, 86.124413, 0.000000, 0.000000
57, 4.784689, 0.000000, 24.242399
58, 9.569379, 0.000000, 24.242399
59, 14.354069, 0.000000, 24.242399
60, 19.138758, 0.000000, 24.242399
61, 23.923447, 0.000000, 24.242399
62, 28.708138, 0.000000, 24.242399
63, 33.492825, 0.000000, 24.242399
64, 38.277515, 0.000000, 24.242399
65, 43.062206, 0.000000, 24.242399
66, 47.846893, 0.000000, 24.242399
67, 52.631584, 0.000000, 24.242399
68, 57.416275, 0.000000, 24.242399
69, 62.200962, 0.000000, 24.242399
70, 66.985649, 0.000000, 24.242399
71, 71.770340, 0.000000, 24.242399
72, 76.555031, 0.000000, 24.242399
73, 81.339722, 0.000000, 24.242399
74, 86.124413, 0.000000, 24.242399
75, 90.909103, 0.000000, 4.848480
76, 90.909103, 0.000000, 9.696960
77, 90.909103, 0.000000, 14.545440
78, 90.909103, 0.000000, 19.393921
79, 90.909103, 4.848480, 24.242399
80, 90.909103, 9.696960, 24.242399
81, 90.909103, 14.545440, 24.242399
82, 90.909103, 19.393921, 24.242399
83, 90.909103, 24.242399, 24.242399
84, 90.909103, 29.090879, 24.242399
85, 90.909103, 33.939362, 24.242399
86, 90.909103, 38.787842, 24.242399
87, 90.909103, 43.636318, 24.242399
88, 4.784689, 48.484798, 24.242399
89, 9.569379, 48.484798, 24.242399
90, 14.354069, 48.484798, 24.242399
91, 19.138758, 48.484798, 24.242399
92, 23.923447, 48.484798, 24.242399
93, 28.708138, 48.484798, 24.242399
94, 33.492825, 48.484798, 24.242399
95, 38.277515, 48.484798, 24.242399
96, 43.062206, 48.484798, 24.242399
97, 47.846893, 48.484798, 24.242399
98, 52.631584, 48.484798, 24.242399
99, 57.416275, 48.484798, 24.242399
100, 62.200962, 48.484798, 24.242399
101, 66.985649, 48.484798, 24.242399
102, 71.770340, 48.484798, 24.242399
103, 76.555031, 48.484798, 24.242399
104, 81.339722, 48.484798, 24.242399
105, 86.124413, 48.484798, 24.242399
106, 36.431950, 28.695343, 24.242399
107, 32.644051, 31.447414, 24.242399
108, 27.961948, 31.447414, 24.242399
109, 24.174049, 28.695343, 24.242399
110, 22.727200, 24.242399, 24.242399
111, 24.174049, 19.789457, 24.242399
112, 27.961948, 17.037386, 24.242399
113, 32.644051, 17.037386, 24.242399
114, 36.431950, 19.789457, 24.242399
115, 80.600250, 28.787849, 24.242399
116, 77.272751, 32.115349, 24.242399
117, 72.727303, 33.333302, 24.242399
118, 68.181847, 32.115349, 24.242399
119, 64.854347, 28.787849, 24.242399
120, 63.636398, 24.242399, 24.242399
121, 64.854347, 19.696951, 24.242399
122, 68.181847, 16.369450, 24.242399
123, 72.727303, 15.151500, 24.242399
124, 77.272751, 16.369450, 24.242399
125, 80.600250, 19.696951, 24.242399
126, 4.784689, 48.484798, 0.000000
127, 9.569379, 48.484798, 0.000000
128, 14.354069, 48.484798, 0.000000
129, 19.138758, 48.484798, 0.000000
130, 23.923447, 48.484798, 0.000000
131, 28.708138, 48.484798, 0.000000
132, 33.492825, 48.484798, 0.000000
133, 38.277515, 48.484798, 0.000000
134, 43.062206, 48.484798, 0.000000
135, 47.846893, 48.484798, 0.000000
136, 52.631584, 48.484798, 0.000000
137, 57.416275, 48.484798, 0.000000
138, 62.200962, 48.484798, 0.000000
139, 66.985649, 48.484798, 0.000000
140, 71.770340, 48.484798, 0.000000
141, 76.555031, 48.484798, 0.000000
142, 81.339722, 48.484798, 0.000000
143, 86.124413, 48.484798, 0.000000
144, 90.909103, 48.484798, 4.848480
145, 90.909103, 48.484798, 9.696960
146, 90.909103, 48.484798, 14.545440
147, 90.909103, 48.484798, 19.393921
148, 90.909103, 4.848480, 0.000000
149, 90.909103, 9.696960, 0.000000
150, 90.909103, 14.545440, 0.000000
151, 90.909103, 19.393921, 0.000000
152, 90.909103, 24.242399, 0.000000
153, 90.909103, 29.090879, 0.000000
154, 90.909103, 33.939362, 0.000000
155, 90.909103, 38.787842, 0.000000
156, 90.909103, 43.636318, 0.000000
157, 36.431950, 28.695343, 0.000000
158, 32.644051, 31.447414, 0.000000
159, 27.961948, 31.447414, 0.000000
160, 24.174049, 28.695343, 0.000000
161, 22.727200, 24.242399, 0.000000
162, 24.174049, 19.789457, 0.000000
163, 27.961948, 17.037386, 0.000000
164, 32.644051, 17.037386, 0.000000
165, 36.431950, 19.789457, 0.000000
166, 80.600250, 28.787849, 0.000000
167, 77.272751, 32.115349, 0.000000
168, 72.727303, 33.333302, 0.000000
169, 68.181847, 32.115349, 0.000000
170, 64.854347, 28.787849, 0.000000
171, 63.636398, 24.242399, 0.000000
172, 64.854347, 19.696951, 0.000000
173, 68.181847, 16.369450, 0.000000
174, 72.727303, 15.151500, 0.000000
175, 77.272751, 16.369450, 0.000000
176, 80.600250, 19.696951, 0.000000
177, 37.878799, 24.242399, 4.848480
178, 37.878799, 24.242399, 9.696960
179, 37.878799, 24.242399, 14.545440
180, 37.878799, 24.242399, 19.393921
181, 81.818199, 24.242399, 4.848480
182, 81.818199, 24.242399, 9.696960
183, 81.818199, 24.242399, 14.545440
184, 81.818199, 24.242399, 19.393921
185, 0.000000, 16.969681, 4.198907
186, 0.000000, 31.450603, 4.082405
187, 0.000000, 12.371234, 20.277557
188, 0.000000, 21.818159, 20.043493
189, 0.000000, 36.363602, 20.043493
190, 0.000000, 3.968641, 12.395986
191, 0.000000, 44.539223, 11.886827
192, 0.000000, 7.293265, 4.105557
193, 0.000000, 40.875473, 4.652166
194, 0.000000, 12.124624, 4.183349
195, 0.000000, 14.546011, 8.395221
196, 0.000000, 19.394014, 8.397382
197, 0.000000, 16.969681, 12.596721
198, 0.000000, 21.818159, 12.596721
199, 0.000000, 24.177900, 8.360494
200, 0.000000, 26.658962, 12.309230
201, 0.000000, 11.752686, 12.571342
202, 0.000000, 9.550118, 7.978977
203, 0.000000, 4.106230, 16.966927
204, 0.000000, 21.807426, 4.192615
205, 0.000000, 31.579636, 20.080742
206, 0.000000, 34.014629, 15.888042
207, 0.000000, 38.890114, 16.248171
208, 0.000000, 36.757820, 11.735289
209, 0.000000, 31.554390, 11.834725
210, 0.000000, 41.201843, 20.127680
211, 0.000000, 26.578833, 4.134973
212, 0.000000, 16.969681, 20.043493
213, 0.000000, 36.086456, 4.043923
214, 0.000000, 26.741909, 20.166203
215, 0.000000, 7.651494, 19.657709
216, 0.000000, 44.629265, 7.388922
217, 0.000000, 4.554835, 7.669030
218, 0.000000, 43.928551, 16.575928
219, 0.000000, 7.660158, 14.889343
220, 0.000000, 40.881912, 9.401046
221, 0.000000, 29.230841, 16.090765
222, 0.000000, 28.958231, 8.126488
223, 0.000000, 14.736101, 16.407566
224, 0.000000, 19.393921, 16.320107
225, 0.000000, 24.242399, 16.320107
226, 0.000000, 33.722267, 7.904918
227, 0.000000, 44.935467, 3.549334
228, 0.000000, 3.549334, 20.693066
229, 0.000000, 3.549334, 3.549334
230, 0.000000, 44.935467, 20.693066
231, 0.000000, 37.526096, 7.606677
232, 0.000000, 10.834334, 16.760704
233, 0.000000, 7.497288, 11.100935
234, 0.000000, 40.999523, 13.169452
235, 69.223228, 0.000000, 4.054308
236, 50.325279, 0.000000, 4.042393
237, 25.827156, 0.000000, 4.577431
238, 16.725679, 0.000000, 4.435760
239, 35.837704, 0.000000, 3.805293
240, 59.808617, 0.000000, 4.007953
241, 86.739159, 0.000000, 12.075616
242, 74.180061, 0.000000, 19.810387
243, 45.454552, 0.000000, 20.098734
244, 65.078140, 0.000000, 19.669926
245, 21.685272, 0.000000, 20.187746
246, 31.100481, 0.000000, 20.235348
247, 55.028194, 0.000000, 20.362967
248, 11.571175, 0.000000, 19.921064
249, 4.169134, 0.000000, 12.167426
250, 79.335991, 0.000000, 4.321354
251, 7.641547, 0.000000, 4.387145
252, 83.266769, 0.000000, 19.856606
253, 4.054046, 0.000000, 16.947828
254, 8.727975, 0.000000, 15.327895
255, 8.355526, 0.000000, 9.747407
256, 12.541654, 0.000000, 12.137170
257, 12.320651, 0.000000, 7.291562
258, 16.662092, 0.000000, 9.649322
259, 16.692747, 0.000000, 14.535032
260, 20.683502, 0.000000, 12.217364
261, 21.070143, 0.000000, 7.325430
262, 24.991323, 0.000000, 9.753201
263, 29.600389, 0.000000, 8.144940
264, 28.860041, 0.000000, 12.682180
265, 33.356983, 0.000000, 10.997539
266, 86.854759, 0.000000, 7.294626
267, 82.178101, 0.000000, 8.915498
268, 82.551186, 0.000000, 14.498343
269, 78.360512, 0.000000, 12.107504
270, 78.584747, 0.000000, 16.954058
271, 74.239624, 0.000000, 14.597181
272, 74.220970, 0.000000, 9.732678
273, 70.218124, 0.000000, 12.031330
274, 69.833534, 0.000000, 16.922150
275, 65.907257, 0.000000, 14.496612
276, 61.302631, 0.000000, 16.105579
277, 62.037689, 0.000000, 11.569596
278, 57.542229, 0.000000, 13.258186
279, 40.669861, 0.000000, 20.098734
280, 43.062206, 0.000000, 15.955042
281, 47.846916, 0.000000, 15.955046
282, 45.454620, 0.000000, 11.862981
283, 50.118912, 0.000000, 11.942125
284, 40.839394, 0.000000, 11.969557
285, 43.090469, 0.000000, 7.962882
286, 64.567513, 0.000000, 3.970442
287, 66.587379, 0.000000, 8.627659
288, 55.081257, 0.000000, 4.079347
289, 57.588711, 0.000000, 8.519872
290, 35.885170, 0.000000, 20.121504
291, 33.393795, 0.000000, 15.771381
292, 26.341488, 0.000000, 20.272953
293, 24.318285, 0.000000, 15.617504
294, 16.640778, 0.000000, 19.398394
295, 50.239952, 0.000000, 20.142776
296, 53.180229, 0.000000, 15.789975
297, 38.458858, 0.000000, 16.052525
298, 74.266823, 0.000000, 4.847295
299, 3.942965, 0.000000, 7.392739
300, 86.965469, 0.000000, 16.850552
301, 7.143591, 0.000000, 20.227079
302, 83.764885, 0.000000, 4.015447
303, 45.712471, 0.000000, 3.994752
304, 40.489403, 0.000000, 3.984856
305, 52.500835, 0.000000, 8.054157
306, 37.711861, 0.000000, 8.323388
307, 47.847290, 0.000000, 7.977532
308, 31.139729, 0.000000, 3.879458
309, 59.762947, 0.000000, 20.358353
310, 62.117985, 0.000000, 7.339104
311, 28.802818, 0.000000, 16.915874
312, 21.531103, 0.000000, 3.319501
313, 69.377998, 0.000000, 20.927456
314, 12.122265, 0.000000, 3.222893
315, 78.785263, 0.000000, 21.021170
316, 12.979645, 0.000000, 16.170979
317, 77.920471, 0.000000, 8.071532
318, 20.048243, 0.000000, 16.463642
319, 70.857765, 0.000000, 7.779168
320, 33.529335, 0.000000, 7.030123
321, 57.363247, 0.000000, 17.175013
322, 36.863541, 0.000000, 12.457226
323, 54.095531, 0.000000, 11.672269
324, 3.543201, 0.000000, 20.682446
325, 87.365898, 0.000000, 3.559955
326, 3.491584, 0.000000, 3.509017
327, 87.417519, 0.000000, 20.733383
328, 50.531681, 44.598705, 24.242399
329, 50.307526, 3.789982, 24.242399
330, 60.309467, 20.915573, 24.242399
331, 41.036476, 27.896729, 24.242399
332, 4.198920, 16.948151, 24.242399
333, 4.228831, 31.431833, 24.242399
334, 41.048534, 20.601343, 24.242399
335, 16.739849, 44.235813, 24.242399
336, 16.737442, 4.268202, 24.242399
337, 63.636398, 33.333302, 24.242399
338, 39.756187, 16.441771, 24.242399
339, 44.107845, 17.301897, 24.242399
340, 39.756645, 32.048687, 24.242399
341, 44.319454, 31.467987, 24.242399
342, 59.808617, 4.143662, 24.242399
343, 19.860476, 20.499462, 24.242399
344, 19.854061, 27.868315, 24.242399
345, 58.889114, 25.406290, 24.242399
346, 30.302999, 12.982567, 24.242399
347, 30.302999, 35.502232, 24.242399
348, 23.921488, 15.209536, 24.242399
349, 23.925968, 33.297951, 24.242399
350, 55.729115, 22.124624, 24.242399
351, 56.981922, 17.589350, 24.242399
352, 78.647209, 3.920367, 24.242399
353, 78.646164, 44.565037, 24.242399
354, 40.196411, 4.113670, 24.242399
355, 40.204197, 44.376743, 24.242399
356, 68.980637, 11.951693, 24.242399
357, 69.399803, 36.660801, 24.242399
358, 59.655369, 44.435577, 24.242399
359, 54.505211, 26.669765, 24.242399
360, 86.319420, 12.516006, 24.242399
361, 86.318169, 35.971378, 24.242399
362, 4.080762, 7.489296, 24.242399
363, 4.082441, 41.012146, 24.242399
364, 44.910145, 21.950628, 24.242399
365, 64.846008, 13.039714, 24.242399
366, 25.613201, 43.946701, 24.242399
367, 25.612328, 4.557958, 24.242399
368, 42.719765, 12.873996, 24.242399
369, 46.933491, 13.970055, 24.242399
370, 42.759350, 35.664368, 24.242399
371, 47.635078, 35.217197, 24.242399
372, 38.096676, 36.662666, 24.242399
373, 38.095707, 11.831963, 24.242399
374, 75.979828, 11.414931, 24.242399
375, 72.727303, 7.731532, 24.242399
376, 75.979828, 37.069870, 24.242399
377, 72.727303, 40.753269, 24.242399
378, 66.067139, 8.477213, 24.242399
379, 64.472481, 38.540161, 24.242399
380, 52.694752, 18.557774, 24.242399
381, 53.910355, 14.130296, 24.242399
382, 57.716362, 29.959034, 24.242399
383, 58.214588, 13.030556, 24.242399
384, 54.875221, 9.682874, 24.242399
385, 53.382267, 31.163065, 24.242399
386, 56.625961, 33.874306, 24.242399
387, 50.349434, 27.328438, 24.242399
388, 45.855778, 9.292472, 24.242399
389, 45.865665, 39.202915, 24.242399
390, 50.576721, 38.192928, 24.242399
391, 80.823746, 35.716888, 24.242399
392, 80.823784, 12.768267, 24.242399
393, 85.355782, 20.152966, 24.242399
394, 85.355782, 28.331835, 24.242399
395, 69.377998, 4.143662, 24.242399
396, 69.850998, 44.570633, 24.242399
397, 4.167819, 12.161333, 24.242399
398, 8.357591, 14.549173, 24.242399
399, 8.379466, 19.337057, 24.242399
400, 12.373915, 16.933996, 24.242399
401, 12.482276, 12.155588, 24.242399
402, 12.330117, 21.713974, 24.242399
403, 8.372242, 24.121319, 24.242399
404, 12.324393, 26.490108, 24.242399
405, 16.377676, 14.140001, 24.242399
406, 16.639919, 9.773926, 24.242399
407, 12.517680, 7.390298, 24.242399
408, 20.894745, 7.073457, 24.242399
409, 8.375659, 28.935999, 24.242399
410, 12.352471, 31.407049, 24.242399
411, 4.191753, 36.305710, 24.242399
412, 8.366401, 38.726906, 24.242399
413, 7.851987, 43.996624, 24.242399
414, 12.475039, 41.188606, 24.242399
415, 12.496723, 36.311214, 24.242399
416, 16.673393, 39.027184, 24.242399
417, 20.907255, 41.475349, 24.242399
418, 16.381563, 34.332836, 24.242399
419, 8.335306, 33.853119, 24.242399
420, 87.060532, 41.096176, 24.242399
421, 87.060684, 7.391543, 24.242399
422, 45.305450, 4.720746, 24.242399
423, 55.065845, 4.644336, 24.242399
424, 45.344727, 43.750832, 24.242399
425, 55.195839, 44.489830, 24.242399
426, 57.576195, 40.751087, 24.242399
427, 64.755997, 43.679161, 24.242399
428, 4.224973, 26.578485, 24.242399
429, 30.971992, 4.209296, 24.242399
430, 28.559513, 8.648438, 24.242399
431, 33.638836, 8.996813, 24.242399
432, 35.654911, 4.184354, 24.242399
433, 30.979046, 44.285149, 24.242399
434, 28.559309, 39.857487, 24.242399
435, 33.646503, 39.498291, 24.242399
436, 35.658928, 44.305714, 24.242399
437, 51.567451, 22.904562, 24.242399
438, 61.527664, 16.372496, 24.242399
439, 8.332974, 9.785366, 24.242399
440, 7.848013, 4.512851, 24.242399
441, 4.195933, 21.770222, 24.242399
442, 61.644794, 9.368542, 24.242399
443, 83.926949, 32.112354, 24.242399
444, 83.926949, 16.372444, 24.242399
445, 64.529327, 4.114109, 24.242399
446, 45.521969, 26.811354, 24.242399
447, 50.382854, 10.820213, 24.242399
448, 21.008331, 36.839485, 24.242399
449, 16.808956, 24.124413, 24.242399
450, 20.987375, 11.696150, 24.242399
451, 79.761795, 8.080851, 24.242399
452, 79.760269, 40.405224, 24.242399
453, 83.417931, 4.481474, 24.242399
454, 83.416077, 44.006271, 24.242399
455, 41.587502, 8.436532, 24.242399
456, 41.604019, 40.060337, 24.242399
457, 24.512297, 8.907426, 24.242399
458, 24.517084, 39.614819, 24.242399
459, 74.184113, 3.670438, 24.242399
460, 74.212776, 44.828339, 24.242399
461, 48.316895, 19.000616, 24.242399
462, 83.475754, 39.439186, 24.242399
463, 83.476723, 9.047628, 24.242399
464, 34.341553, 35.130680, 24.242399
465, 34.339344, 13.355394, 24.242399
466, 16.316324, 18.746481, 24.242399
467, 12.205317, 3.234270, 24.242399
468, 16.311991, 29.614214, 24.242399
469, 12.198065, 45.278130, 24.242399
470, 21.531103, 3.148337, 24.242399
471, 37.480671, 40.776413, 24.242399
472, 37.477562, 7.715105, 24.242399
473, 52.950947, 41.148575, 24.242399
474, 21.531103, 45.364494, 24.242399
475, 52.336967, 34.757420, 24.242399
476, 42.079185, 24.300489, 24.242399
477, 58.137115, 7.815229, 24.242399
478, 61.431927, 40.776283, 24.242399
479, 60.087292, 36.731335, 24.242399
480, 68.906403, 40.412094, 24.242399
481, 87.484070, 16.596155, 24.242399
482, 87.483818, 31.889162, 24.242399
483, 26.045940, 36.093231, 24.242399
484, 26.040937, 12.413584, 24.242399
485, 48.924194, 31.124243, 24.242399
486, 87.066833, 24.242399, 24.242399
487, 87.357544, 3.568198, 24.242399
488, 87.365898, 44.924847, 24.242399
489, 3.543201, 44.924847, 24.242399
490, 3.543201, 3.559955, 24.242399
491, 61.334297, 28.789980, 24.242399
492, 76.260048, 6.963624, 24.242399
493, 76.261185, 41.609642, 24.242399
494, 59.880062, 32.537590, 24.242399
495, 51.961266, 7.229067, 24.242399
496, 50.366272, 15.599014, 24.242399
497, 20.272898, 16.680182, 24.242399
498, 20.275993, 31.774691, 24.242399
499, 36.100147, 16.340042, 24.242399
500, 36.100967, 32.145012, 24.242399
501, 47.904289, 24.316034, 24.242399
502, 48.722015, 7.212543, 24.242399
503, 48.710178, 41.212181, 24.242399
504, 55.025681, 37.575943, 24.242399
505, 66.422630, 35.162403, 24.242399
506, 72.524925, 11.033628, 24.242399
507, 72.524475, 37.430176, 24.242399
508, 69.553391, 7.952028, 24.242399
509, 69.114845, 48.484798, 3.907835
510, 50.548332, 48.484798, 20.304140
511, 25.943436, 48.484798, 19.554680
512, 16.732882, 48.484798, 4.293334
513, 35.628372, 48.484798, 20.483429
514, 59.819580, 48.484798, 20.155708
515, 86.739159, 48.484798, 12.075616
516, 74.173691, 48.484798, 19.952749
517, 54.607300, 48.484798, 4.215974
518, 45.565086, 48.484798, 4.432139
519, 11.663346, 48.484798, 19.796053
520, 30.908812, 48.484798, 3.988415
521, 4.169134, 48.484798, 12.167426
522, 79.335991, 48.484798, 4.321354
523, 7.641434, 48.484798, 4.387439
524, 83.266769, 48.484798, 19.856606
525, 4.054046, 48.484798, 16.947828
526, 8.741097, 48.484798, 15.310033
527, 8.345675, 48.484798, 9.755672
528, 12.541654, 48.484798, 12.137170
529, 12.319702, 48.484798, 7.269411
530, 16.703192, 48.484798, 9.505113
531, 21.243286, 48.484798, 7.016248
532, 21.068361, 48.484798, 11.817856
533, 25.227201, 48.484798, 9.267337
534, 25.435114, 48.484798, 14.181622
535, 29.363104, 48.484798, 11.628414
536, 21.300615, 48.484798, 16.598967
537, 29.780952, 48.484798, 16.231239
538, 33.581711, 48.484798, 13.472937
539, 33.209663, 48.484798, 8.180258
540, 37.625626, 48.484798, 10.866287
541, 37.781322, 48.484798, 5.807384
542, 41.659348, 48.484798, 8.117344
543, 41.931450, 48.484798, 13.093309
544, 45.977856, 48.484798, 9.973868
545, 49.968426, 48.484798, 7.052105
546, 50.267300, 48.484798, 12.412300
547, 45.923191, 48.484798, 15.094562
548, 42.257053, 48.484798, 17.001493
549, 16.982151, 48.484798, 14.263124
550, 16.849911, 48.484798, 19.443644
551, 86.854759, 48.484798, 7.294626
552, 82.178101, 48.484798, 8.915498
553, 82.551186, 48.484798, 14.498343
554, 78.360512, 48.484798, 12.107504
555, 78.583687, 48.484798, 16.977785
556, 74.197823, 48.484798, 14.742881
557, 69.659752, 48.484798, 17.233795
558, 69.946457, 48.484798, 12.537935
559, 65.682076, 48.484798, 14.999243
560, 65.941933, 48.484798, 10.599236
561, 61.649975, 48.484798, 12.759341
562, 61.972733, 48.484798, 7.965033
563, 57.757404, 48.484798, 10.779098
564, 74.173187, 48.484798, 9.846021
565, 57.511166, 48.484798, 15.426044
566, 55.023930, 48.484798, 20.098738
567, 65.128265, 48.484798, 19.833815
568, 25.753960, 48.484798, 4.401861
569, 64.499657, 48.484798, 3.765455
570, 37.777206, 48.484798, 16.036674
571, 74.161690, 48.484798, 4.914397
572, 52.815350, 48.484798, 16.303511
573, 3.941304, 48.484798, 7.394166
574, 86.965469, 48.484798, 16.850552
575, 7.225293, 48.484798, 20.214746
576, 83.764885, 48.484798, 4.015447
577, 59.718903, 48.484798, 3.805533
578, 31.134710, 48.484798, 20.415836
579, 45.683701, 48.484798, 20.048759
580, 41.269096, 48.484798, 3.671373
581, 70.261963, 48.484798, 8.254040
582, 21.531103, 48.484798, 20.791603
583, 53.815056, 48.484798, 8.946241
584, 12.123493, 48.484798, 3.190037
585, 78.783783, 48.484798, 21.054388
586, 13.355632, 48.484798, 16.190004
587, 77.641899, 48.484798, 8.020954
588, 28.735729, 48.484798, 7.428930
589, 62.019245, 48.484798, 16.689430
590, 50.239239, 48.484798, 3.117243
591, 21.358467, 48.484798, 3.142289
592, 69.543541, 48.484798, 21.101032
593, 39.837036, 48.484798, 20.609636
594, 57.605499, 48.484798, 6.953280
595, 34.802139, 48.484798, 3.518374
596, 3.543201, 48.484798, 20.682446
597, 33.336697, 48.484798, 17.358366
598, 87.365898, 48.484798, 3.559955
599, 3.491584, 48.484798, 3.509017
600, 87.417519, 48.484798, 20.733383
601, 54.253296, 48.484798, 12.766811
602, 66.712181, 48.484798, 6.902977
603, 49.288071, 48.484798, 16.813030
604, 50.531681, 44.598705, 0.000000
605, 50.307526, 3.789982, 0.000000
606, 60.309467, 20.915573, 0.000000
607, 41.036476, 27.896729, 0.000000
608, 4.198920, 16.948151, 0.000000
609, 4.228831, 31.431833, 0.000000
610, 41.048534, 20.601343, 0.000000
611, 16.739849, 44.235813, 0.000000
612, 16.737442, 4.268202, 0.000000
613, 63.636398, 33.333302, 0.000000
614, 39.756187, 16.441771, 0.000000
615, 44.107845, 17.301897, 0.000000
616, 39.756645, 32.048687, 0.000000
617, 44.319454, 31.467987, 0.000000
618, 59.808617, 4.143662, 0.000000
619, 19.860476, 20.499462, 0.000000
620, 19.854061, 27.868315, 0.000000
621, 58.889114, 25.406290, 0.000000
622, 30.302999, 12.982567, 0.000000
623, 30.302999, 35.502232, 0.000000
624, 23.921488, 15.209536, 0.000000
625, 23.925968, 33.297951, 0.000000
626, 55.729115, 22.124624, 0.000000
627, 56.981922, 17.589350, 0.000000
628, 78.647209, 3.920367, 0.000000
629, 78.646164, 44.565037, 0.000000
630, 40.196411, 4.113670, 0.000000
631, 40.204197, 44.376743, 0.000000
632, 68.980637, 11.951693, 0.000000
633, 69.399803, 36.660801, 0.000000
634, 59.655369, 44.435577, 0.000000
635, 54.505211, 26.669765, 0.000000
636, 86.319420, 12.516006, 0.000000
637, 86.318169, 35.971378, 0.000000
638, 4.080762, 7.489296, 0.000000
639, 4.082441, 41.012146, 0.000000
640, 44.910145, 21.950628, 0.000000
641, 64.846008, 13.039714, 0.000000
642, 25.613201, 43.946701, 0.000000
643, 25.612328, 4.557958, 0.000000
644, 42.719765, 12.873996, 0.000000
645, 46.933491, 13.970055, 0.000000
646, 42.759350, 35.664368, 0.000000
647, 47.635078, 35.217197, 0.000000
648, 38.096676, 36.662666, 0.000000
649, 38.095707, 11.831963, 0.000000
650, 75.979828, 11.414931, 0.000000
651, 72.727303, 7.731532, 0.000000
652, 75.979828, 37.069870, 0.000000
653, 72.727303, 40.753269, 0.000000
654, 66.067139, 8.477213, 0.000000
655, 64.472481, 38.540161, 0.000000
656, 52.694752, 18.557774, 0.000000
657, 53.910355, 14.130296, 0.000000
658, 57.716362, 29.959034, 0.000000
659, 58.214588, 13.030556, 0.000000
660, 54.875221, 9.682874, 0.000000
661, 53.382267, 31.163065, 0.000000
662, 56.625961, 33.874306, 0.000000
663, 50.349434, 27.328438, 0.000000
664, 45.855778, 9.292472, 0.000000
665, 45.865665, 39.202915, 0.000000
666, 50.576721, 38.192928, 0.000000
667, 80.823746, 35.716888, 0.000000
668, 80.823784, 12.768267, 0.000000
669, 85.355782, 20.152966, 0.000000
670, 85.355782, 28.331835, 0.000000
671, 69.377998, 4.143662, 0.000000
672, 69.850998, 44.570633, 0.000000
673, 4.167819, 12.161333, 0.000000
674, 8.357591, 14.549173, 0.000000
675, 8.379466, 19.337057, 0.000000
676, 12.373915, 16.933996, 0.000000
677, 12.482276, 12.155588, 0.000000
678, 12.330117, 21.713974, 0.000000
679, 8.372242, 24.121319, 0.000000
680, 12.324393, 26.490108, 0.000000
681, 16.377676, 14.140001, 0.000000
682, 16.639919, 9.773926, 0.000000
683, 12.517680, 7.390298, 0.000000
684, 20.894745, 7.073457, 0.000000
685, 8.375659, 28.935999, 0.000000
686, 12.352471, 31.407049, 0.000000
687, 4.191753, 36.305710, 0.000000
688, 8.366401, 38.726906, 0.000000
689, 7.851987, 43.996624, 0.000000
690, 12.475039, 41.188606, 0.000000
691, 12.496723, 36.311214, 0.000000
692, 16.673393, 39.027184, 0.000000
693, 20.907255, 41.475349, 0.000000
694, 16.381563, 34.332836, 0.000000
695, 8.335306, 33.853119, 0.000000
696, 87.060532, 41.096176, 0.000000
697, 87.060684, 7.391543, 0.000000
698, 45.305450, 4.720746, 0.000000
699, 55.065845, 4.644336, 0.000000
700, 45.344727, 43.750832, 0.000000
701, 55.195839, 44.489830, 0.000000
702, 57.576195, 40.751087, 0.000000
703, 64.755997, 43.679161, 0.000000
704, 4.224973, 26.578485, 0.000000
705, 30.971992, 4.209296, 0.000000
706, 28.559513, 8.648438, 0.000000
707, 33.638836, 8.996813, 0.000000
708, 35.654911, 4.184354, 0.000000
709, 30.979046, 44.285149, 0.000000
710, 28.559309, 39.857487, 0.000000
711, 33.646503, 39.498291, 0.000000
712, 35.658928, 44.305714, 0.000000
713, 51.567451, 22.904562, 0.000000
714, 61.527664, 16.372496, 0.000000
715, 8.332974, 9.785366, 0.000000
716, 7.848013, 4.512851, 0.000000
717, 4.195933, 21.770222, 0.000000
718, 61.644794, 9.368542, 0.000000
719, 83.926949, 32.112354, 0.000000
720, 83.926949, 16.372444, 0.000000
721, 64.529327, 4.114109, 0.000000
722, 45.521969, 26.811354, 0.000000
723, 50.382854, 10.820213, 0.000000
724, 21.008331, 36.839485, 0.000000
725, 16.808956, 24.124413, 0.000000
726, 20.987375, 11.696150, 0.000000
727, 79.761795, 8.080851, 0.000000
728, 79.760269, 40.405224, 0.000000
729, 83.417931, 4.481474, 0.000000
730, 83.416077, 44.006271, 0.000000
731, 41.587502, 8.436532, 0.000000
732, 41.604019, 40.060337, 0.000000
733, 24.512297, 8.907426, 0.000000
734, 24.517084, 39.614819, 0.000000
735, 74.184113, 3.670438, 0.000000
736, 74.212776, 44.828339, 0.000000
737, 48.316895, 19.000616, 0.000000
738, 83.475754, 39.439186, 0.000000
739, 83.476723, 9.047628, 0.000000
740, 34.341553, 35.130680, 0.000000
741, 34.339344, 13.355394, 0.000000
742, 16.316324, 18.746481, 0.000000
743, 12.205317, 3.234270, 0.000000
744, 16.311991, 29.614214, 0.000000
745, 12.198065, 45.278130, 0.000000
746, 21.531103, 3.148337, 0.000000
747, 37.480671, 40.776413, 0.000000
748, 37.477562, 7.715105, 0.000000
749, 52.950947, 41.148575, 0.000000
750, 21.531103, 45.364494, 0.000000
751, 52.336967, 34.757420, 0.000000
752, 42.079185, 24.300489, 0.000000
753, 58.137115, 7.815229, 0.000000
754, 61.431927, 40.776283, 0.000000
755, 60.087292, 36.731335, 0.000000
756, 68.906403, 40.412094, 0.000000
757, 87.484070, 16.596155, 0.000000
758, 87.483818, 31.889162, 0.000000
759, 26.045940, 36.093231, 0.000000
760, 26.040937, 12.413584, 0.000000
761, 48.924194, 31.124243, 0.000000
762, 87.066833, 24.242399, 0.000000
763, 87.357544, 3.568198, 0.000000
764, 87.365898, 44.924847, 0.000000
765, 3.543201, 44.924847, 0.000000
766, 3.543201, 3.559955, 0.000000
767, 61.334297, 28.789980, 0.000000
768, 76.260048, 6.963624, 0.000000
769, 76.261185, 41.609642, 0.000000
770, 59.880062, 32.537590, 0.000000
771, 51.961266, 7.229067, 0.000000
772, 50.366272, 15.599014, 0.000000
773, 20.272898, 16.680182, 0.000000
774, 20.275993, 31.774691, 0.000000
775, 36.100147, 16.340042, 0.000000
776, 36.100967, 32.145012, 0.000000
777, 47.904289, 24.316034, 0.000000
778, 48.722015, 7.212543, 0.000000
779, 48.710178, 41.212181, 0.000000
780, 55.025681, 37.575943, 0.000000
781, 66.422630, 35.162403, 0.000000
782, 72.524925, 11.033628, 0.000000
783, 72.524475, 37.430176, 0.000000
784, 69.553391, 7.952028, 0.000000
785, 90.909103, 16.969681, 20.043493
786, 90.909103, 31.515120, 4.198907
787, 90.909103, 12.331491, 3.987797
788, 90.909103, 21.818159, 4.198907
789, 90.909103, 26.666639, 20.043493
790, 90.909103, 36.363602, 20.043493
791, 90.909103, 44.539223, 11.886827
792, 90.909103, 3.945576, 11.886827
793, 90.909103, 7.293265, 20.136843
794, 90.909103, 40.875473, 4.652166
795, 90.909103, 12.124624, 20.059052
796, 90.909103, 14.546011, 15.847179
797, 90.909103, 19.394014, 15.845018
798, 90.909103, 16.969681, 11.645679
799, 90.909103, 21.818159, 11.645679
800, 90.909103, 11.752425, 11.671797
801, 90.909103, 7.639369, 4.622008
802, 90.909103, 16.969681, 4.198907
803, 90.909103, 31.515120, 20.043493
804, 90.909103, 33.939362, 15.844586
805, 90.909103, 38.877567, 16.240927
806, 90.909103, 36.745274, 11.728046
807, 90.909103, 31.578732, 11.817914
808, 90.909103, 29.101482, 15.873292
809, 90.909103, 26.672951, 11.743637
810, 90.909103, 26.666639, 4.198907
811, 90.909103, 9.549860, 16.263865
812, 90.909103, 21.818176, 20.043566
813, 90.909103, 41.201298, 20.127367
814, 90.909103, 36.097210, 4.063341
815, 90.909103, 24.245237, 15.865781
816, 90.909103, 43.926678, 16.574848
817, 90.909103, 4.551319, 16.579479
818, 90.909103, 44.629265, 7.388922
819, 90.909103, 3.917999, 7.420063
820, 90.909103, 7.622545, 9.390627
821, 90.909103, 40.879822, 9.399838
822, 90.909103, 14.729317, 7.838858
823, 90.909103, 19.393921, 7.922293
824, 90.909103, 24.242399, 7.922293
825, 90.909103, 33.758884, 7.889530
826, 90.909103, 29.090879, 7.922293
827, 90.909103, 44.935467, 3.549334
828, 90.909103, 44.935467, 20.693066
829, 90.909103, 3.549334, 3.549334
830, 90.909103, 3.549334, 20.693066
831, 90.909103, 37.563904, 7.591034
832, 90.909103, 10.958703, 7.606677
833, 90.909103, 7.521199, 13.136394
834, 90.909103, 40.993713, 13.166098
835, 23.088472, 21.930834, 20.123077
836, 25.816402, 30.346758, 20.207157
837, 36.715172, 20.207949, 12.121200
838, 25.850056, 18.113449, 4.037831
839, 23.062675, 26.471851, 3.942802
840, 30.328941, 31.818155, 3.910540
841, 36.730228, 28.252821, 12.093720
842, 30.421587, 16.667528, 20.751936
843, 34.274158, 30.693962, 20.159998
844, 34.275501, 17.791664, 4.081310
845, 36.402489, 28.735615, 7.203970
846, 33.627586, 31.049740, 9.696960
847, 33.796501, 30.964617, 14.568320
848, 29.591309, 31.784697, 12.165449
849, 29.896685, 31.807297, 16.897356
850, 25.870071, 30.385841, 14.571992
851, 25.788263, 30.325975, 9.723741
852, 23.307158, 27.149446, 12.145868
853, 23.285006, 27.095556, 16.756168
854, 22.832727, 22.982336, 14.499425
855, 22.816072, 23.085400, 9.710097
856, 24.371841, 19.529215, 12.046473
857, 36.715172, 20.207949, 16.969681
858, 33.679043, 17.460434, 14.589818
859, 33.793957, 17.518862, 9.667040
860, 29.569622, 16.702181, 12.157558
861, 30.178875, 16.667618, 7.260677
862, 24.023182, 20.004873, 16.072269
863, 25.798693, 30.333702, 4.300594
864, 23.116936, 21.843815, 3.930863
865, 36.927135, 27.918480, 16.745081
866, 36.789787, 20.329044, 7.510061
867, 34.623096, 30.465704, 3.952145
868, 34.168579, 17.727030, 20.242373
869, 26.264797, 17.832590, 20.027853
870, 23.930887, 20.144970, 7.719809
871, 23.097986, 26.583450, 20.878119
872, 30.302999, 31.818199, 20.889639
873, 30.302999, 16.666599, 3.344481
874, 29.486628, 31.774086, 7.990291
875, 23.309261, 27.154507, 7.996339
876, 30.341682, 16.666698, 16.615360
877, 37.076393, 27.635614, 3.556194
878, 26.577517, 17.645922, 9.606127
879, 26.727423, 17.563478, 14.286642
880, 37.116394, 27.554564, 20.770208
881, 37.116394, 20.930237, 3.472193
882, 37.124283, 20.946518, 20.787388
883, 22.727200, 24.242399, 6.465430
884, 32.604912, 31.460014, 6.489682
885, 70.374405, 15.461265, 20.178850
886, 70.359543, 33.019539, 20.235540
887, 63.942936, 26.583214, 20.207478
888, 75.069443, 15.458391, 4.021415
889, 66.299065, 17.814163, 4.063550
890, 74.903114, 33.069080, 3.950572
891, 66.299416, 30.670992, 4.051307
892, 80.848503, 20.156998, 12.121200
893, 80.860359, 28.304144, 12.094750
894, 78.170654, 31.523495, 20.035294
895, 78.735619, 17.420044, 20.163675
896, 80.266052, 19.161879, 7.141877
897, 77.534149, 16.526270, 9.819789
898, 78.241295, 17.014654, 14.555577
899, 73.855606, 15.221791, 12.165302
900, 74.631058, 15.353071, 16.909420
901, 70.145119, 15.525932, 14.542283
902, 66.321609, 17.791697, 17.395397
903, 66.383804, 17.730524, 12.630801
904, 64.244423, 20.973570, 15.252425
905, 64.135582, 21.271395, 10.610645
906, 63.674587, 25.074759, 13.167099
907, 63.717026, 25.450451, 8.561629
908, 64.994041, 29.021650, 11.307458
909, 69.337746, 15.807034, 9.975386
910, 64.839882, 28.762705, 16.104258
911, 68.131615, 32.086136, 13.903649
912, 68.181526, 32.115162, 8.686828
913, 71.758682, 33.281551, 11.891525
914, 80.969353, 28.078154, 7.344727
915, 79.068825, 30.756195, 9.609156
916, 78.811325, 30.997334, 14.498594
917, 63.946163, 26.595299, 4.017811
918, 63.986145, 21.745060, 5.962884
919, 70.268951, 32.994598, 4.018514
920, 66.296989, 30.668566, 20.259956
921, 63.946163, 21.889502, 20.178850
922, 74.395676, 33.178898, 20.209862
923, 70.416191, 15.450173, 4.003440
924, 72.168083, 33.316082, 16.398396
925, 80.912025, 20.285789, 16.727230
926, 80.959824, 28.098560, 16.767334
927, 78.881279, 17.551134, 3.917075
928, 78.866226, 30.947477, 4.004726
929, 72.727303, 33.333302, 7.662585
930, 66.037941, 18.086355, 8.345860
931, 73.226288, 15.165205, 7.850535
932, 75.080200, 15.461265, 20.896959
933, 64.996933, 29.026316, 7.428980
934, 63.644974, 24.637104, 16.959366
935, 66.299065, 17.814163, 21.195803
936, 80.873344, 20.206755, 3.629864
937, 81.131882, 27.707582, 3.560920
938, 75.176727, 32.997101, 12.059853
939, 81.174835, 20.883282, 20.763674
940, 80.892456, 28.239233, 20.629559
941, 68.186096, 32.117798, 17.474077
942, 63.944946, 21.894054, 2.471631
943, 76.024719, 32.714203, 16.829418
944, 68.717155, 16.083771, 6.812002
945, 76.062256, 32.699497, 7.315429
946, 77.242638, 16.352142, 6.488521
947, 52.962883, 16.250774, 12.121200
948, 13.044695, 14.558775, 12.121200
949, 53.602459, 36.241913, 12.121200
950, 12.898841, 33.845181, 12.121200
951, 43.127022, 10.950256, 11.050744
952, 48.677364, 26.393681, 13.331841
953, 42.633114, 37.601318, 10.944886
954, 10.108269, 24.180323, 10.110509
955, 60.537556, 9.874632, 10.279118
956, 50.334930, 8.536151, 15.621487
957, 62.073158, 39.221466, 14.972470
958, 21.122723, 9.528924, 14.453731
959, 20.960903, 38.896801, 9.619691
960, 82.212151, 39.051281, 8.808146
961, 45.137245, 18.190237, 15.576722
962, 55.691181, 28.724041, 8.339854
963, 82.688446, 9.696968, 9.634653
964, 34.710888, 8.635160, 9.068902
965, 34.378071, 39.776562, 8.781067
966, 50.334316, 8.656428, 7.661274
967, 55.640339, 22.961220, 16.057791
968, 8.080719, 9.155790, 15.980149
969, 69.581482, 7.965681, 8.072549
970, 26.509714, 40.210587, 15.967139
971, 48.061096, 40.505417, 16.203310
972, 8.055328, 39.337910, 8.253434
973, 59.503559, 40.840538, 7.669956
974, 67.644661, 40.558929, 9.025675
975, 29.401590, 8.328687, 15.633087
976, 46.389046, 17.460514, 7.687906
977, 57.794743, 32.090336, 16.933481
978, 8.042886, 19.354780, 16.205669
979, 26.328180, 9.402536, 8.042233
980, 36.743404, 38.563019, 16.459188
981, 15.664105, 40.529140, 16.158590
982, 37.959057, 7.939213, 16.301321
983, 19.593712, 13.536338, 7.813204
984, 81.284660, 38.640076, 16.668142
985, 8.023978, 28.955471, 16.220381
986, 10.037620, 7.990052, 7.960645
987, 45.686409, 32.961971, 16.587980
988, 7.950253, 38.578342, 16.173117
989, 7.456707, 17.350815, 7.472360
990, 48.999702, 40.786594, 7.775552
991, 47.936405, 32.328579, 7.916531
992, 7.353469, 31.307867, 7.319489
993, 81.832932, 7.743162, 16.493296
994, 75.139679, 41.370239, 7.474091
995, 58.719913, 16.119478, 17.027645
996, 67.761108, 7.888331, 16.258352
997, 55.317356, 41.575691, 17.236416
998, 56.539261, 21.184464, 7.528751
999, 16.107533, 20.142794, 8.198808
1000, 57.663780, 7.476824, 16.771278
1001, 73.841309, 40.918045, 16.539083
1002, 14.355246, 24.539022, 16.982622
1003, 74.841194, 7.497466, 13.533465
1004, 60.076672, 33.937382, 6.832647
1005, 27.409943, 41.286697, 7.093600
1006, 18.695333, 33.611794, 17.035860
1007, 18.196108, 15.670776, 17.256081
1008, 14.481426, 6.814366, 13.571149
1009, 15.823316, 28.512199, 7.526627
1010, 44.944229, 24.733564, 7.117520
1011, 17.086802, 6.821750, 6.820809
1012, 76.347282, 6.595942, 6.875287
1013, 44.592358, 11.680521, 17.731871
1014, 55.593864, 13.015158, 6.609784
1015, 44.388641, 24.348341, 17.997028
1016, 14.557896, 41.790005, 9.329239
1017, 51.189037, 18.602251, 17.917519
1018, 40.406391, 14.862873, 6.421000
1019, 84.601082, 14.367489, 12.944390
1020, 40.689682, 6.396361, 6.507668
1021, 52.637157, 28.323025, 18.222994
1022, 59.784504, 16.375093, 10.569422
1023, 84.710197, 34.180626, 12.843581
1024, 39.651157, 14.801998, 14.933247
1025, 67.867126, 38.643135, 17.977589
1026, 56.462059, 6.412921, 6.298259
1027, 43.172520, 29.550392, 11.534128
1028, 41.622040, 33.122940, 6.223681
1029, 40.302303, 42.023373, 6.360496
1030, 54.275188, 42.426838, 10.890091
1031, 15.877962, 35.879772, 6.488284
1032, 41.912418, 42.258919, 15.349186
1033, 11.642260, 14.526972, 18.361702
1034, 44.558475, 6.053314, 14.813205
1035, 13.645927, 14.572410, 5.778720
1036, 19.572033, 32.690144, 10.709610
1037, 50.658474, 21.609804, 9.744947
1038, 11.581922, 33.805130, 18.371908
1039, 5.671705, 24.061749, 5.668513
1040, 53.821156, 34.323215, 6.115788
1041, 51.372566, 35.399414, 18.002775
1042, 5.866053, 14.317934, 12.891301
1043, 32.004795, 42.356525, 18.290373
1044, 45.594624, 11.824860, 5.572277
1045, 62.539875, 11.293078, 16.014263
1046, 84.824387, 42.611378, 13.298122
1047, 63.716152, 6.131388, 6.082475
1048, 5.773490, 33.733589, 12.866153
1049, 39.668770, 33.331196, 18.148802
1050, 78.411964, 42.327877, 12.627306
1051, 53.605034, 12.992451, 18.240459
1052, 65.342552, 36.301304, 5.674157
1053, 33.661812, 11.808620, 18.345985
1054, 31.437870, 37.439339, 13.616723
1055, 5.820124, 11.763988, 5.810693
1056, 54.379284, 6.012315, 11.937435
1057, 5.584278, 14.545640, 18.899858
1058, 5.608277, 24.146229, 18.902279
1059, 22.099283, 5.490731, 10.006063
1060, 50.665447, 26.333595, 5.961483
1061, 17.706091, 25.096998, 12.041808
1062, 5.439011, 33.828617, 18.865812
1063, 24.409092, 6.567485, 18.628643
1064, 84.571388, 33.432400, 6.360332
1065, 62.667328, 5.628028, 13.978357
1066, 85.832581, 4.835032, 12.036246
1067, 72.845253, 9.396009, 18.663639
1068, 47.884247, 13.559988, 13.263283
1069, 51.925430, 17.516232, 5.728602
1070, 21.091249, 39.030552, 18.537170
1071, 63.657402, 13.038684, 6.363773
1072, 84.757072, 14.828352, 6.707337
1073, 21.542625, 42.930012, 14.011389
1074, 43.199795, 22.795345, 12.420568
1075, 26.368793, 36.557255, 10.586798
1076, 18.511898, 5.560755, 18.125366
1077, 45.779610, 5.328275, 9.153529
1078, 58.324287, 27.442493, 13.410919
1079, 5.753118, 5.779503, 11.569721
1080, 61.579704, 33.750618, 12.615107
1081, 43.561600, 37.903797, 18.894644
1082, 5.622766, 42.742901, 12.455083
1083, 85.723351, 33.939362, 18.643858
1084, 23.139868, 12.880418, 18.874781
1085, 37.199688, 35.377182, 11.515800
1086, 54.646221, 42.434338, 5.243513
1087, 36.059231, 35.713070, 5.304357
1088, 17.934114, 28.151421, 18.791588
1089, 10.881398, 43.268559, 5.196858
1090, 61.948269, 43.251190, 19.075472
1091, 68.097763, 43.183292, 14.259772
1092, 85.476433, 42.937412, 5.766731
1093, 29.951199, 5.419086, 10.505380
1094, 21.408205, 34.196323, 5.268665
1095, 85.796265, 14.542644, 18.647202
1096, 5.413042, 43.072014, 18.930262
1097, 19.138416, 43.003876, 5.575169
1098, 33.322567, 5.333707, 18.916576
1099, 5.195245, 24.279589, 13.143798
1100, 44.439610, 38.101269, 5.479829
1101, 52.644337, 30.586205, 12.895471
1102, 85.545273, 5.467790, 5.607551
1103, 77.014763, 5.329254, 18.703075
1104, 66.085587, 11.203442, 11.405993
1105, 47.855766, 4.967603, 19.195816
1106, 10.827474, 43.434750, 17.113651
1107, 5.442128, 5.387573, 5.338308
1108, 19.194721, 17.317730, 11.965513
1109, 62.567001, 34.844109, 18.745564
1110, 5.158305, 43.301243, 5.351010
1111, 15.704692, 10.537820, 17.746618
1112, 36.739555, 43.123280, 12.881839
1113, 85.662994, 43.286575, 18.969917
1114, 32.449581, 11.778772, 5.027281
1115, 12.999601, 28.197685, 12.957356
1116, 44.359013, 42.992340, 10.250079
1117, 30.466316, 42.817135, 11.748738
1118, 55.815857, 11.409382, 13.080812
1119, 5.191086, 5.292808, 19.048954
1120, 13.098703, 24.016882, 5.207339
1121, 47.917599, 35.967010, 12.296650
1122, 78.306175, 37.363739, 5.152355
1123, 53.194313, 5.715909, 19.217415
1124, 12.985390, 20.182730, 12.949500
1125, 58.581745, 26.691465, 18.878168
1126, 78.492622, 11.246980, 4.884295
1127, 63.188931, 43.275883, 11.195941
1128, 38.772518, 5.142122, 11.569745
1129, 79.070854, 11.468748, 12.960559
1130, 59.201061, 16.962465, 5.065581
1131, 79.772644, 5.444604, 11.731948
1132, 80.132912, 43.519375, 19.014189
1133, 78.172729, 11.136804, 19.075588
1134, 32.443363, 36.632603, 19.299944
1135, 72.311729, 38.837139, 11.579442
1136, 30.697121, 37.066391, 5.649259
1137, 38.102005, 43.136688, 19.271080
1138, 64.103493, 43.282631, 5.705374
1139, 10.479693, 35.389355, 5.129354
1140, 32.287445, 5.172532, 5.490504
1141, 85.843071, 29.545120, 10.068018
1142, 32.526794, 12.040341, 12.897731
1143, 42.246883, 20.258106, 5.367785
1144, 11.916725, 5.693869, 18.691515
1145, 86.215851, 21.813669, 17.247061
1146, 71.059387, 38.336311, 5.268064
1147, 79.969276, 42.690300, 5.061774
1148, 49.744537, 23.790295, 17.923784
1149, 73.230782, 10.556392, 5.231879
1150, 59.113258, 22.343353, 12.055577
1151, 41.925732, 17.692949, 10.865885
1152, 85.895447, 5.243601, 19.218872
1153, 26.002178, 12.069710, 13.045111
1154, 57.550716, 37.019909, 19.367327
1155, 48.319431, 4.947518, 4.647953
1156, 41.510601, 18.177235, 19.502039
1157, 42.982365, 29.317598, 19.449215
1158, 24.082384, 13.130210, 4.928183
1159, 41.562397, 5.203726, 19.175484
1160, 85.883926, 18.975281, 10.179446
1161, 4.763937, 35.758762, 6.248580
1162, 28.357197, 11.950500, 19.394321
1163, 37.156471, 13.250355, 10.410968
1164, 67.568268, 4.709855, 11.889758
1165, 22.319666, 36.269745, 14.099928
1166, 53.627380, 25.402651, 11.856873
1167, 17.570713, 20.669624, 19.310169
1168, 19.856714, 18.056353, 5.295810
1169, 63.225811, 6.876274, 19.443628
1170, 12.421603, 28.575203, 19.288570
1171, 49.828094, 13.713111, 8.496527
1172, 58.851200, 25.537186, 5.376375
1173, 48.572300, 21.562298, 4.841138
1174, 25.796068, 4.890793, 13.778585
1175, 70.587402, 43.665474, 5.774667
1176, 11.363203, 29.023039, 4.659558
1177, 23.262167, 39.020020, 4.985651
1178, 86.121834, 28.546099, 18.344934
1179, 25.331993, 35.565857, 18.619354
1180, 12.731847, 4.852369, 4.872740
1181, 66.591675, 37.133366, 13.002460
1182, 12.340456, 19.711081, 19.316677
1183, 4.443359, 19.544395, 11.109932
1184, 23.104553, 43.669159, 8.981748
1185, 16.943171, 11.048386, 11.627565
1186, 57.676620, 20.221924, 19.906967
1187, 79.663101, 35.921764, 12.339106
1188, 17.124191, 36.928104, 12.621756
1189, 33.010025, 43.533077, 5.033533
1190, 21.988262, 8.196040, 5.129922
1191, 59.313484, 43.596123, 14.624220
1192, 72.002937, 5.179842, 4.444355
1193, 34.044876, 5.601118, 13.748090
1194, 11.958274, 38.931541, 12.843241
1195, 49.345181, 36.572762, 4.770936
1196, 11.423757, 19.128807, 4.618013
1197, 73.435562, 43.901737, 12.260131
1198, 4.437202, 28.796463, 10.760894
1199, 44.981308, 29.396534, 4.754100
1200, 23.391499, 43.833694, 18.939713
1201, 37.678326, 10.519745, 5.111215
1202, 51.540672, 43.855915, 14.846615
1203, 77.370354, 39.332737, 19.835604
1204, 86.423103, 38.006390, 5.338315
1205, 69.971214, 43.299580, 19.156256
1206, 60.130817, 4.769588, 9.553060
1207, 86.470123, 19.393921, 5.093834
1208, 48.733608, 14.295757, 19.401787
1209, 85.965652, 10.262283, 5.446676
1210, 39.615124, 11.896780, 19.258644
1211, 50.846550, 42.246220, 19.902182
1212, 57.856522, 39.032837, 12.131557
1213, 11.975329, 38.913918, 19.532982
1214, 47.865463, 28.058722, 19.892406
1215, 86.584747, 24.223429, 12.791212
1216, 10.598198, 43.764473, 11.887221
1217, 57.386887, 37.525608, 4.479782
1218, 9.787028, 13.049765, 8.609396
1219, 60.478683, 29.044914, 9.316151
1220, 4.413003, 19.359320, 19.841703
1221, 45.246693, 43.207790, 5.150887
1222, 62.800083, 37.695080, 9.767122
1223, 71.183754, 10.815511, 12.057146
1224, 70.731163, 4.659446, 19.052797
1225, 80.634384, 5.617548, 4.347223
1226, 59.598915, 10.235992, 5.344084
1227, 4.501923, 28.973120, 19.820383
1228, 57.049332, 32.926178, 10.676469
1229, 13.009548, 9.817052, 4.383777
1230, 48.271221, 9.606200, 20.158014
1231, 18.371803, 43.219097, 19.528133
1232, 48.894814, 4.674351, 12.917454
1233, 86.687164, 29.090879, 5.192548
1234, 9.917087, 4.865536, 14.183576
1235, 27.216877, 4.677223, 6.210350
1236, 17.854471, 24.262932, 6.260056
1237, 86.066147, 9.999150, 14.969734
1238, 4.285548, 19.388697, 4.306919
1239, 72.319237, 4.543743, 10.425764
1240, 46.702389, 20.338251, 19.755634
1241, 44.868279, 42.715240, 19.365921
1242, 48.982441, 20.787474, 14.208039
1243, 19.473036, 29.759834, 4.504285
1244, 67.962273, 11.245621, 4.769887
1245, 17.615068, 29.617737, 14.068988
1246, 75.499687, 10.621278, 9.634426
1247, 14.954941, 40.407402, 4.515151
1248, 47.527252, 9.111896, 11.517784
1249, 9.408325, 24.087807, 15.732767
1250, 4.263114, 29.016401, 4.264719
1251, 86.060143, 38.255756, 15.347293
1252, 4.261266, 9.963089, 18.726120
1253, 84.764450, 9.926440, 19.662609
1254, 4.300368, 10.363336, 10.326813

*ELEMENT, TYPE=C3D4, ELSET=ALL_ELEMENTS
1, 1027, 1049, 953, 1085
2, 810, 788, 824, 1233
3, 1030, 1040, 990, 1086
4, 947, 1037, 967, 1150
5, 953, 1027, 987, 1049
6, 260, 1059, 1008, 1076
7, 788, 1207, 824, 1233
8, 260, 1008, 259, 1076
9, 968, 948, 1008, 1218
10, 968, 1008, 986, 1218
11, 1014, 1069, 723, 1171
12, 311, 1063, 292, 1098
13, 189, 411, 1062, 1096
14, 966, 1014, 723, 1171
15, 1015, 1027, 179, 1157
16, 359, 1021, 967, 1148
17, 952, 991, 987, 1121
18, 952, 1101, 991, 1121
19, 952, 987, 1101, 1121
20, 1040, 1086, 1030, 1217
21, 981, 1006, 416, 1213
22, 962, 1004, 658, 1040
23, 952, 987, 991, 1027
24, 821, 1046, 960, 1251
25, 416, 1006, 981, 1070
26, 507, 922, 886, 1025
27, 723, 1014, 657, 1069
28, 626, 1060, 998, 1172
29, 754, 1052, 973, 1217
30, 772, 723, 1069, 1171
31, 318, 260, 1076, 1174
32, 626, 635, 1060, 1172
33, 359, 967, 437, 1148
34, 359, 350, 437, 967
35, 507, 1001, 922, 1025
36, 1037, 967, 1150, 1166
37, 658, 1004, 962, 1172
38, 389, 971, 390, 1081
39, 947, 998, 1037, 1150
40, 821, 960, 806, 1251
41, 1008, 1011, 258, 1180
42, 990, 1030, 949, 1040
43, 1061, 1124, 1108, 1167
44, 958, 1108, 1084, 1153
45, 189, 1062, 988, 1096
46, 813, 790, 1113, 1251
47, 772, 723, 657, 1069
48, 767, 770, 658, 1004
49, 311, 975, 1063, 1098
50, 990, 1030, 971, 1121
51, 988, 1062, 411, 1096
52, 1001, 1132, 460, 1203
53, 971, 1030, 990, 1202
54, 971, 1041, 390, 1081
55, 189, 363, 411, 1096
56, 945, 1122, 1135, 1187
57, 311, 292, 246, 1098
58, 991, 1027, 987, 1121
59, 1170, 1182, 403, 1249
60, 462, 1083, 984, 1251
61, 845, 1027, 1010, 1199
62, 985, 992, 1048, 1115
63, 771, 660, 723, 966
64, 754, 973, 1052, 1138
65, 747, 1087, 1029, 1189
66, 1007, 1084, 958, 1108
67, 935, 995, 902, 1045
68, 361, 1083, 462, 1251
69, 992, 1115, 985, 1198
70, 713, 998, 626, 1060
71, 949, 1040, 1030, 1217
72, 841, 1049, 1027, 1085
73, 985, 1048, 992, 1198
74, 821, 806, 960, 1204
75, 320, 265, 1128, 1140
76, 1009, 1176, 1031, 1243
77, 660, 966, 771, 1026
78, 949, 971, 1030, 1121
79, 767, 1004, 658, 1172
80, 462, 984, 1113, 1251
81, 420, 1113, 790, 1251
82, 1002, 1182, 1170, 1249
83, 662, 658, 1004, 1040
84, 978, 1042, 989, 1124
85, 865, 179, 1027, 1157
86, 208, 1048, 972, 1082
87, 292, 1063, 429, 1098
88, 994, 1135, 1122, 1187
89, 439, 1033, 401, 1144
90, 420, 813, 790, 1113
91, 460, 1001, 516, 1132
92, 772, 1044, 723, 1171
93, 549, 981, 1016, 1073
94, 989, 1042, 948, 1124
95, 862, 1084, 1007, 1108
96, 950, 1048, 992, 1115
97, 821, 831, 806, 1204
98, 493, 460, 1132, 1203
99, 418, 416, 1006, 1213
100, 995, 1022, 903, 1045
101, 404, 403, 1170, 1182
102, 967, 995, 947, 1150
103, 748, 1140, 1020, 1201
104, 1059, 1076, 260, 1174
105, 530, 1073, 1016, 1184
106, 371, 389, 390, 1081
107, 965, 1112, 1029, 1189
108, 723, 966, 660, 1014
109, 386, 977, 385, 1041
110, 363, 189, 210, 1096
111, 439, 968, 1033, 1144
112, 635, 658, 661, 962
113, 898, 1019, 1095, 1133
114, 967, 1148, 1017, 1186
115, 401, 1033, 1111, 1144
116, 784, 1047, 1192, 1244
117, 943, 1187, 1001, 1203
118, 759, 863, 1136, 1177
119, 189, 988, 207, 1096
120, 713, 998, 1060, 1173
121, 887, 491, 1109, 1125
122, 260, 258, 1008, 1059
123, 898, 1129, 1019, 1133
124, 661, 962, 658, 1040
125, 434, 1043, 970, 1200
126, 359, 350, 967, 1125
127, 179, 1074, 1015, 1156
128, 626, 998, 713, 1069
129, 371, 390, 1041, 1081
130, 1095, 1133, 993, 1253
131, 1037, 1150, 998, 1166
132, 404, 1170, 1002, 1182
133, 950, 972, 992, 1048
134, 635, 962, 661, 1060
135, 1020, 1128, 964, 1140
136, 450, 1084, 1076, 1111
137, 800, 832, 820, 1209
138, 949, 1030, 971, 1202
139, 661, 962, 1040, 1060
140, 992, 950, 1115, 1176
141, 1002, 1124, 1061, 1167
142, 761, 1040, 991, 1060
143, 806, 1023, 960, 1204
144, 259, 260, 258, 1008
145, 980, 1049, 953, 1081
146, 960, 1023, 806, 1251
147, 901, 996, 885, 1045
148, 208, 988, 1048, 1082
149, 885, 996, 365, 1045
150, 380, 1017, 351, 1051
151, 790, 1083, 361, 1251
152, 664, 1044, 1020, 1155
153, 949, 1030, 990, 1121
154, 949, 1030, 1212, 1217
155, 995, 1022, 947, 1150
156, 699, 1026, 771, 1155
157, 380, 351, 1017, 1186
158, 824, 1207, 181, 1233
159, 978, 948, 1042, 1124
160, 771, 1026, 966, 1155
161, 950, 992, 972, 1139
162, 356, 508, 996, 1067
163, 966, 723, 1044, 1171
164, 179, 1027, 1015, 1074
165, 1008, 1059, 958, 1076
166, 661, 1040, 761, 1060
167, 430, 1063, 975, 1098
168, 590, 990, 604, 1086
169, 948, 989, 1124, 1196
170, 708, 1020, 748, 1140
171, 857, 1074, 961, 1151
172, 437, 1148, 967, 1186
173, 841, 1027, 1028, 1085
174, 549, 1016, 981, 1216
175, 412, 988, 411, 1096
176, 390, 971, 389, 1211
177, 713, 1069, 998, 1173
178, 1029, 1087, 965, 1189
179, 1009, 1115, 950, 1176
180, 755, 1052, 754, 1217
181, 970, 1043, 537, 1200
182, 418, 1006, 1038, 1213
183, 963, 1019, 800, 1209
184, 750, 568, 591, 1097
185, 662, 658, 770, 1004
186, 420, 790, 361, 1251
187, 383, 1000, 995, 1045
188, 305, 966, 1155, 1232
189, 418, 1038, 1006, 1170
190, 418, 1006, 1088, 1170
191, 437, 967, 350, 1186
192, 759, 1094, 863, 1177
193, 292, 429, 246, 1098
194, 952, 1027, 1015, 1157
195, 437, 1017, 1148, 1186
196, 857, 1074, 179, 1156
197, 258, 1011, 1008, 1059
198, 967, 1021, 359, 1125
199, 863, 1075, 874, 1136
200, 530, 1016, 1097, 1184
201, 948, 968, 1008, 1111
202, 320, 1128, 306, 1140
203, 365, 1045, 996, 1169
204, 983, 1108, 958, 1153
205, 507, 922, 1001, 1203
206, 402, 403, 404, 1182
207, 772, 1069, 1044, 1171
208, 767, 917, 1004, 1172
209, 1073, 1117, 970, 1184
210, 305, 1056, 966, 1232
211, 220, 208, 972, 1082
212, 966, 1118, 1171, 1248
213, 708, 239, 1020, 1140
214, 917, 1004, 1172, 1219
215, 541, 1029, 1112, 1189
216, 922, 924, 886, 1025
217, 879, 1084, 1108, 1153
218, 960, 1046, 552, 1050
219, 845, 1028, 1027, 1199
220, 846, 1054, 965, 1136
221, 948, 1124, 999, 1196
222, 978, 1124, 989, 1183
223, 1031, 1176, 744, 1243
224, 1019, 1095, 993, 1237
225, 356, 365, 885, 996
226, 953, 1085, 1029, 1087
227, 534, 1117, 1073, 1184
228, 964, 1128, 265, 1140
229, 857, 961, 1074, 1156
230, 945, 1135, 938, 1187
231, 660, 1014, 966, 1026
232, 845, 1010, 177, 1199
233, 189, 207, 988, 1062
234, 800, 1019, 963, 1237
235, 351, 1051, 1017, 1186
236, 1019, 1072, 963, 1129
237, 552, 960, 1050, 1147
238, 309, 1000, 321, 1123
239, 995, 1000, 383, 1051
240, 386, 977, 1041, 1154
241, 549, 1016, 530, 1073
242, 746, 1011, 312, 1190
243, 178, 1010, 845, 1027
244, 935, 438, 995, 1045
245, 534, 970, 1073, 1117
246, 977, 1021, 385, 1041
247, 309, 321, 247, 1123
248, 989, 1042, 978, 1183
249, 966, 1026, 305, 1155
250, 987, 953, 1049, 1081
251, 970, 1005, 1075, 1184
252, 922, 1001, 924, 1025
253, 999, 1035, 948, 1196
254, 952, 1010, 991, 1060
255, 546, 1116, 990, 1202
256, 797, 1019, 1095, 1145
257, 1068, 1171, 1118, 1248
258, 1090, 1109, 478, 1154
259, 647, 1195, 1100, 1199
260, 306, 1128, 1020, 1140
261, 954, 1115, 992, 1198
262, 989, 948, 1035, 1196
263, 1005, 970, 1117, 1184
264, 713, 626, 635, 1060
265, 824, 1160, 182, 1207
266, 1019, 1145, 797, 1160
267, 952, 987, 1027, 1157
268, 770, 767, 891, 1004
269, 686, 744, 1031, 1176
270, 723, 778, 966, 1044
271, 1059, 958, 1076, 1174
272, 549, 981, 586, 1216
273, 430, 429, 1063, 1098
274, 380, 351, 381, 1051
275, 604, 990, 590, 1221
276, 953, 1049, 980, 1085
277, 762, 788, 810, 1233
278, 985, 1048, 950, 1115
279, 818, 791, 551, 1092
280, 607, 177, 752, 1199
281, 210, 189, 207, 1096
282, 1029, 1087, 648, 1100
283, 642, 1097, 1177, 1184
284, 824, 182, 1141, 1233
285, 971, 1116, 547, 1202
286, 412, 411, 363, 1096
287, 552, 1046, 960, 1092
288, 411, 988, 412, 1062
289, 1095, 993, 1237, 1253
290, 540, 1112, 539, 1189
291, 973, 1212, 1030, 1217
292, 961, 1024, 857, 1151
293, 979, 1114, 706, 1158
294, 305, 1026, 966, 1056
295, 390, 1041, 971, 1211
296, 1001, 1187, 984, 1203
297, 208, 972, 1048, 1161
298, 771, 723, 778, 966
299, 784, 1047, 671, 1192
300, 950, 992, 1139, 1176
301, 658, 962, 635, 1172
302, 903, 1045, 1022, 1104
303, 177, 1010, 752, 1199
304, 762, 1207, 788, 1233
305, 991, 1010, 952, 1027
306, 288, 1026, 699, 1155
307, 973, 1030, 1086, 1217
308, 920, 887, 491, 1109
309, 1029, 1085, 965, 1087
310, 591, 1097, 568, 1184
311, 546, 990, 1030, 1202
312, 656, 627, 626, 1069
313, 706, 1114, 979, 1140
314, 854, 1061, 1108, 1167
315, 947, 995, 967, 1017
316, 706, 1140, 979, 1235
317, 674, 1035, 989, 1218
318, 947, 967, 1037, 1242
319, 682, 1011, 983, 1229
320, 434, 366, 1043, 1200
321, 824, 182, 1160, 1215
322, 590, 545, 990, 1086
323, 779, 604, 990, 1086
324, 1100, 1195, 991, 1199
325, 627, 998, 626, 1069
326, 824, 1141, 182, 1215
327, 924, 1001, 943, 1135
328, 311, 1174, 975, 1193
329, 948, 1033, 968, 1111
330, 960, 1046, 821, 1092
331, 986, 1011, 1008, 1180
332, 552, 1092, 960, 1147
333, 983, 1011, 682, 1190
334, 973, 1030, 594, 1086
335, 1028, 1100, 991, 1199
336, 954, 992, 1115, 1176
337, 857, 1024, 961, 1156
338, 846, 965, 1054, 1085
339, 943, 984, 1187, 1203
340, 976, 1018, 615, 1044
341, 507, 377, 1001, 1025
342, 952, 987, 1021, 1101
343, 1019, 1072, 800, 1209
344, 356, 996, 885, 1067
345, 577, 973, 594, 1086
346, 425, 514, 358, 997
347, 976, 1044, 1069, 1171
348, 320, 265, 306, 1128
349, 514, 358, 997, 1090
350, 356, 508, 378, 996
351, 861, 979, 1114, 1142
352, 541, 1112, 540, 1189
353, 964, 1114, 979, 1142
354, 458, 434, 970, 1200
355, 951, 1128, 982, 1163
356, 893, 1141, 1023, 1178
357, 306, 1020, 239, 1140
358, 288, 305, 1026, 1155
359, 769, 736, 994, 1147
360, 972, 1048, 988, 1082
361, 311, 1063, 975, 1174
362, 207, 208, 988, 1048
363, 1005, 970, 1075, 1117
364, 990, 1116, 971, 1202
365, 288, 236, 305, 1155
366, 966, 1056, 1014, 1118
367, 879, 1084, 862, 1108
368, 983, 979, 1059, 1190
369, 969, 1192, 1047, 1244
370, 586, 981, 1106, 1216
371, 841, 1028, 845, 1085
372, 903, 902, 995, 1045
373, 963, 1072, 1019, 1209
374, 503, 390, 389, 1211
375, 901, 885, 902, 1045
376, 318, 1076, 1063, 1174
377, 307, 1155, 1077, 1232
378, 1016, 1073, 959, 1184
379, 307, 305, 1155, 1232
380, 1068, 1118, 956, 1248
381, 904, 903, 995, 1022
382, 966, 1044, 778, 1155
383, 577, 634, 973, 1086
384, 642, 568, 1097, 1184
385, 664, 1020, 698, 1155
386, 642, 1177, 1005, 1184
387, 987, 952, 1021, 1214
388, 837, 1074, 857, 1151
389, 1015, 952, 1157, 1214
390, 453, 1103, 993, 1152
391, 265, 1128, 964, 1193
392, 877, 845, 177, 1199
393, 450, 408, 1076, 1084
394, 1023, 1141, 808, 1178
395, 951, 964, 1020, 1128
396, 964, 951, 1020, 1163
397, 784, 654, 1047, 1244
398, 516, 1001, 460, 1205
399, 951, 964, 1128, 1163
400, 469, 1106, 519, 1231
401, 925, 1145, 1019, 1160
402, 949, 971, 997, 1202
403, 989, 1124, 954, 1183
404, 442, 1000, 1045, 1169
405, 425, 566, 514, 997
406, 605, 236, 288, 1155
407, 1063, 1076, 408, 1084
408, 532, 1073, 530, 1184
409, 318, 260, 259, 1076
410, 897, 963, 1072, 1129
411, 897, 1072, 1019, 1129
412, 878, 1108, 983, 1153
413, 947, 976, 1068, 1242
414, 980, 953, 1032, 1081
415, 1077, 1155, 966, 1232
416, 594, 973, 563, 1030
417, 779, 666, 749, 1195
418, 541, 1029, 540, 1112
419, 434, 970, 1134, 1179
420, 694, 686, 744, 1031
421, 987, 1157, 952, 1214
422, 865, 1027, 841, 1049
423, 951, 1013, 982, 1034
424, 448, 349, 1006, 1179
425, 952, 1060, 991, 1101
426, 970, 1075, 1073, 1184
427, 771, 966, 778, 1155
428, 987, 1041, 1021, 1101
429, 418, 1088, 468, 1170
430, 692, 1031, 1177, 1247
431, 750, 642, 568, 1097
432, 1027, 1049, 865, 1157
433, 946, 1072, 897, 1126
434, 1093, 1140, 964, 1193
435, 414, 1106, 469, 1231
436, 674, 989, 1055, 1218
437, 834, 1046, 821, 1251
438, 379, 478, 1090, 1109
439, 990, 1086, 1040, 1195
440, 366, 511, 1043, 1200
441, 841, 1027, 845, 1028
442, 224, 978, 1042, 1183
443, 1058, 1170, 403, 1249
444, 981, 1006, 1038, 1188
445, 960, 1092, 821, 1204
446, 998, 1014, 947, 1069
447, 960, 1122, 1064, 1187
448, 511, 537, 1043, 1200
449, 824, 182, 181, 1207
450, 439, 1033, 968, 1057
451, 886, 941, 505, 1025
452, 824, 181, 182, 1233
453, 986, 1008, 968, 1234
454, 382, 977, 494, 1125
455, 925, 1095, 1019, 1145
456, 571, 994, 736, 1147
457, 356, 378, 365, 996
458, 975, 1098, 311, 1193
459, 472, 1053, 982, 1098
460, 989, 954, 1124, 1196
461, 966, 1026, 1014, 1056
462, 958, 983, 1059, 1185
463, 378, 365, 996, 1169
464, 917, 933, 1004, 1219
465, 949, 997, 971, 1041
466, 962, 1172, 1004, 1219
467, 604, 779, 990, 1221
468, 947, 1014, 998, 1022
469, 970, 1043, 434, 1134
470, 746, 1190, 312, 1235
471, 981, 1038, 1006, 1213
472, 1028, 648, 1087, 1100
473, 287, 1047, 969, 1192
474, 418, 1006, 416, 1070
475, 982, 1013, 951, 1024
476, 738, 1147, 1122, 1204
477, 989, 1035, 674, 1196
478, 971, 1032, 547, 1116
479, 1015, 1074, 961, 1156
480, 863, 840, 759, 1136
481, 339, 1013, 1156, 1208
482, 756, 1138, 1052, 1146
483, 1073, 1075, 959, 1184
484, 686, 1031, 1139, 1176
485, 403, 1182, 1058, 1249
486, 836, 1006, 349, 1179
487, 207, 1048, 988, 1062
488, 434, 458, 970, 1179
489, 626, 713, 656, 1069
490, 645, 723, 772, 1044
491, 846, 965, 1087, 1136
492, 912, 1052, 1004, 1222
493, 537, 1043, 970, 1117
494, 379, 1090, 1025, 1109
495, 924, 943, 938, 1135
496, 453, 252, 1103, 1152
497, 528, 1016, 549, 1216
498, 309, 247, 423, 1123
499, 612, 312, 746, 1011
500, 996, 1003, 1224, 1239
501, 1001, 1135, 1050, 1187
502, 947, 1022, 998, 1150
503, 699, 771, 605, 1155
504, 996, 1224, 1164, 1239
505, 265, 964, 1140, 1193
506, 339, 1013, 368, 1156
507, 252, 315, 352, 1103
508, 986, 1218, 1185, 1229
509, 1001, 1025, 377, 1205
510, 292, 367, 429, 1063
511, 231, 1110, 220, 1161
512, 878, 856, 1108, 1153
513, 309, 342, 1000, 1123
514, 505, 1025, 941, 1109
515, 754, 1052, 655, 1138
516, 475, 386, 385, 1041
517, 265, 1140, 1093, 1193
518, 744, 694, 1031, 1243
519, 755, 655, 754, 1052
520, 920, 910, 887, 1109
521, 321, 296, 1000, 1056
522, 993, 1103, 252, 1152
523, 950, 972, 1048, 1194
524, 898, 1095, 895, 1133
525, 1016, 959, 1097, 1184
526, 1076, 1084, 958, 1111
527, 953, 1028, 1027, 1085
528, 948, 983, 1035, 1108
529, 537, 970, 534, 1117
530, 818, 821, 791, 1092
531, 711, 1087, 747, 1189
532, 732, 1029, 648, 1100
533, 904, 1150, 995, 1186
534, 349, 498, 448, 1006
535, 615, 1018, 976, 1143
536, 450, 1076, 406, 1111
537, 934, 1125, 967, 1186
538, 998, 1130, 606, 1172
539, 1141, 1178, 893, 1215
540, 545, 590, 990, 1221
541, 1108, 1124, 1007, 1167
542, 399, 1033, 1057, 1182
543, 476, 334, 180, 1015
544, 954, 985, 1115, 1198
545, 967, 1125, 350, 1186
546, 916, 1023, 984, 1083
547, 897, 1072, 963, 1126
548, 912, 1004, 933, 1080
549, 821, 1046, 791, 1092
550, 534, 970, 537, 1200
551, 953, 1029, 1112, 1116
552, 948, 1035, 999, 1108
553, 617, 646, 1028, 1100
554, 968, 1218, 986, 1254
555, 545, 1030, 990, 1086
556, 635, 962, 1060, 1172
557, 386, 382, 385, 977
558, 642, 1005, 568, 1184
559, 545, 546, 990, 1030
560, 321, 1000, 278, 1056
561, 845, 178, 177, 1010
562, 979, 1093, 964, 1142
563, 385, 977, 382, 1021
564, 472, 1098, 982, 1159
565, 661, 658, 662, 1040
566, 974, 581, 1091, 1197
567, 405, 1007, 1033, 1182
568, 917, 933, 891, 1004
569, 563, 1030, 973, 1191
570, 950, 1031, 1139, 1194
571, 462, 391, 984, 1083
572, 371, 1041, 987, 1081
573, 589, 559, 1090, 1127
574, 874, 1054, 846, 1136
575, 917, 891, 767, 1004
576, 991, 1027, 953, 1028
577, 982, 1053, 472, 1210
578, 912, 974, 1135, 1146
579, 948, 1033, 1007, 1124
580, 968, 1111, 1033, 1144
581, 1185, 1218, 1035, 1229
582, 1014, 1056, 1026, 1118
583, 232, 1252, 219, 1254
584, 460, 1001, 377, 1205
585, 351, 995, 1051, 1186
586, 450, 1007, 1084, 1111
587, 846, 965, 1085, 1087
588, 613, 770, 891, 1004
589, 947, 1017, 967, 1242
590, 953, 1027, 991, 1121
591, 953, 1028, 1085, 1087
592, 384, 495, 447, 1230
593, 1041, 1154, 997, 1211
594, 278, 1056, 1000, 1206
595, 989, 1035, 948, 1218
596, 520, 1005, 709, 1189
597, 278, 1000, 1065, 1206
598, 1007, 1124, 1033, 1182
599, 930, 903, 1022, 1104
600, 1025, 1090, 957, 1109
601, 605, 288, 699, 1155
602, 515, 791, 1046, 1092
603, 836, 498, 349, 1006
604, 996, 1045, 901, 1104
605, 617, 647, 646, 1100
606, 999, 1035, 983, 1108
607, 426, 997, 358, 1090
608, 370, 1049, 987, 1157
609, 261, 312, 1011, 1190
610, 481, 393, 785, 1095
611, 726, 983, 682, 1190
612, 731, 1020, 664, 1044
613, 983, 1153, 979, 1158
614, 994, 1050, 1135, 1187
615, 1034, 1128, 280, 1159
616, 692, 1031, 724, 1177
617, 297, 982, 1098, 1159
618, 947, 1037, 976, 1242
619, 1011, 1059, 983, 1185
620, 1016, 1073, 981, 1188
621, 948, 968, 1033, 1042
622, 737, 976, 772, 1069
623, 733, 979, 706, 1158
624, 981, 1188, 1038, 1194
625, 977, 1154, 1080, 1212
626, 965, 1054, 1005, 1136
627, 520, 568, 709, 1005
628, 983, 1059, 1011, 1190
629, 878, 1153, 983, 1158
630, 560, 974, 581, 1091
631, 966, 1118, 1014, 1171
632, 984, 1001, 1050, 1187
633, 382, 494, 491, 1125
634, 311, 264, 1174, 1193
635, 271, 1224, 1003, 1239
636, 976, 1074, 961, 1242
637, 991, 1060, 962, 1101
638, 991, 1040, 962, 1060
639, 953, 1085, 980, 1112
640, 784, 654, 671, 1047
641, 1031, 1094, 724, 1177
642, 653, 769, 994, 1122
643, 957, 1080, 1154, 1212
644, 399, 1033, 398, 1057
645, 1054, 1075, 1005, 1136
646, 451, 993, 453, 1103
647, 965, 1005, 1054, 1117
648, 916, 984, 894, 1083
649, 559, 1091, 1090, 1127
650, 974, 1175, 581, 1197
651, 370, 987, 1049, 1081
652, 528, 549, 586, 1216
653, 733, 706, 979, 1235
654, 948, 968, 1042, 1218
655, 1052, 1138, 974, 1146
656, 953, 987, 1027, 1121
657, 975, 430, 1098, 1162
658, 978, 954, 1124, 1183
659, 1089, 1097, 1016, 1247
660, 207, 206, 1048, 1062
661, 321, 1000, 296, 1123
662, 384, 1123, 495, 1230
663, 808, 804, 1023, 1178
664, 749, 780, 1086, 1195
665, 834, 821, 806, 1251
666, 439, 1057, 968, 1252
667, 425, 358, 426, 997
668, 504, 1154, 1041, 1211
669, 912, 1004, 1080, 1222
670, 1044, 1077, 1020, 1155
671, 976, 961, 1068, 1242
672, 464, 372, 1049, 1134
673, 224, 978, 1099, 1220
674, 975, 1063, 430, 1162
675, 341, 370, 987, 1157
676, 515, 551, 791, 1092
677, 287, 235, 1047, 1192
678, 976, 1037, 1074, 1242
679, 959, 1073, 1016, 1188
680, 577, 973, 634, 1138
681, 977, 949, 1154, 1212
682, 297, 1098, 290, 1159
683, 235, 671, 1047, 1192
684, 893, 1023, 926, 1178
685, 1047, 1104, 1065, 1164
686, 587, 1050, 994, 1147
687, 983, 1185, 1035, 1229
688, 287, 969, 319, 1192
689, 715, 986, 1107, 1180
690, 739, 1209, 1126, 1225
691, 648, 1028, 646, 1100
692, 769, 736, 653, 994
693, 958, 1108, 983, 1185
694, 371, 987, 370, 1081
695, 975, 1174, 1093, 1193
696, 221, 985, 1048, 1062
697, 546, 547, 1116, 1202
698, 912, 1135, 974, 1181
699, 627, 998, 1069, 1130
700, 747, 648, 1029, 1087
701, 948, 1033, 978, 1042
702, 949, 1040, 1121, 1195
703, 589, 1127, 1090, 1191
704, 934, 967, 1125, 1150
705, 804, 1083, 1023, 1178
706, 930, 1022, 1071, 1104
707, 414, 1213, 1106, 1231
708, 1001, 1050, 555, 1132
709, 1003, 1103, 271, 1131
710, 979, 1190, 733, 1235
711, 497, 1007, 869, 1084
712, 894, 984, 391, 1083
713, 261, 312, 1190, 1235
714, 754, 634, 702, 973
715, 1011, 986, 1185, 1229
716, 991, 1121, 1040, 1195
717, 674, 1055, 989, 1238
718, 674, 677, 1035, 1229
719, 912, 933, 1004, 1052
720, 546, 544, 990, 1116
721, 458, 1070, 970, 1179
722, 612, 238, 312, 1011
723, 419, 1038, 409, 1062
724, 970, 1070, 458, 1200
725, 255, 256, 257, 1234
726, 982, 1053, 1024, 1142
727, 372, 1049, 980, 1081
728, 405, 1033, 400, 1182
729, 352, 453, 252, 1103
730, 955, 1065, 1047, 1104
731, 797, 1019, 796, 1095
732, 971, 1116, 990, 1121
733, 493, 460, 353, 1132
734, 982, 1024, 951, 1163
735, 688, 972, 1110, 1161
736, 964, 1163, 1020, 1201
737, 976, 961, 1074, 1151
738, 562, 594, 577, 973
739, 980, 1032, 953, 1112
740, 1020, 1163, 951, 1201
741, 947, 1118, 1068, 1171
742, 688, 1110, 639, 1161
743, 543, 1112, 540, 1116
744, 239, 630, 708, 1020
745, 949, 1040, 991, 1121
746, 949, 1121, 990, 1195
747, 221, 985, 1062, 1227
748, 563, 594, 562, 973
749, 220, 1110, 972, 1161
750, 472, 432, 1098, 1159
751, 1038, 1188, 950, 1194
752, 203, 253, 1079, 1119
753, 552, 1050, 587, 1147
754, 1000, 1051, 995, 1118
755, 983, 1011, 1185, 1229
756, 920, 505, 941, 1109
757, 534, 533, 1117, 1184
758, 976, 1037, 1010, 1074
759, 1086, 1195, 780, 1217
760, 674, 608, 1055, 1238
761, 954, 1039, 992, 1176
762, 407, 439, 401, 1144
763, 970, 1075, 1054, 1179
764, 276, 321, 309, 1000
765, 978, 1057, 1033, 1182
766, 779, 749, 604, 1086
767, 982, 1142, 1024, 1163
768, 702, 973, 634, 1086
769, 276, 278, 321, 1000
770, 571, 736, 629, 1147
771, 370, 371, 341, 987
772, 181, 1207, 762, 1233
773, 1005, 1075, 1054, 1117
774, 372, 471, 980, 1134
775, 808, 1023, 807, 1141
776, 964, 979, 1114, 1140
777, 971, 1081, 953, 1121
778, 498, 1006, 836, 1088
779, 1038, 1062, 419, 1213
780, 698, 664, 731, 1020
781, 1164, 1224, 274, 1239
782, 953, 1112, 1032, 1116
783, 904, 903, 902, 995
784, 403, 1058, 409, 1170
785, 450, 405, 1007, 1111
786, 925, 1019, 892, 1160
787, 684, 1011, 746, 1190
788, 1008, 1059, 1011, 1185
789, 1138, 1146, 756, 1175
790, 556, 1050, 1001, 1197
791, 1016, 1089, 512, 1097
792, 991, 1040, 761, 1195
793, 1064, 1122, 915, 1187
794, 516, 1001, 555, 1132
795, 996, 1065, 275, 1169
796, 1093, 1142, 979, 1153
797, 996, 1169, 244, 1224
798, 877, 1028, 845, 1199
799, 1008, 1011, 986, 1185
800, 644, 615, 1018, 1044
801, 657, 723, 660, 1014
802, 583, 1030, 545, 1086
803, 749, 666, 780, 1195
804, 954, 1061, 999, 1120
805, 297, 280, 1128, 1159
806, 645, 976, 615, 1044
807, 203, 253, 190, 1079
808, 971, 1032, 953, 1081
809, 912, 1135, 929, 1146
810, 504, 997, 1154, 1211
811, 399, 1058, 403, 1182
812, 1006, 1170, 1038, 1245
813, 964, 1093, 979, 1140
814, 383, 442, 1000, 1045
815, 949, 990, 1040, 1195
816, 951, 1018, 1044, 1201
817, 520, 588, 568, 1005
818, 541, 540, 539, 1189
819, 224, 1099, 978, 1183
820, 276, 1000, 309, 1169
821, 962, 1040, 991, 1101
822, 1122, 1147, 960, 1204
823, 951, 1044, 1020, 1201
824, 808, 1178, 1141, 1215
825, 626, 998, 606, 1172
826, 994, 1122, 960, 1187
827, 401, 1111, 407, 1144
828, 886, 920, 505, 941
829, 645, 772, 737, 976
830, 626, 606, 998, 1130
831, 514, 1090, 997, 1191
832, 1021, 1041, 987, 1214
833, 634, 973, 754, 1138
834, 947, 1068, 976, 1171
835, 995, 1045, 1000, 1118
836, 382, 1021, 977, 1125
837, 339, 369, 368, 1013
838, 873, 622, 1114, 1158
839, 568, 642, 709, 1005
840, 485, 987, 1041, 1214
841, 943, 1001, 922, 1203
842, 479, 478, 1109, 1154
843, 846, 1087, 884, 1136
844, 837, 857, 1024, 1151
845, 951, 1024, 1068, 1151
846, 563, 973, 1127, 1191
847, 958, 1076, 1063, 1084
848, 219, 1252, 968, 1254
849, 433, 366, 511, 1043
850, 1008, 958, 1059, 1185
851, 989, 1055, 195, 1238
852, 904, 1022, 995, 1150
853, 1037, 1060, 998, 1173
854, 698, 1020, 303, 1155
855, 961, 1068, 1024, 1151
856, 999, 1124, 954, 1196
857, 1043, 1112, 597, 1137
858, 960, 1050, 994, 1187
859, 556, 555, 1001, 1050
860, 221, 1048, 985, 1198
861, 954, 1009, 1061, 1120
862, 769, 629, 736, 1147
863, 982, 1128, 964, 1163
864, 1013, 388, 1159, 1230
865, 975, 1142, 1093, 1153
866, 999, 1168, 1035, 1196
867, 276, 1065, 1000, 1169
868, 261, 1190, 1059, 1235
869, 986, 1180, 715, 1229
870, 953, 1081, 987, 1121
871, 1016, 1139, 972, 1247
872, 1093, 1174, 264, 1193
873, 1016, 1031, 1139, 1247
874, 520, 588, 1005, 1189
875, 409, 1170, 1058, 1227
876, 974, 1146, 1138, 1175
877, 1038, 1170, 1115, 1245
878, 726, 681, 682, 983
879, 339, 369, 1013, 1208
880, 371, 485, 987, 1041
881, 558, 1091, 581, 1197
882, 1058, 1182, 399, 1220
883, 723, 664, 778, 1044
884, 309, 423, 342, 1123
885, 185, 195, 1055, 1238
886, 1038, 1115, 950, 1245
887, 180, 1015, 334, 1156
888, 586, 1106, 981, 1231
889, 952, 1060, 1101, 1166
890, 673, 608, 185, 1055
891, 952, 1015, 1027, 1074
892, 918, 1130, 998, 1172
893, 925, 892, 1145, 1160
894, 950, 1139, 972, 1194
895, 426, 997, 1090, 1154
896, 992, 1039, 954, 1198
897, 989, 1042, 195, 1055
898, 653, 1122, 994, 1146
899, 185, 194, 673, 1055
900, 608, 185, 1055, 1238
901, 848, 1075, 850, 1179
902, 901, 1045, 903, 1104
903, 742, 1120, 999, 1236
904, 934, 1125, 1078, 1150
905, 950, 985, 1038, 1048
906, 653, 652, 769, 1122
907, 219, 968, 1079, 1254
908, 255, 1107, 986, 1180
909, 405, 466, 1007, 1182
910, 219, 1079, 968, 1119
911, 406, 450, 408, 1076
912, 879, 1108, 856, 1153
913, 980, 1049, 372, 1134
914, 916, 984, 1023, 1187
915, 989, 1039, 954, 1196
916, 607, 877, 177, 1199
917, 384, 383, 1000, 1051
918, 1020, 1077, 303, 1155
919, 692, 1177, 1097, 1247
920, 1006, 1038, 950, 1245
921, 1000, 1056, 296, 1123
922, 586, 981, 549, 1231
923, 578, 433, 511, 1043
924, 304, 630, 239, 1020
925, 950, 1038, 988, 1048
926, 969, 1164, 319, 1239
927, 992, 1048, 972, 1161
928, 601, 1030, 1191, 1202
929, 785, 1095, 393, 1145
930, 736, 653, 994, 1175
931, 987, 1049, 1027, 1157
932, 950, 1038, 1006, 1188
933, 220, 234, 208, 1082
934, 507, 1001, 377, 1203
935, 219, 1119, 968, 1252
936, 955, 1022, 1045, 1104
937, 1020, 1140, 964, 1201
938, 290, 1098, 432, 1159
939, 1090, 1091, 567, 1205
940, 512, 1097, 1089, 1247
941, 997, 1041, 949, 1154
942, 977, 949, 1041, 1154
943, 448, 1006, 418, 1070
944, 957, 1109, 1090, 1154
945, 862, 1108, 1007, 1167
946, 439, 1119, 968, 1144
947, 798, 1019, 797, 1160
948, 968, 1042, 1218, 1254
949, 550, 469, 519, 1231
950, 982, 951, 1034, 1128
951, 644, 731, 1044, 1201
952, 427, 1025, 1090, 1205
953, 949, 997, 1030, 1202
954, 999, 1168, 742, 1236
955, 998, 1060, 962, 1172
956, 602, 581, 560, 974
957, 547, 1032, 971, 1241
958, 948, 1042, 989, 1218
959, 1013, 1024, 982, 1210
960, 1020, 1044, 731, 1201
961, 1014, 1026, 955, 1118
962, 1058, 1170, 985, 1227
963, 284, 1034, 1077, 1128
964, 384, 1051, 1000, 1123
965, 560, 581, 558, 1091
966, 1022, 1045, 995, 1118
967, 985, 221, 1099, 1227
968, 954, 1115, 1009, 1176
969, 746, 643, 1190, 1235
970, 532, 549, 530, 1073
971, 1040, 1195, 1086, 1217
972, 983, 1158, 726, 1168
973, 664, 778, 1044, 1155
974, 973, 1052, 1004, 1217
975, 1013, 1024, 961, 1068
976, 947, 1051, 1068, 1118
977, 1023, 1064, 960, 1204
978, 988, 1082, 207, 1096
979, 951, 1024, 1013, 1068
980, 968, 986, 1079, 1254
981, 956, 1068, 1051, 1118
982, 1041, 1101, 987, 1121
983, 655, 1052, 756, 1138
984, 253, 1079, 1119, 1234
985, 898, 1019, 925, 1095
986, 271, 274, 1224, 1239
987, 1007, 1167, 1124, 1182
988, 738, 1122, 667, 1204
989, 460, 516, 353, 1132
990, 224, 1042, 197, 1183
991, 321, 278, 296, 1056
992, 644, 1044, 1018, 1201
993, 736, 994, 571, 1175
994, 562, 563, 973, 1127
995, 988, 1048, 972, 1194
996, 352, 451, 453, 1103
997, 588, 1117, 1005, 1189
998, 309, 1000, 342, 1169
999, 912, 913, 1135, 1181
1000, 448, 1006, 1070, 1179
1001, 847, 1049, 841, 1085
1002, 998, 962, 1060, 1166
1003, 847, 1049, 980, 1134
1004, 273, 1164, 274, 1239
1005, 439, 398, 1033, 1057
1006, 1063, 1076, 958, 1174
1007, 462, 1113, 984, 1132
1008, 967, 1017, 995, 1186
1009, 985, 1099, 221, 1198
1010, 581, 974, 602, 1175
1011, 626, 998, 627, 1130
1012, 978, 1182, 1058, 1220
1013, 195, 1055, 1042, 1254
1014, 412, 419, 1062, 1213
1015, 995, 1017, 947, 1051
1016, 837, 179, 857, 1074
1017, 995, 1150, 967, 1186
1018, 503, 1211, 389, 1241
1019, 1212, 1217, 1004, 1228
1020, 750, 1097, 693, 1177
1021, 642, 1097, 750, 1177
1022, 963, 1126, 1209, 1225
1023, 918, 1022, 998, 1130
1024, 549, 981, 1073, 1231
1025, 951, 976, 1068, 1171
1026, 1058, 1099, 978, 1220
1027, 453, 1152, 993, 1253
1028, 367, 430, 429, 1063
1029, 567, 1090, 559, 1091
1030, 504, 1041, 390, 1211
1031, 1017, 1051, 995, 1186
1032, 971, 1081, 389, 1241
1033, 389, 1211, 971, 1241
1034, 998, 1022, 1014, 1130
1035, 393, 1095, 939, 1145
1036, 240, 1047, 1026, 1206
1037, 843, 464, 1049, 1134
1038, 962, 998, 1150, 1166
1039, 712, 747, 1029, 1189
1040, 951, 1068, 976, 1151
1041, 284, 1034, 282, 1077
1042, 287, 319, 235, 1192
1043, 947, 1051, 1017, 1068
1044, 386, 1041, 475, 1154
1045, 761, 1060, 991, 1199
1046, 473, 997, 504, 1211
1047, 982, 964, 1142, 1163
1048, 485, 1041, 1021, 1214
1049, 304, 303, 698, 1020
1050, 298, 628, 735, 1012
1051, 737, 615, 645, 976
1052, 674, 1055, 715, 1229
1053, 378, 996, 508, 1224
1054, 271, 1103, 1003, 1224
1055, 232, 219, 201, 1254
1056, 414, 469, 335, 1231
1057, 955, 1045, 1022, 1118
1058, 681, 1035, 983, 1168
1059, 1010, 1027, 991, 1199
1060, 220, 1082, 972, 1110
1061, 615, 1143, 976, 1173
1062, 412, 1062, 988, 1213
1063, 535, 534, 533, 1117
1064, 667, 1122, 1064, 1204
1065, 746, 312, 643, 1235
1066, 1080, 1109, 957, 1154
1067, 406, 1111, 1076, 1144
1068, 963, 897, 1126, 1129
1069, 994, 1050, 587, 1197
1070, 1009, 1031, 950, 1036
1071, 977, 1109, 1080, 1154
1072, 1004, 1052, 755, 1217
1073, 820, 1102, 1066, 1209
1074, 244, 996, 275, 1169
1075, 958, 1007, 1108, 1185
1076, 618, 1026, 240, 1047
1077, 912, 1052, 974, 1146
1078, 385, 1021, 485, 1041
1079, 977, 949, 1212, 1228
1080, 276, 278, 1000, 1065
1081, 516, 556, 555, 1001
1082, 1037, 967, 1166, 1242
1083, 991, 1040, 949, 1101
1084, 871, 498, 836, 1088
1085, 203, 1079, 219, 1119
1086, 1006, 1088, 1170, 1245
1087, 943, 924, 922, 1001
1088, 405, 400, 466, 1182
1089, 802, 757, 787, 1072
1090, 874, 848, 846, 1054
1091, 971, 953, 1116, 1121
1092, 316, 1076, 1008, 1144
1093, 996, 1067, 508, 1224
1094, 863, 851, 1075, 1094
1095, 668, 1072, 1126, 1209
1096, 224, 223, 197, 1042
1097, 951, 1044, 976, 1171
1098, 949, 997, 1154, 1212
1099, 1087, 1136, 965, 1189
1100, 562, 973, 577, 1138
1101, 426, 1090, 478, 1154
1102, 945, 929, 938, 1135
1103, 742, 999, 1120, 1196
1104, 773, 726, 1158, 1168
1105, 999, 1120, 1061, 1236
1106, 985, 954, 1099, 1198
1107, 431, 1053, 1098, 1162
1108, 653, 652, 1122, 1146
1109, 921, 902, 935, 995
1110, 668, 1126, 739, 1209
1111, 472, 431, 1053, 1098
1112, 912, 913, 929, 1135
1113, 547, 603, 971, 1202
1114, 1035, 1168, 742, 1196
1115, 863, 874, 840, 1136
1116, 1025, 1091, 1090, 1205
1117, 1089, 1110, 972, 1216
1118, 745, 512, 584, 1089
1119, 318, 1063, 293, 1174
1120, 180, 476, 1015, 1157
1121, 962, 1150, 998, 1172
1122, 732, 747, 648, 1029
1123, 1082, 972, 1110, 1216
1124, 543, 1032, 1112, 1116
1125, 924, 1025, 1001, 1135
1126, 602, 974, 560, 1138
1127, 270, 271, 1103, 1131
1128, 316, 259, 1008, 1076
1129, 861, 1114, 979, 1158
1130, 252, 993, 270, 1103
1131, 844, 1163, 1114, 1201
1132, 1006, 1036, 850, 1245
1133, 877, 607, 1028, 1199
1134, 451, 453, 993, 1253
1135, 546, 544, 545, 990
1136, 619, 742, 1168, 1236
1137, 297, 1098, 982, 1193
1138, 954, 1039, 989, 1183
1139, 451, 463, 453, 1253
1140, 1102, 1131, 963, 1225
1141, 261, 1011, 1059, 1190
1142, 1090, 1091, 957, 1127
1143, 973, 1004, 1052, 1222
1144, 679, 1120, 1039, 1196
1145, 573, 1082, 216, 1110
1146, 991, 1060, 1010, 1199
1147, 925, 939, 1095, 1145
1148, 594, 1030, 583, 1086
1149, 207, 1082, 234, 1096
1150, 822, 800, 1019, 1072
1151, 320, 306, 239, 1140
1152, 382, 386, 494, 977
1153, 893, 1178, 926, 1215
1154, 715, 1107, 716, 1180
1155, 679, 1039, 1120, 1176
1156, 372, 435, 471, 1134
1157, 337, 491, 494, 1109
1158, 875, 1036, 1009, 1061
1159, 841, 865, 179, 1027
1160, 844, 1018, 1163, 1201
1161, 935, 365, 438, 1045
1162, 427, 1025, 379, 1090
1163, 573, 191, 216, 1082
1164, 874, 1075, 1054, 1136
1165, 870, 1158, 983, 1168
1166, 1106, 1213, 981, 1231
1167, 954, 978, 1099, 1183
1168, 977, 1212, 1080, 1228
1169, 951, 1018, 976, 1044
1170, 972, 1089, 688, 1110
1171, 952, 1010, 1037, 1074
1172, 733, 706, 760, 1158
1173, 455, 1013, 388, 1159
1174, 431, 1098, 430, 1162
1175, 961, 1156, 1013, 1208
1176, 698, 630, 304, 1020
1177, 845, 1085, 1028, 1087
1178, 885, 996, 901, 1067
1179, 684, 612, 746, 1011
1180, 1078, 1125, 967, 1150
1181, 267, 1131, 1102, 1225
1182, 384, 447, 1051, 1230
1183, 891, 770, 613, 767
1184, 272, 317, 1012, 1131
1185, 979, 1158, 733, 1190
1186, 971, 1202, 603, 1211
1187, 1105, 1159, 388, 1230
1188, 542, 543, 540, 1116
1189, 702, 754, 973, 1217
1190, 954, 999, 1061, 1124
1191, 458, 366, 434, 1200
1192, 1043, 1112, 1054, 1117
1193, 990, 779, 1195, 1221
1194, 391, 984, 894, 1203
1195, 272, 1131, 1012, 1239
1196, 878, 870, 983, 1108
1197, 384, 1051, 1123, 1230
1198, 448, 418, 416, 1070
1199, 297, 1128, 982, 1159
1200, 516, 585, 353, 1132
1201, 630, 748, 708, 1020
1202, 752, 1010, 177, 1143
1203, 674, 989, 675, 1238
1204, 686, 1031, 694, 1139
1205, 547, 971, 603, 1241
1206, 550, 519, 1106, 1231
1207, 679, 1039, 675, 1196
1208, 476, 364, 334, 1015
1209, 968, 1252, 1042, 1254
1210, 875, 852, 1036, 1061
1211, 1061, 1120, 1009, 1236
1212, 1100, 1195, 779, 1221
1213, 981, 1194, 1038, 1213
1214, 1037, 998, 1069, 1173
1215, 804, 807, 808, 1023
1216, 994, 1122, 929, 1146
1217, 244, 275, 996, 1224
1218, 550, 335, 469, 1231
1219, 768, 735, 628, 1012
1220, 195, 1042, 989, 1183
1221, 339, 1208, 1156, 1240
1222, 565, 514, 997, 1191
1223, 1026, 1056, 955, 1118
1224, 962, 1150, 1172, 1219
1225, 962, 1078, 1150, 1219
1226, 854, 1108, 862, 1167
1227, 974, 1127, 560, 1138
1228, 715, 986, 1055, 1107
1229, 570, 597, 1112, 1137
1230, 238, 261, 312, 1011
1231, 280, 1034, 284, 1128
1232, 957, 1090, 1025, 1091
1233, 392, 1133, 1095, 1253
1234, 1066, 1102, 267, 1131
1235, 738, 1092, 1147, 1204
1236, 1007, 1108, 948, 1124
1237, 270, 269, 271, 1131
1238, 477, 384, 383, 1000
1239, 999, 742, 1168, 1196
1240, 835, 1007, 497, 1167
1241, 963, 1102, 1066, 1131
1242, 639, 1110, 193, 1161
1243, 976, 1018, 951, 1151
1244, 951, 1077, 1034, 1128
1245, 626, 627, 606, 1130
1246, 512, 1016, 529, 1089
1247, 232, 1042, 223, 1252
1248, 457, 1063, 408, 1084
1249, 980, 1054, 1043, 1112
1250, 528, 530, 549, 1016
1251, 221, 1048, 206, 1062
1252, 226, 992, 1048, 1198
1253, 903, 901, 902, 1045
1254, 494, 977, 386, 1154
1255, 907, 918, 1150, 1172
1256, 850, 1036, 1006, 1165
1257, 855, 1061, 999, 1108
1258, 1000, 1056, 955, 1206
1259, 948, 1035, 1185, 1218
1260, 949, 977, 1041, 1101
1261, 971, 953, 1032, 1116
1262, 416, 1070, 981, 1231
1263, 628, 1012, 250, 1225
1264, 873, 1114, 861, 1158
1265, 962, 1101, 1060, 1166
1266, 792, 819, 266, 1066
1267, 1017, 1068, 1051, 1208
1268, 869, 1007, 862, 1084
1269, 987, 1041, 971, 1081
1270, 287, 319, 969, 1164
1271, 688, 1089, 972, 1139
1272, 399, 400, 398, 1033
1273, 900, 1003, 1129, 1133
1274, 924, 1025, 1135, 1181
1275, 586, 550, 1106, 1231
1276, 545, 583, 546, 1030
1277, 948, 1111, 1008, 1185
1278, 971, 1211, 603, 1241
1279, 439, 968, 1119, 1252
1280, 226, 1048, 992, 1161
1281, 976, 1068, 961, 1151
1282, 991, 1028, 953, 1100
1283, 679, 685, 1039, 1176
1284, 383, 995, 438, 1045
1285, 688, 639, 687, 1161
1286, 927, 1072, 946, 1126
1287, 1024, 1156, 868, 1210
1288, 654, 1071, 1047, 1244
1289, 798, 796, 797, 1019
1290, 319, 1192, 969, 1239
1291, 527, 1110, 1089, 1216
1292, 1063, 1153, 1084, 1162
1293, 814, 758, 786, 1064
1294, 852, 1036, 1061, 1245
1295, 867, 1028, 616, 1087
1296, 959, 1075, 1036, 1094
1297, 999, 1108, 1061, 1124
1298, 527, 1082, 1110, 1216
1299, 271, 273, 274, 1239
1300, 969, 1223, 931, 1244
1301, 473, 504, 390, 1211
1302, 954, 1061, 1009, 1115
1303, 607, 616, 877, 1028
1304, 472, 1159, 982, 1210
1305, 296, 1105, 1123, 1232
1306, 900, 1067, 1003, 1133
1307, 982, 1034, 1013, 1159
1308, 998, 1060, 1037, 1166
1309, 466, 1167, 1007, 1182
1310, 1054, 1134, 970, 1179
1311, 675, 989, 674, 1196
1312, 933, 1080, 1004, 1219
1313, 1026, 1047, 618, 1226
1314, 948, 978, 1033, 1124
1315, 894, 916, 943, 984
1316, 894, 984, 943, 1203
1317, 433, 434, 366, 1043
1318, 392, 895, 1095, 1133
1319, 601, 1191, 565, 1202
1320, 661, 761, 663, 1060
1321, 1066, 1102, 963, 1209
1322, 819, 266, 1066, 1102
1323, 1023, 1083, 926, 1178
1324, 976, 1037, 947, 1171
1325, 931, 1149, 969, 1244
1326, 929, 1135, 994, 1146
1327, 485, 341, 371, 987
1328, 711, 1136, 1087, 1189
1329, 296, 1123, 1056, 1232
1330, 464, 372, 500, 1049
1331, 1036, 1075, 851, 1094
1332, 534, 1073, 970, 1200
1333, 183, 893, 926, 1215
1334, 196, 989, 195, 1238
1335, 871, 449, 1088, 1167
1336, 675, 1196, 1039, 1238
1337, 357, 507, 886, 1025
1338, 990, 1116, 544, 1221
1339, 1063, 975, 1153, 1162
1340, 991, 1100, 953, 1121
1341, 1021, 1041, 977, 1101
1342, 270, 1103, 993, 1131
1343, 873, 760, 622, 1158
1344, 998, 1150, 918, 1172
1345, 869, 497, 835, 1007
1346, 368, 1156, 1013, 1210
1347, 538, 1112, 1043, 1117
1348, 1039, 1120, 954, 1196
1349, 898, 925, 895, 1095
1350, 571, 587, 994, 1147
1351, 287, 969, 1047, 1164
1352, 820, 1066, 833, 1237
1353, 662, 1040, 1004, 1217
1354, 732, 648, 646, 1100
1355, 952, 1037, 1010, 1060
1356, 927, 668, 1072, 1126
1357, 418, 1038, 415, 1213
1358, 688, 1139, 972, 1161
1359, 642, 750, 693, 1177
1360, 988, 1062, 1038, 1213
1361, 712, 1029, 541, 1189
1362, 1059, 979, 1153, 1174
1363, 976, 1074, 1010, 1143
1364, 497, 450, 1007, 1084
1365, 291, 311, 1098, 1193
1366, 974, 1091, 560, 1127
1367, 950, 1048, 988, 1194
1368, 255, 986, 1079, 1234
1369, 231, 193, 1110, 1161
1370, 588, 535, 533, 1117
1371, 615, 976, 737, 1173
1372, 178, 1010, 1027, 1074
1373, 982, 1142, 964, 1193
1374, 848, 850, 849, 1179
1375, 399, 400, 1033, 1182
1376, 957, 1090, 997, 1154
1377, 379, 1025, 505, 1109
1378, 868, 1053, 1024, 1210
1379, 909, 931, 1223, 1244
1380, 285, 303, 1020, 1077
1381, 847, 980, 1049, 1085
1382, 611, 512, 745, 1089
1383, 464, 500, 843, 1049
1384, 665, 779, 1100, 1195
1385, 255, 251, 1107, 1180
1386, 378, 1169, 996, 1224
1387, 973, 1004, 1212, 1217
1388, 674, 715, 677, 1229
1389, 1096, 1106, 413, 1213
1390, 530, 1016, 512, 1097
1391, 850, 1075, 1165, 1179
1392, 231, 193, 220, 1110
1393, 216, 1082, 220, 1110
1394, 405, 1033, 1007, 1111
1395, 255, 1079, 986, 1107
1396, 808, 1141, 809, 1215
1397, 986, 968, 1079, 1234
1398, 406, 1076, 407, 1144
1399, 250, 628, 298, 1012
1400, 382, 359, 1021, 1125
1401, 958, 1059, 1153, 1174
1402, 341, 987, 485, 1214
1403, 974, 1052, 912, 1181
1404, 910, 1078, 977, 1080
1405, 611, 512, 1089, 1247
1406, 878, 983, 870, 1158
1407, 1047, 1065, 955, 1206
1408, 1005, 1136, 710, 1189
1409, 707, 1140, 748, 1201
1410, 1039, 1176, 685, 1250
1411, 870, 983, 1108, 1168
1412, 812, 785, 393, 1145
1413, 1089, 1139, 690, 1247
1414, 1126, 1129, 897, 1246
1415, 218, 234, 1082, 1096
1416, 985, 950, 1038, 1115
1417, 286, 235, 721, 1047
1418, 912, 933, 908, 1080
1419, 1033, 1042, 968, 1057
1420, 779, 665, 1100, 1221
1421, 962, 1150, 1078, 1166
1422, 663, 635, 661, 1060
1423, 878, 979, 1153, 1158
1424, 297, 280, 284, 1128
1425, 597, 1043, 538, 1112
1426, 1100, 1121, 991, 1195
1427, 874, 863, 851, 1075
1428, 507, 480, 377, 1025
1429, 969, 1104, 1047, 1164
1430, 514, 566, 565, 997
1431, 180, 331, 476, 1157
1432, 952, 1074, 1037, 1242
1433, 954, 1120, 1039, 1176
1434, 868, 1156, 338, 1210
1435, 947, 1022, 995, 1118
1436, 462, 984, 391, 1203
1437, 710, 759, 1136, 1177
1438, 1003, 1067, 900, 1223
1439, 336, 407, 1076, 1144
1440, 373, 472, 1053, 1210
1441, 556, 1001, 516, 1205
1442, 877, 616, 867, 1028
1443, 1074, 1143, 976, 1151
1444, 199, 1039, 1099, 1183
1445, 577, 701, 634, 1086
1446, 1020, 1044, 951, 1077
1447, 1012, 1131, 317, 1225
1448, 856, 879, 862, 1108
1449, 253, 249, 190, 1079
1450, 972, 1139, 992, 1161
1451, 955, 1071, 1022, 1104
1452, 613, 755, 1004, 1052
1453, 1014, 1069, 998, 1130
1454, 1064, 1122, 960, 1204
1455, 364, 334, 1015, 1156
1456, 494, 1109, 977, 1154
1457, 975, 1098, 1053, 1162
1458, 861, 878, 979, 1153
1459, 268, 1066, 993, 1152
1460, 639, 193, 687, 1161
1461, 822, 1072, 1019, 1160
1462, 1000, 955, 1065, 1206
1463, 710, 1136, 1005, 1177
1464, 980, 1054, 847, 1134
1465, 434, 1134, 347, 1179
1466, 901, 1067, 996, 1223
1467, 990, 1121, 1100, 1195
1468, 963, 1129, 1126, 1246
1469, 985, 1099, 1058, 1227
1470, 1040, 780, 1195, 1217
1471, 638, 194, 192, 1055
1472, 412, 988, 1096, 1213
1473, 477, 383, 442, 1000
1474, 947, 1068, 1017, 1242
1475, 1093, 1153, 979, 1174
1476, 846, 1085, 845, 1087
1477, 1071, 1104, 1047, 1244
1478, 203, 190, 219, 1079
1479, 921, 934, 904, 1186
1480, 761, 1040, 751, 1195
1481, 196, 195, 989, 1183
1482, 465, 1053, 868, 1210
1483, 1019, 1072, 896, 1160
1484, 588, 539, 1117, 1189
1485, 636, 787, 757, 1072
1486, 556, 1197, 1001, 1205
1487, 1023, 1064, 825, 1141
1488, 949, 991, 1101, 1121
1489, 975, 1153, 1093, 1174
1490, 183, 926, 1178, 1215
1491, 874, 848, 1054, 1075
1492, 836, 850, 1006, 1179
1493, 950, 1009, 1036, 1245
1494, 419, 410, 409, 1038
1495, 844, 741, 775, 1201
1496, 379, 479, 478, 1109
1497, 553, 1050, 1046, 1132
1498, 480, 1025, 427, 1205
1499, 465, 868, 499, 1210
1500, 410, 409, 1038, 1170
1501, 602, 974, 1138, 1175
1502, 969, 1047, 1104, 1244
1503, 450, 457, 408, 1084
1504, 218, 207, 234, 1096
1505, 878, 856, 870, 1108
1506, 426, 504, 473, 997
1507, 341, 1157, 987, 1214
1508, 213, 687, 193, 1161
1509, 572, 1202, 997, 1211
1510, 945, 915, 1122, 1187
1511, 956, 1056, 1123, 1232
1512, 1014, 1118, 947, 1171
1513, 578, 511, 537, 1043
1514, 1156, 1208, 961, 1240
1515, 850, 1165, 1006, 1179
1516, 954, 1099, 978, 1249
1517, 253, 254, 1079, 1234
1518, 338, 499, 868, 1210
1519, 450, 405, 497, 1007
1520, 318, 293, 260, 1174
1521, 268, 993, 252, 1152
1522, 1037, 1069, 947, 1171
1523, 692, 693, 1097, 1177
1524, 982, 1128, 1034, 1159
1525, 207, 206, 208, 1048
1526, 272, 269, 1131, 1239
1527, 337, 920, 491, 1109
1528, 844, 775, 1018, 1201
1529, 640, 1010, 752, 1143
1530, 951, 1020, 1077, 1128
1531, 1009, 1061, 1036, 1245
1532, 199, 1099, 1039, 1198
1533, 564, 994, 587, 1197
1534, 1061, 1115, 954, 1124
1535, 194, 638, 673, 1055
1536, 695, 685, 992, 1250
1537, 178, 1027, 179, 1074
1538, 307, 283, 305, 1232
1539, 918, 930, 905, 1022
1540, 715, 1055, 986, 1229
1541, 1075, 1005, 1136, 1177
1542, 552, 554, 587, 1050
1543, 976, 1069, 1037, 1171
1544, 963, 1126, 1072, 1209
1545, 770, 662, 1004, 1217
1546, 990, 1116, 953, 1121
1547, 477, 1000, 442, 1169
1548, 969, 1149, 931, 1223
1549, 661, 751, 761, 1040
1550, 971, 949, 1041, 1121
1551, 438, 921, 935, 995
1552, 930, 1022, 918, 1130
1553, 1008, 1111, 968, 1144
1554, 857, 868, 1024, 1156
1555, 566, 997, 425, 1211
1556, 970, 1165, 1075, 1179
1557, 998, 947, 1037, 1069
1558, 571, 629, 522, 1147
1559, 900, 1003, 899, 1129
1560, 971, 1041, 997, 1211
1561, 820, 833, 800, 1237
1562, 958, 1084, 1063, 1153
1563, 978, 1042, 1033, 1057
1564, 921, 904, 995, 1186
1565, 952, 1027, 1010, 1074
1566, 222, 226, 992, 1250
1567, 943, 984, 916, 1187
1568, 297, 982, 1128, 1193
1569, 439, 398, 401, 1033
1570, 984, 960, 1046, 1251
1571, 245, 1063, 318, 1076
1572, 695, 992, 685, 1176
1573, 977, 1078, 910, 1125
1574, 980, 965, 1054, 1112
1575, 426, 473, 425, 997
1576, 852, 850, 1036, 1245
1577, 847, 1054, 980, 1085
1578, 737, 976, 1069, 1173
1579, 797, 1160, 1145, 1215
1580, 954, 1120, 999, 1196
1581, 235, 671, 721, 1047
1582, 298, 1012, 735, 1192
1583, 960, 984, 1187, 1251
1584, 587, 1050, 554, 1197
1585, 638, 1055, 192, 1107
1586, 568, 1005, 588, 1184
1587, 973, 1086, 702, 1217
1588, 709, 1005, 710, 1189
1589, 896, 1019, 897, 1072
1590, 859, 1142, 1114, 1163
1591, 226, 222, 992, 1198
1592, 178, 1143, 1074, 1151
1593, 649, 1018, 775, 1201
1594, 847, 843, 1049, 1134
1595, 984, 1046, 960, 1050
1596, 615, 640, 1143, 1173
1597, 546, 547, 544, 1116
1598, 911, 1080, 1109, 1181
1599, 799, 1160, 797, 1215
1600, 268, 270, 252, 993
1601, 616, 1028, 607, 1199
1602, 847, 865, 841, 1049
1603, 884, 874, 846, 1136
1604, 690, 1089, 688, 1139
1605, 958, 1153, 1063, 1174
1606, 385, 382, 359, 1021
1607, 1142, 1153, 975, 1162
1608, 971, 987, 1081, 1121
1609, 290, 432, 354, 1159
1610, 1038, 1048, 985, 1062
1611, 899, 1003, 900, 1223
1612, 552, 1046, 553, 1050
1613, 990, 953, 1100, 1121
1614, 854, 853, 1088, 1167
1615, 988, 1048, 1038, 1062
1616, 916, 926, 1023, 1083
1617, 511, 534, 537, 1200
1618, 545, 990, 544, 1221
1619, 981, 1073, 1070, 1188
1620, 1014, 1026, 660, 1226
1621, 253, 1119, 254, 1234
1622, 567, 1091, 559, 1205
1623, 959, 1094, 1031, 1177
1624, 910, 1080, 977, 1109
1625, 855, 883, 870, 1168
1626, 954, 1099, 1039, 1183
1627, 980, 1054, 965, 1085
1628, 947, 1014, 1022, 1118
1629, 963, 993, 1066, 1237
1630, 960, 1064, 1023, 1187
1631, 1031, 1036, 1009, 1243
1632, 312, 237, 643, 1235
1633, 480, 377, 1025, 1205
1634, 591, 531, 1097, 1184
1635, 948, 1035, 983, 1185
1636, 1080, 1181, 912, 1222
1637, 304, 239, 306, 1020
1638, 412, 1096, 413, 1213
1639, 1063, 1153, 975, 1174
1640, 613, 1004, 891, 1052
1641, 1073, 1165, 1070, 1188
1642, 948, 1007, 1033, 1111
1643, 1017, 1068, 961, 1242
1644, 869, 835, 862, 1007
1645, 983, 726, 1158, 1190
1646, 287, 1164, 1047, 1206
1647, 1010, 1060, 777, 1199
1648, 950, 1115, 1009, 1245
1649, 759, 625, 863, 1094
1650, 1018, 951, 1163, 1201
1651, 178, 841, 179, 1027
1652, 268, 270, 993, 1131
1653, 981, 1213, 416, 1231
1654, 1042, 1057, 223, 1252
1655, 583, 594, 563, 1030
1656, 997, 1090, 957, 1191
1657, 1114, 1142, 964, 1163
1658, 1002, 1115, 1061, 1124
1659, 907, 918, 905, 1150
1660, 272, 269, 317, 1131
1661, 676, 674, 1035, 1196
1662, 844, 1114, 741, 1201
1663, 785, 797, 1095, 1145
1664, 224, 198, 1099, 1183
1665, 954, 985, 1099, 1249
1666, 613, 755, 770, 1004
1667, 427, 1090, 567, 1205
1668, 637, 758, 814, 1064
1669, 955, 1056, 1000, 1118
1670, 891, 1004, 933, 1052
1671, 284, 1077, 285, 1128
1672, 959, 1031, 1016, 1247
1673, 455, 1013, 1159, 1210
1674, 988, 1038, 950, 1194
1675, 450, 406, 405, 1111
1676, 533, 568, 588, 1184
1677, 388, 1105, 422, 1159
1678, 1022, 1130, 1071, 1226
1679, 980, 1085, 965, 1112
1680, 1047, 1164, 1065, 1206
1681, 1090, 1127, 957, 1191
1682, 948, 1007, 1111, 1185
1683, 512, 530, 529, 1016
1684, 1022, 1014, 1130, 1226
1685, 537, 538, 1043, 1117
1686, 631, 541, 712, 1029
1687, 905, 1022, 904, 1150
1688, 849, 1134, 1054, 1179
1689, 866, 1151, 837, 1163
1690, 406, 407, 1111, 1144
1691, 822, 1019, 798, 1160
1692, 971, 1041, 987, 1121
1693, 601, 1030, 563, 1191
1694, 1091, 1197, 557, 1205
1695, 289, 1026, 305, 1056
1696, 267, 317, 1131, 1225
1697, 572, 997, 566, 1211
1698, 199, 196, 1039, 1183
1699, 281, 1105, 296, 1232
1700, 752, 1010, 722, 1199
1701, 983, 1108, 948, 1185
1702, 440, 1119, 439, 1144
1703, 966, 1077, 1044, 1155
1704, 1031, 1188, 1016, 1194
1705, 878, 861, 979, 1158
1706, 364, 1156, 1015, 1240
1707, 992, 1139, 695, 1161
1708, 907, 1172, 1150, 1219
1709, 199, 1039, 222, 1198
1710, 1039, 1099, 954, 1198
1711, 861, 860, 878, 1153
1712, 438, 921, 995, 1186
1713, 673, 674, 608, 1055
1714, 342, 1000, 477, 1169
1715, 985, 1170, 1058, 1249
1716, 680, 1120, 744, 1176
1717, 747, 631, 712, 1029
1718, 1024, 1053, 982, 1210
1719, 445, 244, 1169, 1224
1720, 992, 1176, 1039, 1250
1721, 695, 1139, 992, 1176
1722, 1052, 1138, 973, 1222
1723, 954, 978, 1124, 1249
1724, 709, 642, 710, 1005
1725, 504, 997, 426, 1154
1726, 351, 995, 383, 1051
1727, 738, 728, 1122, 1147
1728, 1017, 1051, 496, 1208
1729, 384, 1000, 477, 1123
1730, 1021, 1078, 967, 1166
1731, 258, 256, 259, 1008
1732, 921, 904, 902, 995
1733, 855, 883, 1168, 1236
1734, 290, 354, 279, 1159
1735, 480, 379, 427, 1025
1736, 904, 905, 903, 1022
1737, 462, 361, 391, 1083
1738, 753, 1026, 618, 1226
1739, 947, 995, 1051, 1118
1740, 448, 498, 418, 1006
1741, 950, 1188, 1031, 1194
1742, 1047, 1071, 955, 1104
1743, 619, 1168, 864, 1236
1744, 841, 845, 846, 1085
1745, 949, 1101, 1041, 1121
1746, 611, 1089, 745, 1247
1747, 556, 557, 1197, 1205
1748, 982, 1159, 1013, 1210
1749, 683, 715, 1180, 1229
1750, 993, 1003, 1103, 1133
1751, 565, 1191, 997, 1202
1752, 993, 1129, 1003, 1133
1753, 517, 701, 577, 1086
1754, 649, 775, 741, 1201
1755, 434, 347, 483, 1179
1756, 853, 836, 1006, 1088
1757, 311, 291, 264, 1193
1758, 959, 1016, 1097, 1247
1759, 178, 1010, 1074, 1143
1760, 1014, 1022, 955, 1226
1761, 948, 1108, 1007, 1185
1762, 213, 186, 609, 1161
1763, 1039, 1183, 196, 1238
1764, 928, 915, 1064, 1122
1765, 866, 1018, 1151, 1163
1766, 548, 1137, 1032, 1241
1767, 1025, 1091, 1001, 1135
1768, 261, 237, 312, 1235
1769, 851, 1075, 1036, 1165
1770, 769, 994, 1122, 1147
1771, 591, 568, 531, 1184
1772, 921, 1125, 934, 1186
1773, 1007, 958, 1084, 1111
1774, 280, 1105, 1034, 1159
1775, 734, 1005, 642, 1177
1776, 336, 407, 406, 1076
1777, 993, 1103, 451, 1133
1778, 911, 1080, 910, 1109
1779, 876, 1153, 1142, 1162
1780, 178, 866, 1143, 1151
1781, 1148, 1166, 967, 1242
1782, 1010, 1037, 976, 1173
1783, 222, 1198, 1039, 1250
1784, 475, 385, 485, 1041
1785, 213, 609, 687, 1161
1786, 268, 300, 1066, 1152
1787, 742, 725, 1120, 1236
1788, 867, 616, 776, 1087
1789, 813, 805, 790, 1251
1790, 216, 191, 220, 1082
1791, 357, 886, 505, 1025
1792, 972, 1139, 1089, 1247
1793, 656, 657, 627, 1069
1794, 735, 1012, 768, 1192
1795, 656, 1069, 713, 1173
1796, 614, 1018, 615, 1143
1797, 432, 472, 354, 1159
1798, 984, 1050, 960, 1187
1799, 1022, 1071, 955, 1226
1800, 405, 401, 1033, 1111
1801, 841, 178, 845, 1027
1802, 956, 1051, 1000, 1118
1803, 985, 954, 1115, 1249
1804, 539, 1112, 538, 1117
1805, 892, 1019, 896, 1160
1806, 915, 1023, 1064, 1187
1807, 855, 854, 1061, 1108
1808, 961, 1068, 1017, 1208
1809, 527, 1082, 573, 1110
1810, 941, 1109, 1025, 1181
1811, 243, 1105, 280, 1159
1812, 618, 288, 240, 1026
1813, 997, 1191, 1030, 1202
1814, 855, 1168, 999, 1236
1815, 294, 1076, 316, 1144
1816, 882, 180, 334, 1156
1817, 820, 819, 1066, 1102
1818, 967, 1148, 1021, 1166
1819, 537, 538, 597, 1043
1820, 330, 345, 921, 1186
1821, 452, 462, 391, 1203
1822, 395, 378, 508, 1224
1823, 906, 934, 1078, 1150
1824, 858, 1024, 1053, 1142
1825, 973, 1191, 1030, 1212
1826, 644, 645, 615, 1044
1827, 1033, 1124, 978, 1182
1828, 725, 744, 1120, 1236
1829, 615, 614, 644, 1018
1830, 550, 586, 549, 1231
1831, 185, 195, 194, 1055
1832, 640, 722, 752, 1010
1833, 1058, 1182, 978, 1249
1834, 881, 1018, 614, 1143
1835, 586, 550, 519, 1106
1836, 928, 945, 915, 1122
1837, 285, 1077, 1020, 1128
1838, 768, 1012, 628, 1225
1839, 930, 1071, 1022, 1130
1840, 823, 1160, 824, 1207
1841, 285, 303, 304, 1020
1842, 1000, 1051, 956, 1123
1843, 287, 1047, 310, 1206
1844, 960, 1187, 1023, 1251
1845, 955, 1022, 1014, 1118
1846, 694, 1094, 1031, 1243
1847, 240, 310, 1047, 1206
1848, 1016, 972, 1089, 1247
1849, 985, 1115, 1038, 1170
1850, 944, 931, 909, 1244
1851, 961, 1024, 1013, 1156
1852, 564, 587, 554, 1197
1853, 792, 266, 241, 1066
1854, 916, 894, 926, 1083
1855, 649, 614, 775, 1018
1856, 703, 1138, 756, 1175
1857, 497, 869, 348, 1084
1858, 217, 233, 1079, 1254
1859, 960, 1147, 1092, 1204
1860, 990, 1195, 1100, 1221
1861, 345, 1125, 921, 1186
1862, 557, 559, 1091, 1205
1863, 191, 573, 521, 1082
1864, 724, 1031, 694, 1094
1865, 901, 996, 1104, 1223
1866, 1039, 1196, 989, 1238
1867, 924, 1135, 913, 1181
1868, 642, 734, 710, 1005
1869, 1053, 1142, 982, 1193
1870, 895, 925, 939, 1095
1871, 275, 1065, 996, 1164
1872, 994, 1050, 960, 1147
1873, 351, 383, 381, 1051
1874, 844, 859, 1114, 1163
1875, 993, 1133, 451, 1253
1876, 653, 783, 652, 1146
1877, 266, 267, 1066, 1102
1878, 757, 1072, 802, 1207
1879, 949, 1030, 997, 1212
1880, 941, 911, 1109, 1181
1881, 963, 1066, 993, 1131
1882, 589, 561, 559, 1127
1883, 449, 1088, 1002, 1170
1884, 221, 209, 1048, 1198
1885, 1046, 1050, 984, 1132
1886, 692, 724, 693, 1177
1887, 963, 993, 1129, 1131
1888, 933, 908, 1080, 1219
1889, 1009, 1120, 954, 1176
1890, 988, 972, 1082, 1194
1891, 682, 1180, 1011, 1229
1892, 686, 694, 691, 1139
1893, 980, 1081, 1032, 1137
1894, 710, 1005, 734, 1177
1895, 208, 1048, 226, 1161
1896, 200, 221, 1099, 1198
1897, 668, 636, 1072, 1209
1898, 1012, 1126, 768, 1149
1899, 222, 992, 1198, 1250
1900, 457, 1063, 1084, 1162
1901, 890, 1122, 652, 1146
1902, 807, 1023, 825, 1141
1903, 910, 908, 1078, 1080
1904, 472, 455, 1159, 1210
1905, 554, 552, 553, 1050
1906, 611, 1097, 512, 1247
1907, 974, 1135, 1175, 1197
1908, 370, 1049, 372, 1081
1909, 258, 261, 1011, 1059
1910, 742, 1035, 681, 1168
1911, 418, 415, 416, 1213
1912, 1091, 1135, 1025, 1181
1913, 1004, 973, 1212, 1222
1914, 817, 1066, 300, 1152
1915, 1002, 954, 1115, 1124
1916, 1119, 1144, 254, 1234
1917, 739, 1102, 1209, 1225
1918, 989, 196, 1183, 1238
1919, 252, 270, 315, 1103
1920, 226, 1161, 992, 1250
1921, 679, 1039, 685, 1250
1922, 1009, 1036, 875, 1243
1923, 1003, 1067, 996, 1224
1924, 977, 1078, 1021, 1101
1925, 660, 771, 699, 1026
1926, 286, 287, 235, 1047
1927, 572, 601, 565, 1202
1928, 1036, 1075, 959, 1165
1929, 562, 1127, 973, 1138
1930, 653, 1146, 994, 1175
1931, 373, 472, 431, 1053
1932, 824, 1160, 799, 1215
1933, 1040, 1004, 1217, 1228
1934, 824, 809, 1141, 1215
1935, 373, 465, 499, 1210
1936, 899, 1129, 1003, 1246
1937, 619, 725, 742, 1236
1938, 442, 383, 365, 1045
1939, 323, 289, 305, 1056
1940, 244, 274, 275, 1224
1941, 425, 997, 473, 1211
1942, 1031, 1094, 1036, 1243
1943, 890, 929, 1122, 1146
1944, 589, 561, 1127, 1191
1945, 217, 1079, 1107, 1254
1946, 643, 733, 1190, 1235
1947, 470, 1063, 245, 1076
1948, 434, 483, 458, 1179
1949, 204, 717, 704, 1039
1950, 679, 704, 1039, 1250
1951, 979, 983, 1158, 1190
1952, 983, 1035, 999, 1168
1953, 1050, 1132, 1001, 1203
1954, 704, 211, 204, 1039
1955, 958, 1111, 1007, 1185
1956, 201, 223, 232, 1042
1957, 1021, 1101, 1078, 1166
1958, 517, 577, 594, 1086
1959, 186, 609, 1161, 1250
1960, 222, 1039, 199, 1250
1961, 1054, 1075, 970, 1117
1962, 572, 565, 997, 1202
1963, 970, 1054, 1043, 1134
1964, 982, 964, 1128, 1193
1965, 404, 403, 409, 1170
1966, 824, 1141, 826, 1233
1967, 1005, 959, 1075, 1184
1968, 911, 910, 941, 1109
1969, 699, 288, 618, 1026
1970, 862, 1007, 835, 1167
1971, 868, 858, 1024, 1053
1972, 437, 1148, 1017, 1240
1973, 530, 1097, 531, 1184
1974, 993, 1066, 268, 1131
1975, 413, 1106, 414, 1213
1976, 679, 675, 1039, 1238
1977, 674, 675, 608, 1238
1978, 994, 1175, 1135, 1197
1979, 967, 1078, 1021, 1125
1980, 1054, 1112, 965, 1117
1981, 290, 279, 297, 1159
1982, 1145, 1160, 892, 1215
1983, 185, 194, 19, 673
1984, 608, 185, 19, 673
1985, 449, 1002, 404, 1170
1986, 952, 1037, 1060, 1166
1987, 226, 1048, 209, 1198
1988, 254, 1119, 301, 1144
1989, 694, 1031, 691, 1139
1990, 359, 345, 350, 1125
1991, 553, 1046, 1113, 1132
1992, 951, 1077, 1044, 1248
1993, 679, 685, 704, 1250
1994, 677, 676, 674, 1035
1995, 414, 416, 1213, 1231
1996, 956, 1034, 1013, 1248
1997, 896, 892, 897, 1019
1998, 952, 1015, 1074, 1242
1999, 955, 1000, 1045, 1118
2000, 707, 1114, 1140, 1201
2001, 724, 692, 694, 1031
2002, 1036, 1094, 875, 1243
2003, 336, 294, 467, 1144
2004, 609, 695, 687, 1161
2005, 984, 1050, 1001, 1203
2006, 368, 388, 455, 1013
2007, 564, 1175, 994, 1197
2008, 616, 1028, 648, 1087
2009, 957, 1154, 997, 1212
2010, 1051, 1068, 956, 1208
2011, 859, 861, 1114, 1142
2012, 695, 1139, 688, 1161
2013, 710, 1136, 711, 1189
2014, 615, 737, 640, 1173
2015, 1013, 1034, 951, 1248
2016, 571, 522, 587, 1147
2017, 955, 1026, 1014, 1226
2018, 277, 1065, 1164, 1206
2019, 1016, 1031, 959, 1188
2020, 486, 789, 1145, 1178
2021, 956, 1123, 1105, 1232
2022, 722, 1010, 777, 1199
2023, 415, 1038, 419, 1213
2024, 667, 928, 1064, 1122
2025, 742, 1120, 678, 1196
2026, 716, 683, 715, 1180
2027, 951, 1044, 1171, 1248
2028, 280, 282, 284, 1034
2029, 984, 1132, 1050, 1203
2030, 899, 1003, 1223, 1246
2031, 910, 1078, 934, 1125
2032, 733, 643, 706, 1235
2033, 975, 1142, 1053, 1193
2034, 1081, 1137, 456, 1241
2035, 777, 1060, 1010, 1173
2036, 962, 1040, 1101, 1228
2037, 949, 1101, 1040, 1228
2038, 687, 695, 688, 1161
2039, 557, 567, 559, 1205
2040, 297, 291, 1098, 1193
2041, 580, 1029, 631, 1221
2042, 486, 1145, 184, 1178
2043, 199, 1039, 196, 1238
2044, 211, 222, 199, 1250
2045, 336, 1076, 294, 1144
2046, 822, 800, 798, 1019
2047, 313, 244, 395, 1224
2048, 277, 1164, 287, 1206
2049, 356, 506, 508, 1067
2050, 225, 224, 198, 1099
2051, 272, 271, 269, 1239
2052, 192, 1055, 202, 1107
2053, 258, 1011, 238, 1180
2054, 597, 513, 1043, 1137
2055, 1075, 1094, 959, 1177
2056, 316, 294, 259, 1076
2057, 1012, 1149, 768, 1192
2058, 571, 587, 564, 994
2059, 675, 989, 1196, 1238
2060, 840, 1087, 740, 1136
2061, 704, 204, 21, 717
2062, 204, 704, 21, 211
2063, 761, 663, 1060, 1199
2064, 914, 1141, 182, 1233
2065, 952, 1021, 1148, 1166
2066, 535, 537, 534, 1117
2067, 509, 569, 703, 1138
2068, 413, 469, 414, 1106
2069, 853, 1006, 850, 1245
2070, 579, 603, 1211, 1241
2071, 413, 519, 469, 1106
2072, 525, 218, 1082, 1096
2073, 217, 202, 233, 1254
2074, 211, 199, 1039, 1250
2075, 966, 1044, 1077, 1248
2076, 930, 889, 1071, 1130
2077, 579, 603, 510, 1211
2078, 347, 1134, 872, 1179
2079, 543, 547, 1032, 1116
2080, 999, 948, 1108, 1124
2081, 784, 1192, 1149, 1244
2082, 1124, 1167, 1002, 1182
2083, 1004, 1222, 1212, 1228
2084, 951, 1171, 1068, 1248
2085, 526, 1096, 1082, 1106
2086, 715, 1055, 638, 1107
2087, 1002, 1115, 954, 1249
2088, 911, 912, 1080, 1181
2089, 707, 1114, 706, 1140
2090, 783, 890, 652, 1146
2091, 954, 1124, 1002, 1249
2092, 955, 1045, 1000, 1065
2093, 255, 257, 251, 1180
2094, 949, 977, 1101, 1228
2095, 840, 623, 759, 1136
2096, 981, 1070, 1006, 1188
2097, 770, 1004, 755, 1217
2098, 879, 1084, 1153, 1162
2099, 402, 399, 403, 1182
2100, 679, 717, 675, 1238
2101, 1052, 912, 1181, 1222
2102, 204, 199, 196, 1238
2103, 672, 703, 756, 1175
2104, 204, 1039, 199, 1238
2105, 691, 690, 1139, 1247
2106, 679, 1039, 717, 1238
2107, 513, 436, 1043, 1137
2108, 875, 1061, 1009, 1236
2109, 513, 436, 578, 1043
2110, 881, 844, 614, 1018
2111, 1039, 1198, 992, 1250
2112, 185, 196, 195, 1238
2113, 217, 1107, 202, 1254
2114, 786, 1064, 758, 1233
2115, 526, 525, 1082, 1096
2116, 867, 845, 1028, 1087
2117, 1053, 1098, 975, 1193
2118, 956, 1123, 1051, 1230
2119, 636, 787, 1072, 1209
2120, 667, 1064, 637, 1204
2121, 648, 616, 646, 1028
2122, 427, 592, 396, 1205
2123, 956, 1000, 1056, 1118
2124, 993, 1103, 1003, 1131
2125, 1021, 1078, 977, 1125
2126, 457, 430, 1063, 1162
2127, 492, 1103, 1067, 1133
2128, 442, 1045, 365, 1169
2129, 295, 296, 1105, 1123
2130, 1078, 1080, 908, 1219
2131, 695, 609, 685, 1250
2132, 564, 571, 994, 1175
2133, 328, 579, 1211, 1241
2134, 548, 1032, 547, 1241
2135, 853, 871, 836, 1088
2136, 668, 739, 636, 1209
2137, 877, 867, 845, 1028
2138, 365, 383, 438, 1045
2139, 1013, 956, 1068, 1208
2140, 647, 617, 761, 1199
2141, 990, 1100, 953, 1116
2142, 1013, 1034, 956, 1230
2143, 459, 375, 1103, 1224
2144, 871, 344, 498, 1088
2145, 759, 710, 734, 1177
2146, 368, 1013, 455, 1210
2147, 549, 1073, 536, 1231
2148, 621, 626, 606, 1172
2149, 271, 242, 1103, 1224
2150, 712, 541, 595, 1189
2151, 955, 1056, 1026, 1206
2152, 357, 480, 507, 1025
2153, 548, 593, 1137, 1241
2154, 1055, 202, 1107, 1254
2155, 459, 375, 492, 1103
2156, 979, 1140, 1093, 1235
2157, 844, 1018, 859, 1163
2158, 467, 294, 248, 1144
2159, 189, 206, 207, 1062
2160, 631, 580, 541, 1029
2161, 507, 376, 922, 1203
2162, 817, 1066, 1152, 1237
2163, 566, 572, 565, 997
2164, 999, 1061, 855, 1236
2165, 619, 864, 725, 1236
2166, 982, 1098, 1053, 1193
2167, 311, 293, 1063, 1174
2168, 579, 510, 328, 1211
2169, 183, 1178, 1145, 1215
2170, 221, 209, 206, 1048
2171, 1006, 950, 1188, 1245
2172, 245, 293, 318, 1063
2173, 980, 1112, 1043, 1137
2174, 708, 748, 707, 1140
2175, 567, 592, 427, 1205
2176, 301, 1119, 440, 1144
2177, 555, 1050, 553, 1132
2178, 850, 853, 836, 1006
2179, 1042, 1055, 989, 1218
2180, 768, 1126, 1012, 1225
2181, 851, 1036, 850, 1165
2182, 875, 1036, 851, 1094
2183, 532, 530, 531, 1184
2184, 463, 451, 1133, 1253
2185, 871, 449, 344, 1088
2186, 679, 678, 1120, 1196
2187, 915, 1064, 1023, 1141
2188, 1026, 1056, 289, 1206
2189, 1067, 1103, 375, 1224
2190, 854, 853, 1061, 1088
2191, 226, 186, 1161, 1250
2192, 630, 698, 731, 1020
2193, 727, 739, 1126, 1225
2194, 792, 820, 819, 1066
2195, 1043, 1054, 970, 1117
2196, 217, 1079, 299, 1107
2197, 956, 1013, 1068, 1248
2198, 543, 1032, 570, 1112
2199, 413, 1096, 575, 1106
2200, 840, 867, 740, 1087
2201, 871, 835, 449, 1167
2202, 679, 1120, 680, 1176
2203, 791, 821, 834, 1046
2204, 807, 806, 825, 1023
2205, 350, 1125, 345, 1186
2206, 682, 612, 1011, 1180
2207, 649, 644, 1018, 1201
2208, 721, 671, 654, 1047
2209, 846, 1054, 847, 1085
2210, 1005, 1117, 965, 1189
2211, 689, 688, 1089, 1110
2212, 277, 287, 310, 1206
2213, 1010, 1143, 640, 1173
2214, 180, 880, 331, 1157
2215, 559, 567, 589, 1090
2216, 495, 1123, 502, 1230
2217, 921, 345, 887, 1125
2218, 959, 1165, 1073, 1188
2219, 1002, 1088, 449, 1167
2220, 475, 1041, 504, 1154
2221, 240, 286, 721, 1047
2222, 963, 1012, 1131, 1246
2223, 363, 37, 210, 189
2224, 833, 1066, 817, 1237
2225, 570, 1032, 548, 1137
2226, 864, 839, 161, 1236
2227, 454, 1113, 462, 1132
2228, 249, 253, 254, 1079
2229, 988, 1106, 1096, 1213
2230, 590, 517, 545, 1086
2231, 437, 380, 461, 1017
2232, 1002, 1088, 1115, 1170
2233, 814, 637, 1064, 1204
2234, 398, 332, 399, 1057
2235, 441, 403, 399, 1058
2236, 577, 634, 569, 1138
2237, 956, 1056, 1000, 1123
2238, 1115, 1170, 1088, 1245
2239, 952, 1166, 1148, 1242
2240, 1013, 1156, 1024, 1210
2241, 272, 1012, 298, 1239
2242, 192, 638, 18, 194
2243, 834, 816, 1046, 1251
2244, 1002, 1115, 1088, 1245
2245, 837, 1151, 1024, 1163
2246, 966, 1232, 1056, 1248
2247, 189, 363, 37, 411
2248, 1013, 951, 1068, 1248
2249, 1001, 1197, 1091, 1205
2250, 808, 815, 1178, 1215
2251, 441, 34, 428, 1058
2252, 441, 188, 34, 1058
2253, 194, 638, 18, 673
2254, 744, 1236, 725, 1243
2255, 195, 197, 1042, 1183
2256, 996, 1067, 1003, 1223
2257, 964, 1140, 1114, 1201
2258, 281, 1034, 280, 1105
2259, 284, 282, 285, 1077
2260, 607, 752, 722, 1199
2261, 386, 475, 504, 1154
2262, 177, 1010, 178, 1143
2263, 906, 907, 1150, 1219
2264, 989, 1183, 1039, 1238
2265, 1071, 1130, 659, 1226
2266, 992, 685, 1176, 1250
2267, 777, 1010, 640, 1173
2268, 738, 667, 637, 1204
2269, 961, 1074, 1015, 1242
2270, 316, 259, 256, 1008
2271, 408, 1063, 470, 1076
2272, 311, 293, 292, 1063
2273, 590, 700, 604, 1221
2274, 510, 572, 566, 1211
2275, 34, 214, 428, 1058
2276, 34, 188, 214, 1058
2277, 466, 497, 1007, 1167
2278, 1018, 951, 1151, 1163
2279, 332, 399, 1057, 1220
2280, 183, 1145, 892, 1215
2281, 200, 221, 225, 1099
2282, 959, 1036, 1031, 1094
2283, 441, 1058, 399, 1220
2284, 1038, 1194, 988, 1213
2285, 981, 1016, 1194, 1216
2286, 1012, 1192, 298, 1239
2287, 470, 245, 294, 1076
2288, 633, 756, 1052, 1146
2289, 946, 896, 897, 1072
2290, 519, 413, 575, 1106
2291, 941, 1025, 924, 1181
2292, 866, 837, 859, 1163
2293, 844, 775, 614, 1018
2294, 570, 1112, 1032, 1137
2295, 957, 1127, 1091, 1181
2296, 930, 918, 889, 1130
2297, 187, 212, 332, 1057
2298, 397, 187, 332, 1057
2299, 461, 437, 1017, 1240
2300, 297, 1128, 322, 1193
2301, 854, 835, 853, 1167
2302, 815, 1145, 789, 1178
2303, 651, 768, 1149, 1192
2304, 258, 261, 238, 1011
2305, 1003, 1103, 1067, 1224
2306, 858, 1024, 1142, 1163
2307, 373, 1053, 465, 1210
2308, 412, 415, 419, 1213
2309, 950, 1036, 1031, 1188
2310, 1008, 1076, 958, 1111
2311, 23, 609, 687, 213
2312, 684, 682, 1011, 1190
2313, 338, 1156, 368, 1210
2314, 556, 554, 555, 1050
2315, 249, 217, 190, 1079
2316, 705, 1140, 706, 1235
2317, 375, 1067, 492, 1103
2318, 690, 688, 691, 1139
2319, 240, 1026, 289, 1206
2320, 1027, 1028, 991, 1199
2321, 1032, 1137, 1081, 1241
2322, 1012, 1131, 1003, 1239
2323, 609, 23, 186, 213
2324, 296, 1056, 323, 1232
2325, 751, 1040, 780, 1195
2326, 967, 1017, 1148, 1242
2327, 1145, 1178, 815, 1215
2328, 1046, 984, 1113, 1132
2329, 184, 1145, 183, 1178
2330, 244, 276, 309, 1169
2331, 944, 1104, 1071, 1244
2332, 968, 1119, 1079, 1234
2333, 975, 1093, 1142, 1193
2334, 784, 1149, 782, 1244
2335, 940, 926, 894, 1083
2336, 371, 475, 485, 1041
2337, 957, 1109, 1080, 1181
2338, 466, 497, 405, 1007
2339, 557, 556, 516, 1205
2340, 428, 409, 403, 1058
2341, 435, 1043, 436, 1137
2342, 812, 486, 789, 1145
2343, 964, 1142, 1093, 1193
2344, 947, 1069, 1014, 1171
2345, 1003, 1129, 993, 1131
2346, 1013, 956, 1208, 1230
2347, 265, 322, 1128, 1193
2348, 826, 824, 809, 1141
2349, 680, 725, 744, 1120
2350, 926, 893, 916, 1023
2351, 590, 604, 517, 1086
2352, 521, 218, 191, 1082
2353, 265, 322, 306, 1128
2354, 32, 187, 332, 397
2355, 1053, 1142, 975, 1162
2356, 1212, 1222, 1080, 1228
2357, 824, 823, 799, 1160
2358, 299, 1079, 255, 1107
2359, 583, 601, 546, 1030
2360, 703, 655, 756, 1138
2361, 725, 839, 620, 1236
2362, 212, 32, 187, 332
2363, 963, 1209, 1102, 1225
2364, 458, 448, 1070, 1179
2365, 492, 1067, 374, 1133
2366, 1024, 1151, 951, 1163
2367, 558, 557, 1091, 1197
2368, 851, 850, 1075, 1165
2369, 411, 412, 419, 1062
2370, 986, 1055, 1107, 1254
2371, 682, 683, 1180, 1229
2372, 963, 1131, 1129, 1246
2373, 1004, 1080, 1222, 1228
2374, 316, 1144, 1008, 1234
2375, 36, 205, 189, 1062
2376, 957, 1091, 1025, 1181
2377, 471, 435, 436, 1137
2378, 1034, 1105, 956, 1230
2379, 818, 791, 145, 551
2380, 541, 542, 540, 1029
2381, 369, 388, 368, 1013
2382, 621, 635, 626, 1172
2383, 525, 218, 521, 1082
2384, 633, 655, 781, 1052
2385, 376, 894, 922, 1203
2386, 36, 189, 411, 1062
2387, 816, 1113, 1046, 1251
2388, 897, 946, 1126, 1246
2389, 944, 909, 1104, 1244
2390, 880, 1049, 340, 1157
2391, 743, 716, 314, 1180
2392, 1025, 1109, 957, 1181
2393, 251, 716, 1107, 1180
2394, 906, 1150, 1078, 1219
2395, 285, 1020, 306, 1128
2396, 768, 1126, 650, 1149
2397, 178, 1074, 837, 1151
2398, 870, 856, 855, 1108
2399, 629, 571, 141, 736
2400, 952, 1148, 1015, 1242
2401, 570, 597, 538, 1112
2402, 393, 939, 184, 1145
2403, 939, 393, 444, 1095
2404, 546, 1030, 601, 1202
2405, 617, 1028, 616, 1199
2406, 428, 409, 1058, 1227
2407, 986, 1107, 1079, 1254
2408, 463, 1133, 392, 1253
2409, 76, 792, 819, 266
2410, 803, 482, 790, 1083
2411, 401, 406, 407, 1111
2412, 217, 249, 299, 1079
2413, 945, 890, 929, 1122
2414, 701, 702, 634, 1086
2415, 897, 1019, 898, 1129
2416, 644, 614, 649, 1018
2417, 281, 295, 296, 1105
2418, 238, 1011, 612, 1180
2419, 644, 731, 664, 1044
2420, 36, 333, 205, 1062
2421, 336, 470, 294, 1076
2422, 1067, 1103, 1003, 1133
2423, 961, 1013, 1068, 1208
2424, 188, 224, 225, 1220
2425, 965, 1136, 1005, 1189
2426, 578, 436, 433, 1043
2427, 278, 289, 1056, 1206
2428, 866, 178, 837, 1151
2429, 857, 868, 858, 1024
2430, 505, 379, 357, 1025
2431, 839, 620, 1236, 1243
2432, 848, 847, 846, 1054
2433, 1004, 1040, 962, 1228
2434, 574, 1046, 816, 1113
2435, 1036, 1188, 950, 1245
2436, 1021, 1148, 387, 1214
2437, 445, 395, 244, 1224
2438, 411, 333, 36, 1062
2439, 1012, 963, 1131, 1225
2440, 808, 807, 809, 1141
2441, 617, 616, 607, 1199
2442, 1061, 1088, 853, 1245
2443, 773, 1158, 624, 1168
2444, 876, 1142, 1053, 1162
2445, 397, 1057, 439, 1252
2446, 738, 1092, 730, 1147
2447, 930, 909, 903, 1104
2448, 323, 278, 289, 1056
2449, 396, 592, 460, 1205
2450, 391, 894, 376, 1203
2451, 298, 272, 317, 1012
2452, 908, 911, 912, 1080
2453, 328, 566, 425, 1211
2454, 894, 943, 922, 1203
2455, 188, 225, 1058, 1220
2456, 1056, 1232, 956, 1248
2457, 512, 529, 584, 1089
2458, 554, 1050, 556, 1197
2459, 481, 785, 795, 1095
2460, 996, 1065, 1045, 1104
2461, 316, 1008, 256, 1234
2462, 243, 281, 280, 1105
2463, 676, 1035, 742, 1196
2464, 475, 390, 504, 1041
2465, 446, 1015, 476, 1157
2466, 919, 1052, 912, 1146
2467, 543, 548, 570, 1032
2468, 529, 1016, 528, 1216
2469, 424, 355, 96, 1241
2470, 221, 1062, 205, 1227
2471, 328, 424, 579, 1241
2472, 883, 864, 1168, 1236
2473, 658, 635, 621, 1172
2474, 460, 592, 516, 1205
2475, 262, 1059, 1174, 1235
2476, 686, 1139, 695, 1176
2477, 703, 569, 634, 1138
2478, 721, 618, 240, 1047
2479, 901, 900, 1067, 1223
2480, 604, 701, 517, 1086
2481, 297, 291, 290, 1098
2482, 563, 1127, 561, 1191
2483, 593, 355, 1137, 1241
2484, 731, 748, 1020, 1201
2485, 435, 434, 1043, 1134
2486, 542, 1029, 580, 1221
2487, 219, 1079, 233, 1254
2488, 640, 777, 722, 1010
2489, 369, 388, 1013, 1230
2490, 770, 755, 662, 1217
2491, 479, 1109, 494, 1154
2492, 878, 879, 856, 1153
2493, 343, 835, 497, 1167
2494, 510, 1202, 572, 1211
2495, 590, 518, 700, 1221
2496, 1055, 1218, 986, 1229
2497, 506, 932, 374, 1067
2498, 914, 182, 181, 1233
2499, 470, 367, 245, 1063
2500, 568, 520, 709, 131
2501, 1065, 1104, 996, 1164
2502, 221, 206, 205, 1062
2503, 910, 906, 934, 1078
2504, 461, 1208, 339, 1240
2505, 822, 1072, 1160, 1207
2506, 994, 960, 1122, 1147
2507, 1082, 1096, 988, 1106
2508, 974, 1138, 1052, 1222
2509, 691, 1031, 692, 1247
2510, 881, 866, 1018, 1143
2511, 240, 310, 286, 1047
2512, 300, 817, 77, 792
2513, 691, 1139, 1031, 1247
2514, 1082, 1194, 972, 1216
2515, 977, 1078, 1101, 1228
2516, 856, 854, 855, 1108
2517, 199, 1099, 198, 1183
2518, 356, 885, 506, 1067
2519, 816, 574, 146, 791
2520, 1042, 1055, 1218, 1254
2521, 203, 253, 15, 190
2522, 516, 555, 585, 1132
2523, 997, 1202, 971, 1211
2524, 813, 1113, 805, 1251
2525, 412, 413, 414, 1213
2526, 355, 593, 96, 1241
2527, 1070, 1165, 1006, 1188
2528, 482, 1083, 803, 1178
2529, 435, 372, 464, 1134
2530, 262, 1174, 1093, 1235
2531, 932, 506, 885, 1067
2532, 292, 245, 367, 1063
2533, 727, 1126, 768, 1225
2534, 1091, 1127, 974, 1181
2535, 400, 405, 401, 1033
2536, 510, 566, 328, 1211
2537, 852, 853, 850, 1245
2538, 530, 528, 529, 1016
2539, 787, 822, 802, 1072
2540, 305, 289, 288, 1026
2541, 250, 298, 317, 1012
2542, 588, 539, 535, 1117
2543, 974, 1091, 1135, 1197
2544, 822, 1160, 823, 1207
2545, 957, 997, 1191, 1212
2546, 552, 576, 1092, 1147
2547, 222, 186, 226, 1250
2548, 866, 859, 844, 1018
2549, 959, 1031, 1036, 1188
2550, 955, 1045, 1065, 1104
2551, 465, 346, 842, 1053
2552, 797, 796, 785, 1095
2553, 825, 814, 786, 1064
2554, 283, 296, 323, 1232
2555, 725, 1236, 620, 1243
2556, 523, 1089, 527, 1110
2557, 999, 1108, 983, 1168
2558, 564, 581, 1175, 1197
2559, 583, 545, 517, 1086
2560, 612, 684, 682, 1011
2561, 1005, 1075, 959, 1177
2562, 838, 1158, 870, 1168
2563, 540, 538, 539, 1112
2564, 455, 388, 422, 1159
2565, 941, 924, 911, 1181
2566, 732, 631, 1029, 1221
2567, 668, 720, 927, 1072
2568, 868, 882, 338, 1156
2569, 439, 397, 398, 1057
2570, 996, 1164, 1104, 1223
2571, 463, 451, 392, 1133
2572, 278, 323, 296, 1056
2573, 866, 859, 1018, 1163
2574, 1008, 1111, 958, 1185
2575, 968, 1057, 1042, 1252
2576, 926, 1083, 940, 1178
2577, 795, 1095, 1237, 1253
2578, 666, 751, 780, 1195
2579, 427, 379, 478, 1090
2580, 602, 1138, 509, 1175
2581, 860, 1142, 876, 1153
2582, 834, 805, 816, 1251
2583, 439, 1119, 362, 1252
2584, 889, 918, 942, 1130
2585, 825, 1141, 1064, 1233
2586, 1002, 1088, 1061, 1245
2587, 192, 194, 202, 1055
2588, 623, 840, 740, 1136
2589, 905, 930, 903, 1022
2590, 1052, 1181, 974, 1222
2591, 698, 304, 47, 303
2592, 700, 580, 631, 1221
2593, 457, 1084, 484, 1162
2594, 977, 1080, 1078, 1228
2595, 610, 752, 177, 1143
2596, 621, 606, 942, 1172
2597, 698, 47, 304, 630
2598, 241, 266, 267, 1066
2599, 208, 226, 231, 1161
2600, 65, 243, 279, 1159
2601, 248, 301, 440, 1144
2602, 1015, 1156, 961, 1240
2603, 529, 1089, 1016, 1216
2604, 319, 298, 1192, 1239
2605, 317, 250, 1012, 1225
2606, 896, 946, 927, 1072
2607, 459, 352, 315, 1103
2608, 793, 811, 1152, 1253
2609, 863, 840, 159, 759
2610, 711, 740, 1087, 1136
2611, 613, 655, 755, 1052
2612, 655, 633, 756, 1052
2613, 984, 1083, 1023, 1251
2614, 693, 734, 642, 1177
2615, 870, 883, 864, 1168
2616, 467, 248, 440, 1144
2617, 562, 561, 563, 1127
2618, 1006, 853, 1088, 1245
2619, 633, 781, 919, 1052
2620, 510, 603, 572, 1202
2621, 742, 725, 678, 1120
2622, 216, 573, 27, 191
2623, 288, 289, 240, 1026
2624, 952, 1101, 1021, 1166
2625, 241, 300, 77, 792
2626, 630, 731, 748, 1020
2627, 515, 146, 574, 791
2628, 431, 346, 1053, 1162
2629, 456, 1137, 355, 1241
2630, 649, 731, 644, 1201
2631, 1043, 1054, 980, 1134
2632, 753, 660, 1026, 1226
2633, 1015, 1148, 952, 1214
2634, 912, 891, 933, 1052
2635, 925, 898, 892, 1019
2636, 510, 603, 1202, 1211
2637, 963, 1126, 1012, 1246
2638, 972, 1016, 1089, 1216
2639, 938, 913, 924, 1135
2640, 811, 1237, 1152, 1253
2641, 866, 1018, 1143, 1151
2642, 534, 1073, 532, 1184
2643, 799, 798, 797, 1160
2644, 501, 1148, 1015, 1214
2645, 558, 556, 557, 1197
2646, 750, 591, 611, 1097
2647, 199, 200, 1099, 1198
2648, 433, 93, 578, 511
2649, 553, 1046, 574, 1113
2650, 502, 1123, 1105, 1230
2651, 456, 370, 372, 1081
2652, 319, 272, 298, 1239
2653, 225, 214, 1058, 1227
2654, 347, 872, 483, 1179
2655, 709, 642, 568, 131
2656, 278, 1065, 277, 1206
2657, 1082, 1106, 988, 1216
2658, 212, 223, 224, 1220
2659, 869, 1084, 879, 1162
2660, 915, 1023, 893, 1141
2661, 1012, 969, 1239, 1246
2662, 816, 805, 1113, 1251
2663, 212, 1057, 223, 1220
2664, 258, 238, 257, 1180
2665, 732, 1029, 1100, 1221
2666, 784, 651, 1149, 1192
2667, 946, 931, 888, 1126
2668, 1082, 988, 1194, 1216
2669, 973, 1127, 1191, 1212
2670, 225, 221, 214, 1227
2671, 774, 1094, 694, 1243
2672, 839, 864, 883, 1236
2673, 543, 547, 548, 1032
2674, 182, 1160, 896, 1207
2675, 679, 675, 678, 1196
2676, 353, 585, 104, 1132
2677, 513, 578, 597, 1043
2678, 920, 337, 505, 1109
2679, 405, 406, 401, 1111
2680, 426, 358, 478, 1090
2681, 858, 837, 1024, 1163
2682, 682, 683, 612, 1180
2683, 555, 554, 553, 1050
2684, 321, 296, 247, 1123
2685, 1023, 1187, 984, 1251
2686, 897, 892, 898, 1019
2687, 414, 335, 416, 1231
2688, 526, 1106, 1082, 1216
2689, 882, 857, 180, 1156
2690, 691, 694, 692, 1031
2691, 384, 447, 381, 1051
2692, 872, 108, 483, 1179
2693, 443, 894, 391, 1083
2694, 976, 1143, 1010, 1173
2695, 492, 451, 1103, 1133
2696, 953, 1100, 1029, 1116
2697, 226, 208, 209, 1048
2698, 248, 254, 301, 1144
2699, 1006, 1188, 1036, 1245
2700, 314, 238, 743, 1180
2701, 267, 1102, 302, 1225
2702, 345, 120, 921, 887
2703, 372, 340, 500, 1049
2704, 479, 426, 478, 1154
2705, 910, 908, 906, 1078
2706, 422, 1105, 243, 1159
2707, 931, 1126, 946, 1246
2708, 372, 370, 340, 1049
2709, 725, 864, 161, 1236
2710, 601, 563, 565, 1191
2711, 268, 1066, 267, 1131
2712, 628, 54, 298, 735
2713, 418, 410, 415, 1038
2714, 183, 925, 892, 1145
2715, 1015, 1148, 501, 1240
2716, 604, 700, 779, 1221
2717, 782, 784, 651, 1149
2718, 284, 285, 306, 1128
2719, 803, 482, 85, 790
2720, 373, 431, 465, 1053
2721, 597, 570, 513, 1137
2722, 838, 624, 1158, 1168
2723, 955, 1071, 1047, 1226
2724, 968, 1008, 1144, 1234
2725, 562, 560, 1127, 1138
2726, 458, 483, 448, 1179
2727, 635, 663, 713, 1060
2728, 846, 845, 884, 1087
2729, 290, 246, 63, 1098
2730, 527, 521, 573, 1082
2731, 796, 1095, 1019, 1237
2732, 542, 1116, 1029, 1221
2733, 817, 1152, 811, 1237
2734, 654, 641, 1071, 1244
2735, 715, 673, 638, 1055
2736, 438, 995, 351, 1186
2737, 795, 481, 81, 785
2738, 387, 485, 385, 1021
2739, 244, 309, 445, 1169
2740, 825, 826, 1141, 1233
2741, 1008, 1076, 1111, 1144
2742, 969, 1104, 1164, 1223
2743, 338, 373, 499, 1210
2744, 738, 728, 667, 1122
2745, 879, 1153, 876, 1162
2746, 875, 1236, 1009, 1243
2747, 93, 433, 366, 511
2748, 610, 881, 614, 1143
2749, 361, 790, 482, 1083
2750, 514, 99, 425, 358
2751, 553, 1113, 524, 1132
2752, 796, 1019, 800, 1237
2753, 881, 866, 844, 1018
2754, 705, 44, 308, 1235
2755, 242, 459, 1103, 1224
2756, 782, 1149, 923, 1244
2757, 723, 645, 664, 1044
2758, 961, 1015, 1240, 1242
2759, 180, 865, 880, 1157
2760, 895, 939, 444, 1095
2761, 251, 314, 716, 1180
2762, 873, 838, 760, 1158
2763, 657, 1014, 659, 1130
2764, 974, 1135, 1091, 1181
2765, 795, 1237, 811, 1253
2766, 689, 639, 688, 1110
2767, 264, 265, 1093, 1193
2768, 1114, 1163, 964, 1201
2769, 65, 422, 243, 1159
2770, 589, 1090, 514, 1191
2771, 420, 86, 790, 813
2772, 966, 1171, 1044, 1248
2773, 627, 657, 659, 1130
2774, 261, 1059, 262, 1235
2775, 769, 1122, 728, 1147
2776, 602, 569, 509, 1138
2777, 84, 482, 803, 1178
2778, 517, 594, 583, 1086
2779, 1070, 1073, 970, 1165
2780, 744, 725, 620, 1243
2781, 447, 1208, 1051, 1230
2782, 872, 1134, 849, 1179
2783, 485, 1021, 387, 1214
2784, 1010, 1060, 1037, 1173
2785, 459, 315, 242, 1103
2786, 840, 884, 867, 1087
2787, 340, 880, 843, 1049
2788, 851, 852, 850, 1036
2789, 730, 1092, 576, 1147
2790, 458, 1070, 417, 1200
2791, 238, 743, 41, 314
2792, 499, 338, 868, 882
2793, 249, 217, 14, 190
2794, 855, 1061, 875, 1236
2795, 440, 439, 407, 1144
2796, 475, 371, 390, 1041
2797, 923, 931, 944, 1244
2798, 563, 601, 583, 1030
2799, 730, 522, 629, 1147
2800, 932, 374, 1067, 1133
2801, 396, 427, 101, 592
2802, 360, 481, 795, 1095
2803, 934, 906, 904, 1150
2804, 888, 174, 782, 1149
2805, 1012, 1149, 969, 1246
2806, 44, 705, 643, 1235
2807, 236, 49, 605, 288
2808, 430, 431, 429, 1098
2809, 461, 369, 339, 1208
2810, 282, 1077, 1034, 1232
2811, 135, 590, 700, 604
2812, 849, 847, 1054, 1134
2813, 833, 817, 811, 1237
2814, 305, 236, 307, 1155
2815, 931, 1223, 1149, 1246
2816, 785, 481, 82, 393
2817, 562, 602, 560, 1138
2818, 725, 161, 839, 1236
2819, 303, 1077, 307, 1155
2820, 814, 1064, 825, 1204
2821, 496, 461, 1017, 1208
2822, 981, 1194, 1106, 1216
2823, 624, 773, 726, 1158
2824, 566, 99, 425, 514
2825, 632, 784, 782, 1244
2826, 454, 462, 452, 1132
2827, 438, 330, 921, 1186
2828, 911, 924, 913, 1181
2829, 891, 919, 781, 1052
2830, 790, 804, 1083, 1251
2831, 294, 470, 60, 245
2832, 923, 1149, 931, 1244
2833, 804, 806, 1023, 1251
2834, 679, 680, 685, 1176
2835, 431, 430, 346, 1162
2836, 502, 1105, 388, 1230
2837, 290, 63, 432, 1098
2838, 929, 919, 912, 1146
2839, 711, 648, 747, 1087
2840, 512, 611, 591, 1097
2841, 364, 476, 446, 1015
2842, 1149, 1192, 969, 1244
2843, 994, 1135, 1050, 1197
2844, 393, 184, 486, 1145
2845, 258, 260, 261, 1059
2846, 195, 1042, 201, 1254
2847, 921, 887, 934, 1125
2848, 280, 281, 282, 1034
2849, 785, 812, 797, 1145
2850, 427, 567, 101, 592
2851, 931, 888, 1126, 1149
2852, 789, 815, 812, 1145
2853, 1223, 1239, 969, 1246
2854, 875, 1094, 863, 1243
2855, 1050, 1135, 1001, 1197
2856, 1023, 1083, 804, 1251
2857, 392, 895, 444, 1095
2858, 338, 339, 368, 1156
2859, 923, 782, 174, 1149
2860, 951, 1034, 1077, 1248
2861, 632, 782, 923, 1244
2862, 560, 1091, 559, 1127
2863, 479, 494, 386, 1154
2864, 798, 800, 796, 1019
2865, 309, 342, 445, 1169
2866, 521, 28, 191, 218
2867, 705, 706, 643, 1235
2868, 329, 247, 295, 1123
2869, 676, 681, 742, 1035
2870, 579, 547, 603, 1241
2871, 545, 518, 590, 1221
2872, 613, 781, 655, 1052
2873, 44, 237, 308, 1235
2874, 496, 461, 380, 1017
2875, 672, 140, 509, 1175
2876, 619, 864, 161, 725
2877, 375, 374, 492, 1067
2878, 969, 1223, 1164, 1239
2879, 329, 423, 247, 1123
2880, 646, 616, 617, 1028
2881, 689, 745, 584, 1089
2882, 1012, 1003, 1131, 1246
2883, 331, 880, 340, 1157
2884, 465, 842, 868, 1053
2885, 64, 279, 290, 354
2886, 780, 702, 749, 1086
2887, 793, 795, 811, 1253
2888, 1070, 1073, 981, 1231
2889, 791, 515, 145, 551
2890, 792, 76, 241, 266
2891, 128, 745, 512, 584
2892, 968, 1144, 1119, 1234
2893, 1006, 1165, 1070, 1179
2894, 444, 393, 481, 1095
2895, 686, 695, 685, 1176
2896, 14, 299, 217, 249
2897, 840, 884, 1087, 1136
2898, 985, 1115, 1170, 1249
2899, 759, 724, 625, 1094
2900, 1026, 1206, 1047, 1226
2901, 740, 867, 840, 158
2902, 44, 643, 237, 1235
2903, 974, 1181, 1127, 1222
2904, 80, 360, 795, 1253
2905, 360, 392, 1095, 1253
2906, 590, 700, 518, 135
2907, 887, 910, 934, 1125
2908, 993, 1152, 1066, 1237
2909, 957, 1127, 1181, 1222
2910, 1016, 972, 1194, 1216
2911, 843, 500, 340, 1049
2912, 1016, 1188, 981, 1194
2913, 141, 522, 571, 629
2914, 1001, 1091, 1025, 1205
2915, 1046, 1113, 984, 1251
2916, 522, 730, 576, 1147
2917, 593, 579, 96, 1241
2918, 747, 732, 631, 1029
2919, 883, 855, 875, 1236
2920, 281, 282, 1034, 1232
2921, 822, 1072, 787, 1209
2922, 1127, 1138, 974, 1222
2923, 335, 90, 550, 469
2924, 952, 1148, 1021, 1214
2925, 863, 875, 851, 1094
2926, 60, 336, 470, 294
2927, 171, 621, 942, 1172
2928, 454, 353, 104, 1132
2929, 919, 890, 783, 1146
2930, 486, 184, 394, 1178
2931, 959, 1005, 1177, 1184
2932, 42, 746, 612, 312
2933, 249, 15, 253, 190
2934, 708, 308, 239, 1140
2935, 751, 661, 662, 1040
2936, 634, 754, 703, 1138
2937, 754, 655, 703, 1138
2938, 1080, 1219, 1078, 1228
2939, 1001, 1135, 1091, 1197
2940, 816, 791, 834, 1046
2941, 304, 306, 285, 1020
2942, 633, 1052, 919, 1146
2943, 732, 1100, 665, 1221
2944, 369, 1013, 1208, 1230
2945, 703, 509, 139, 569
2946, 610, 614, 615, 1143
2947, 914, 937, 1064, 1233
2948, 736, 672, 653, 1175
2949, 1002, 1170, 1115, 1249
2950, 1017, 1208, 461, 1240
2951, 1000, 1065, 1045, 1169
2952, 760, 163, 838, 873
2953, 218, 521, 28, 525
2954, 869, 111, 497, 348
2955, 300, 268, 252, 1152
2956, 400, 401, 398, 1033
2957, 738, 696, 1092, 1204
2958, 346, 842, 1053, 1162
2959, 276, 277, 278, 1065
2960, 802, 1072, 822, 1207
2961, 844, 614, 775, 881
2962, 201, 195, 197, 1042
2963, 340, 500, 843, 880
2964, 759, 724, 1094, 1177
2965, 1034, 1105, 281, 1232
2966, 1106, 1194, 988, 1216
2967, 180, 476, 8, 334
2968, 533, 534, 532, 1184
2969, 804, 806, 807, 1023
2970, 142, 730, 522, 629
2971, 780, 1040, 662, 1217
2972, 865, 1049, 880, 1157
2973, 98, 425, 328, 566
2974, 371, 370, 389, 1081
2975, 529, 527, 1089, 1216
2976, 508, 1067, 375, 1224
2977, 825, 1064, 786, 1233
2978, 868, 857, 882, 1156
2979, 443, 940, 894, 1083
2980, 921, 330, 120, 345
2981, 292, 293, 245, 1063
2982, 1051, 1208, 956, 1230
2983, 246, 429, 63, 1098
2984, 714, 1071, 889, 1130
2985, 613, 891, 781, 1052
2986, 1030, 1191, 997, 1212
2987, 616, 648, 776, 1087
2988, 780, 702, 1086, 1217
2989, 297, 322, 291, 1193
2990, 1032, 1112, 980, 1137
2991, 914, 1064, 915, 1141
2992, 745, 127, 689, 584
2993, 961, 1208, 1017, 1240
2994, 547, 546, 603, 1202
2995, 931, 1149, 1126, 1246
2996, 540, 543, 570, 1112
2997, 852, 1061, 853, 1245
2998, 634, 138, 577, 569
2999, 743, 716, 40, 314
3000, 232, 223, 187, 1252
3001, 746, 643, 684, 1190
3002, 867, 884, 845, 1087
3003, 611, 750, 129, 591
3004, 65, 279, 354, 1159
3005, 50, 240, 618, 288
3006, 790, 805, 804, 1251
3007, 317, 267, 250, 1225
3008, 978, 1182, 1124, 1249
3009, 676, 675, 674, 1196
3010, 836, 871, 109, 498
3011, 331, 476, 8, 180
3012, 812, 785, 82, 393
3013, 282, 307, 1077, 1232
3014, 250, 54, 298, 628
3015, 774, 863, 625, 1094
3016, 780, 751, 662, 1040
3017, 1012, 1126, 963, 1225
3018, 790, 361, 86, 420
3019, 359, 387, 385, 1021
3020, 788, 823, 824, 1207
3021, 525, 521, 526, 1082
3022, 838, 878, 870, 1158
3023, 424, 96, 579, 1241
3024, 699, 605, 49, 288
3025, 524, 104, 585, 1132
3026, 509, 140, 571, 1175
3027, 808, 809, 815, 1215
3028, 1002, 1124, 1182, 1249
3029, 1129, 1131, 1003, 1246
3030, 962, 1101, 1078, 1228
3031, 709, 710, 711, 1189
3032, 623, 710, 759, 1136
3033, 1003, 1239, 1223, 1246
3034, 437, 501, 387, 1148
3035, 268, 300, 241, 1066
3036, 406, 408, 336, 1076
3037, 973, 1138, 1127, 1222
3038, 308, 1140, 705, 1235
3039, 510, 98, 328, 566
3040, 440, 362, 439, 1119
3041, 872, 836, 108, 1179
3042, 361, 85, 482, 790
3043, 986, 1011, 1180, 1229
3044, 1018, 976, 1143, 1151
3045, 659, 641, 1071, 1226
3046, 255, 1079, 254, 1234
3047, 264, 291, 265, 1193
3048, 526, 575, 1096, 1106
3049, 620, 725, 161, 839
3050, 310, 240, 289, 1206
3051, 1148, 1240, 1015, 1242
3052, 697, 739, 1102, 1209
3053, 651, 768, 650, 1149
3054, 285, 307, 303, 1077
3055, 343, 449, 835, 1167
3056, 190, 233, 219, 1079
3057, 430, 367, 457, 1063
3058, 681, 1035, 677, 1229
3059, 118, 886, 920, 505
3060, 598, 818, 551, 1092
3061, 838, 773, 624, 1168
3062, 268, 269, 270, 1131
3063, 952, 1037, 1166, 1242
3064, 211, 1039, 704, 1250
3065, 375, 508, 506, 1067
3066, 900, 885, 901, 1067
3067, 699, 753, 660, 1026
3068, 81, 360, 481, 795
3069, 797, 1145, 815, 1215
3070, 658, 621, 767, 1172
3071, 202, 1055, 195, 1254
3072, 519, 550, 90, 469
3073, 883, 839, 1236, 1243
3074, 387, 1148, 501, 1214
3075, 873, 861, 838, 1158
3076, 729, 1102, 739, 1225
3077, 548, 579, 593, 1241
3078, 45, 239, 708, 308
3079, 864, 619, 162, 1168
3080, 700, 518, 580, 1221
3081, 812, 393, 486, 1145
3082, 416, 417, 1070, 1231
3083, 202, 194, 195, 1055
3084, 94, 578, 513, 436
3085, 803, 789, 84, 1178
3086, 80, 421, 360, 1253
3087, 745, 1089, 690, 1247
3088, 773, 742, 681, 1168
3089, 379, 505, 337, 1109
3090, 51, 240, 286, 721
3091, 888, 923, 174, 1149
3092, 497, 348, 450, 1084
3093, 138, 634, 703, 569
3094, 797, 815, 799, 1215
3095, 432, 63, 429, 1098
3096, 460, 396, 102, 592
3097, 707, 706, 705, 1140
3098, 273, 319, 1164, 1239
3099, 802, 757, 150, 787
3100, 1059, 1190, 979, 1235
3101, 312, 612, 42, 238
3102, 422, 388, 502, 1105
3103, 191, 573, 27, 521
3104, 656, 772, 657, 1069
3105, 699, 50, 618, 288
3106, 364, 1015, 501, 1240
3107, 501, 1148, 437, 1240
3108, 1009, 1115, 1061, 1245
3109, 833, 792, 817, 1066
3110, 598, 827, 818, 1092
3111, 139, 672, 509, 703
3112, 879, 869, 862, 1084
3113, 816, 805, 813, 1113
3114, 717, 1039, 204, 1238
3115, 516, 460, 102, 592
3116, 889, 942, 714, 1130
3117, 207, 218, 210, 1096
3118, 973, 1127, 1212, 1222
3119, 1045, 1065, 996, 1169
3120, 741, 1114, 707, 1201
3121, 743, 238, 612, 1180
3122, 715, 638, 716, 1107
3123, 363, 413, 412, 1096
3124, 413, 519, 89, 469
3125, 577, 137, 634, 701
3126, 869, 497, 111, 835
3127, 670, 937, 181, 1233
3128, 565, 589, 514, 1191
3129, 957, 1212, 1127, 1222
3130, 549, 536, 550, 1231
3131, 673, 715, 674, 1055
3132, 732, 700, 631, 1221
3133, 659, 1014, 660, 1226
3134, 542, 544, 1116, 1221
3135, 67, 329, 423, 247
3136, 668, 636, 720, 1072
3137, 552, 587, 522, 1147
3138, 448, 483, 349, 1179
3139, 213, 193, 231, 1161
3140, 969, 1149, 1012, 1192
3141, 737, 1069, 656, 1173
3142, 226, 209, 222, 1198
3143, 65, 354, 422, 1159
3144, 1073, 1200, 536, 1231
3145, 449, 871, 110, 835
3146, 217, 192, 202, 1107
3147, 181, 182, 896, 1207
3148, 233, 190, 217, 1079
3149, 774, 863, 1094, 1243
3150, 692, 1097, 611, 1247
3151, 714, 659, 1071, 1130
3152, 336, 467, 407, 1144
3153, 794, 821, 1092, 1204
3154, 515, 553, 552, 1046
3155, 234, 191, 218, 1082
3156, 128, 745, 611, 512
3157, 137, 577, 517, 701
3158, 200, 198, 199, 1099
3159, 526, 1082, 527, 1216
3160, 941, 910, 920, 1109
3161, 512, 611, 129, 591
3162, 653, 756, 1146, 1175
3163, 539, 538, 535, 1117
3164, 171, 942, 917, 1172
3165, 331, 446, 476, 1157
3166, 1002, 1061, 1115, 1245
3167, 625, 863, 159, 759
3168, 665, 666, 779, 1195
3169, 84, 394, 482, 1178
3170, 543, 544, 547, 1116
3171, 432, 64, 290, 354
3172, 434, 433, 435, 1043
3173, 171, 917, 621, 1172
3174, 154, 786, 814, 758
3175, 898, 900, 1129, 1133
3176, 522, 576, 730, 142
3177, 665, 646, 647, 1100
3178, 1078, 1101, 962, 1166
3179, 988, 1194, 1106, 1213
3180, 981, 1106, 1194, 1213
3181, 668, 727, 739, 1126
3182, 886, 924, 941, 1025
3183, 936, 927, 720, 1072
3184, 67, 329, 247, 295
3185, 861, 859, 860, 1142
3186, 431, 346, 465, 1053
3187, 552, 522, 576, 1147
3188, 711, 747, 712, 1189
3189, 1047, 1206, 955, 1226
3190, 246, 291, 311, 1098
3191, 537, 535, 538, 1117
3192, 711, 623, 740, 1136
3193, 392, 374, 932, 1133
3194, 415, 410, 419, 1038
3195, 364, 339, 1156, 1240
3196, 382, 345, 359, 1125
3197, 915, 916, 893, 1023
3198, 820, 801, 1102, 1209
3199, 192, 766, 638, 1107
3200, 567, 427, 100, 1090
3201, 336, 59, 467, 294
3202, 611, 745, 690, 1247
3203, 41, 612, 743, 238
3204, 97, 328, 579, 510
3205, 911, 908, 910, 1080
3206, 869, 879, 876, 1162
3207, 940, 394, 184, 1178
3208, 618, 753, 699, 1026
3209, 610, 177, 881, 1143
3210, 604, 749, 701, 1086
3211, 719, 1064, 937, 1233
3212, 506, 374, 375, 1067
3213, 1029, 1116, 1100, 1221
3214, 990, 1100, 1116, 1221
3215, 1149, 1223, 969, 1246
3216, 260, 262, 1059, 1174
3217, 664, 698, 778, 1155
3218, 31, 397, 362, 1252
3219, 684, 726, 682, 1190
3220, 721, 286, 52, 235
3221, 344, 871, 110, 449
3222, 854, 856, 862, 1108
3223, 294, 316, 248, 1144
3224, 647, 761, 751, 1195
3225, 906, 1078, 908, 1219
3226, 459, 72, 315, 352
3227, 310, 287, 286, 1047
3228, 969, 1192, 1012, 1239
3229, 316, 254, 1144, 1234
3230, 1055, 986, 1218, 1254
3231, 363, 210, 489, 1096
3232, 926, 184, 183, 1178
3233, 159, 840, 623, 759
3234, 384, 477, 423, 1123
3235, 1003, 1012, 1239, 1246
3236, 484, 348, 869, 1084
3237, 913, 938, 929, 1135
3238, 31, 187, 397, 1252
3239, 491, 119, 887, 920
3240, 46, 239, 304, 630
3241, 726, 733, 1158, 1190
3242, 1077, 1232, 966, 1248
3243, 524, 454, 104, 1132
3244, 480, 357, 379, 1025
3245, 576, 764, 598, 1092
3246, 915, 916, 1023, 1187
3247, 246, 292, 62, 429
3248, 454, 600, 488, 1113
3249, 364, 339, 334, 1156
3250, 696, 827, 764, 1092
3251, 282, 283, 307, 1232
3252, 940, 1083, 443, 1178
3253, 384, 381, 383, 1051
3254, 242, 71, 459, 1224
3255, 851, 875, 852, 1036
3256, 204, 211, 199, 1039
3257, 670, 181, 762, 1233
3258, 1037, 1069, 976, 1173
3259, 962, 1219, 1004, 1228
3260, 657, 660, 659, 1014
3261, 650, 888, 782, 1149
3262, 842, 346, 112, 1162
3263, 584, 523, 689, 1089
3264, 730, 764, 576, 1092
3265, 956, 1105, 1034, 1232
3266, 134, 631, 700, 580
3267, 875, 855, 852, 1061
3268, 108, 836, 483, 1179
3269, 823, 802, 822, 1207
3270, 705, 308, 708, 1140
3271, 299, 255, 251, 1107
3272, 436, 435, 433, 1043
3273, 440, 467, 58, 248
3274, 392, 932, 895, 1133
3275, 679, 704, 717, 1039
3276, 59, 467, 294, 248
3277, 773, 162, 619, 1168
3278, 630, 46, 239, 708
3279, 640, 752, 610, 1143
3280, 302, 729, 55, 1225
3281, 177, 610, 11, 752
3282, 223, 1057, 187, 1252
3283, 720, 1072, 757, 1207
3284, 196, 197, 195, 1183
3285, 793, 811, 817, 1152
3286, 326, 251, 766, 1107
3287, 470, 336, 408, 1076
3288, 810, 824, 826, 1233
3289, 536, 1073, 534, 1200
3290, 914, 1064, 1141, 1233
3291, 192, 229, 766, 1107
3292, 484, 1084, 869, 1162
3293, 383, 351, 438, 995
3294, 453, 487, 327, 1152
3295, 713, 1060, 777, 1173
3296, 279, 243, 280, 1159
3297, 579, 548, 547, 1241
3298, 567, 100, 514, 1090
3299, 215, 1119, 219, 1252
3300, 523, 527, 573, 1110
3301, 328, 424, 97, 579
3302, 518, 545, 544, 1221
3303, 970, 1073, 1070, 1200
3304, 877, 616, 776, 867
3305, 112, 869, 842, 1162
3306, 178, 179, 837, 1074
3307, 750, 568, 130, 591
3308, 524, 553, 574, 1113
3309, 893, 182, 1141, 1215
3310, 364, 446, 501, 1015
3311, 241, 267, 268, 1066
3312, 665, 1100, 647, 1195
3313, 229, 299, 326, 1107
3314, 696, 730, 738, 1092
3315, 240, 51, 618, 721
3316, 280, 297, 279, 1159
3317, 752, 11, 177, 607
3318, 937, 928, 914, 1064
3319, 177, 178, 866, 1143
3320, 197, 223, 201, 1042
3321, 611, 692, 693, 1097
3322, 1078, 1150, 967, 1166
3323, 301, 254, 253, 1119
3324, 936, 1072, 720, 1207
3325, 1014, 659, 1130, 1226
3326, 761, 722, 663, 1199
3327, 358, 100, 427, 1090
3328, 564, 581, 571, 1175
3329, 628, 55, 729, 1225
3330, 643, 733, 684, 1190
3331, 765, 227, 639, 1110
3332, 667, 928, 719, 1064
3333, 313, 274, 244, 1224
3334, 847, 841, 846, 1085
3335, 191, 234, 220, 1082
3336, 187, 1057, 397, 1252
3337, 396, 460, 377, 1205
3338, 230, 489, 210, 1096
3339, 402, 1167, 466, 1182
3340, 133, 712, 631, 541
3341, 491, 119, 920, 337
3342, 242, 313, 71, 1224
3343, 1032, 1081, 971, 1241
3344, 523, 599, 765, 1110
3345, 431, 472, 432, 1098
3346, 199, 198, 196, 1183
3347, 443, 1083, 482, 1178
3348, 575, 519, 89, 413
3349, 237, 261, 262, 1235
3350, 262, 1093, 263, 1235
3351, 738, 730, 728, 1147
3352, 446, 501, 1015, 1214
3353, 525, 596, 230, 1096
3354, 267, 302, 250, 1225
3355, 724, 694, 774, 1094
3356, 315, 242, 72, 459
3357, 526, 575, 525, 1096
3358, 255, 249, 254, 1079
3359, 160, 863, 774, 1243
3360, 978, 1099, 1058, 1249
3361, 329, 295, 1105, 1123
3362, 181, 669, 762, 1207
3363, 837, 857, 858, 1024
3364, 957, 1191, 1127, 1212
3365, 523, 689, 127, 584
3366, 332, 1057, 212, 1220
3367, 838, 162, 773, 1168
3368, 578, 94, 433, 436
3369, 474, 582, 92, 1200
3370, 939, 9, 393, 184
3371, 43, 746, 312, 643
3372, 203, 219, 215, 1119
3373, 483, 836, 349, 1179
3374, 636, 757, 720, 1072
3375, 255, 299, 249, 1079
3376, 606, 714, 942, 1130
3377, 944, 1071, 889, 1244
3378, 507, 377, 376, 1203
3379, 562, 577, 569, 1138
3380, 701, 517, 136, 604
3381, 580, 542, 541, 1029
3382, 873, 741, 844, 1114
3383, 696, 794, 827, 1092
3384, 919, 168, 783, 890
3385, 882, 180, 8, 334
3386, 582, 474, 91, 1231
3387, 380, 350, 351, 1186
3388, 636, 150, 757, 787
3389, 314, 716, 40, 251
3390, 446, 1015, 1157, 1214
3391, 250, 302, 55, 1225
3392, 253, 203, 228, 1119
3393, 429, 292, 62, 367
3394, 360, 1095, 795, 1253
3395, 656, 737, 772, 1069
3396, 1026, 955, 1206, 1226
3397, 358, 514, 100, 1090
3398, 66, 243, 422, 1105
3399, 628, 250, 55, 1225
3400, 705, 45, 708, 308
3401, 702, 755, 754, 1217
3402, 697, 763, 829, 1102
3403, 531, 530, 512, 1097
3404, 681, 676, 677, 1035
3405, 235, 52, 721, 671
3406, 216, 220, 193, 1110
3407, 883, 875, 839, 1243
3408, 228, 362, 490, 1119
3409, 586, 1106, 526, 1216
3410, 316, 254, 248, 1144
3411, 325, 763, 302, 1102
3412, 838, 864, 162, 1168
3413, 214, 428, 1058, 1227
3414, 597, 578, 537, 1043
3415, 230, 218, 525, 1096
3416, 808, 815, 789, 1178
3417, 900, 932, 1067, 1133
3418, 863, 160, 774, 625
3419, 573, 216, 599, 1110
3420, 262, 264, 1093, 1174
3421, 8, 331, 180, 880
3422, 793, 1152, 421, 1253
3423, 851, 850, 848, 1075
3424, 858, 859, 837, 1163
3425, 188, 1058, 441, 1220
3426, 760, 838, 624, 1158
3427, 678, 680, 679, 1120
3428, 822, 787, 832, 1209
3429, 84, 789, 394, 1178
3430, 777, 713, 663, 1060
3431, 883, 1236, 875, 1243
3432, 700, 134, 580, 518
3433, 729, 302, 763, 1102
3434, 637, 154, 814, 758
3435, 299, 229, 217, 1107
3436, 330, 350, 345, 1186
3437, 206, 209, 208, 1048
3438, 599, 216, 227, 1110
3439, 397, 439, 362, 1252
3440, 318, 259, 294, 1076
3441, 639, 227, 193, 1110
3442, 344, 109, 871, 498
3443, 769, 652, 728, 1122
3444, 689, 1089, 523, 1110
3445, 267, 266, 302, 1102
3446, 739, 729, 697, 1102
3447, 396, 480, 427, 1205
3448, 536, 549, 532, 1073
3449, 1006, 1165, 1036, 1188
3450, 561, 560, 559, 1127
3451, 551, 552, 576, 1092
3452, 667, 719, 637, 1064
3453, 448, 416, 417, 1070
3454, 915, 914, 928, 1064
3455, 541, 133, 712, 595
3456, 859, 861, 844, 1114
3457, 242, 270, 271, 1103
3458, 302, 1102, 729, 1225
3459, 542, 580, 518, 1221
3460, 847, 843, 865, 1049
3461, 352, 492, 451, 1103
3462, 820, 801, 819, 1102
3463, 718, 618, 721, 1047
3464, 271, 274, 242, 1224
3465, 818, 794, 821, 1092
3466, 492, 374, 451, 1133
3467, 732, 665, 700, 1221
3468, 567, 557, 592, 1205
3469, 1070, 1165, 970, 1179
3470, 598, 764, 827, 1092
3471, 345, 491, 887, 1125
3472, 349, 483, 108, 836
3473, 527, 526, 521, 1082
3474, 911, 913, 912, 1181
3475, 219, 233, 201, 1254
3476, 1058, 1099, 985, 1249
3477, 885, 506, 932, 123
3478, 1080, 1212, 957, 1222
3479, 228, 215, 362, 1119
3480, 648, 711, 740, 1087
3481, 580, 133, 631, 541
3482, 457, 484, 430, 1162
3483, 524, 600, 454, 1113
3484, 689, 688, 690, 1089
3485, 295, 247, 296, 1123
3486, 524, 1113, 454, 1132
3487, 205, 1062, 333, 1227
3488, 301, 440, 58, 248
3489, 170, 891, 613, 767
3490, 872, 464, 843, 1134
3491, 586, 526, 528, 1216
3492, 517, 590, 136, 604
3493, 741, 707, 649, 1201
3494, 697, 829, 801, 1102
3495, 766, 251, 716, 1107
3496, 495, 384, 423, 1123
3497, 776, 740, 867, 1087
3498, 472, 455, 354, 1159
3499, 395, 459, 71, 1224
3500, 378, 442, 365, 1169
3501, 814, 825, 831, 1204
3502, 277, 1065, 275, 1164
3503, 782, 651, 650, 1149
3504, 847, 849, 843, 1134
3505, 937, 719, 928, 1064
3506, 822, 798, 823, 1160
3507, 737, 656, 713, 1173
3508, 568, 533, 531, 1184
3509, 689, 523, 765, 1110
3510, 228, 324, 253, 1119
3511, 917, 1172, 907, 1219
3512, 66, 295, 243, 1105
3513, 710, 623, 711, 1136
3514, 807, 825, 826, 1141
3515, 825, 786, 826, 1233
3516, 497, 343, 111, 835
3517, 610, 615, 640, 1143
3518, 520, 539, 588, 1189
3519, 828, 600, 574, 1113
3520, 889, 1071, 641, 1244
3521, 408, 367, 470, 1063
3522, 452, 493, 353, 1132
3523, 905, 906, 907, 1150
3524, 284, 322, 297, 1128
3525, 542, 518, 544, 1221
3526, 457, 450, 484, 1084
3527, 574, 553, 515, 1046
3528, 896, 1160, 1072, 1207
3529, 112, 484, 869, 1162
3530, 252, 453, 327, 1152
3531, 593, 570, 548, 1137
3532, 575, 489, 596, 1096
3533, 923, 944, 889, 1244
3534, 389, 1081, 456, 1241
3535, 760, 163, 624, 838
3536, 420, 828, 813, 1113
3537, 31, 362, 215, 1252
3538, 650, 1126, 888, 1149
3539, 199, 222, 200, 1198
3540, 794, 1092, 696, 1204
3541, 472, 373, 455, 1210
3542, 789, 486, 394, 1178
3543, 936, 896, 927, 1072
3544, 452, 493, 1132, 1203
3545, 653, 672, 756, 1175
3546, 959, 1036, 1165, 1188
3547, 352, 459, 492, 1103
3548, 1093, 1140, 263, 1235
3549, 901, 899, 900, 1223
3550, 645, 644, 664, 1044
3551, 91, 550, 582, 1231
3552, 792, 833, 820, 1066
3553, 727, 650, 768, 1126
3554, 162, 624, 838, 773
3555, 932, 885, 900, 1067
3556, 909, 901, 903, 1104
3557, 779, 700, 665, 1221
3558, 621, 606, 171, 942
3559, 559, 560, 558, 1091
3560, 959, 1177, 1097, 1184
3561, 407, 467, 440, 1144
3562, 898, 895, 900, 1133
3563, 794, 831, 821, 1204
3564, 529, 527, 523, 1089
3565, 1070, 1200, 1073, 1231
3566, 852, 854, 853, 1061
3567, 494, 479, 337, 1109
3568, 917, 907, 933, 1219
3569, 130, 642, 568, 750
3570, 413, 489, 575, 1096
3571, 327, 830, 300, 1152
3572, 343, 449, 110, 835
3573, 189, 205, 206, 1062
3574, 686, 691, 695, 1139
3575, 876, 1053, 842, 1162
3576, 923, 889, 173, 1244
3577, 395, 71, 313, 1224
3578, 329, 66, 422, 1105
3579, 719, 758, 1064, 1233
3580, 878, 838, 861, 1158
3581, 582, 511, 92, 1200
3582, 643, 312, 43, 237
3583, 828, 574, 816, 1113
3584, 214, 188, 225, 1058
3585, 187, 223, 212, 1057
3586, 873, 622, 741, 1114
3587, 582, 1200, 474, 1231
3588, 484, 112, 346, 1162
3589, 479, 379, 337, 1109
3590, 163, 760, 622, 873
3591, 891, 169, 781, 919
3592, 454, 420, 462, 1113
3593, 309, 445, 69, 244
3594, 417, 1200, 1070, 1231
3595, 108, 483, 347, 872
3596, 862, 835, 854, 1167
3597, 474, 92, 366, 1200
3598, 332, 398, 397, 1057
3599, 287, 273, 319, 1164
3600, 839, 863, 160, 1243
3601, 182, 892, 1160, 1215
3602, 335, 91, 474, 1231
3603, 454, 600, 105, 488
3604, 488, 828, 420, 1113
3605, 327, 453, 74, 487
3606, 296, 283, 281, 1232
3607, 251, 257, 314, 1180
3608, 213, 226, 186, 1161
3609, 269, 267, 317, 1131
3610, 749, 702, 701, 1086
3611, 605, 771, 778, 1155
3612, 170, 917, 891, 767
3613, 366, 458, 417, 1200
3614, 66, 329, 295, 1105
3615, 669, 181, 936, 1207
3616, 221, 200, 209, 1198
3617, 706, 707, 622, 1114
3618, 829, 763, 325, 1102
3619, 300, 830, 817, 1152
3620, 849, 847, 848, 1054
3621, 373, 338, 368, 1210
3622, 245, 318, 294, 1076
3623, 417, 458, 448, 1070
3624, 890, 167, 652, 1122
3625, 889, 942, 172, 714
3626, 1105, 1123, 956, 1230
3627, 269, 268, 267, 1131
3628, 441, 428, 403, 1058
3629, 31, 215, 187, 1252
3630, 419, 333, 411, 1062
3631, 367, 408, 457, 1063
3632, 836, 109, 349, 498
3633, 659, 718, 641, 1226
3634, 697, 1102, 801, 1209
3635, 896, 1072, 936, 1207
3636, 888, 927, 946, 1126
3637, 719, 758, 637, 1064
3638, 177, 11, 610, 881
3639, 814, 155, 637, 1204
3640, 438, 921, 121, 935
3641, 682, 681, 677, 1229
3642, 893, 183, 182, 1215
3643, 897, 931, 946, 1246
3644, 435, 347, 434, 1134
3645, 759, 734, 724, 1177
3646, 1004, 1219, 1080, 1228
3647, 716, 743, 683, 1180
3648, 175, 927, 888, 1126
3649, 490, 301, 324, 1119
3650, 957, 1181, 1080, 1222
3651, 1017, 961, 1240, 1242
3652, 811, 796, 800, 1237
3653, 636, 149, 787, 1209
3654, 708, 707, 705, 1140
3655, 767, 621, 917, 1172
3656, 198, 224, 197, 1183
3657, 424, 456, 355, 1241
3658, 466, 402, 449, 1167
3659, 582, 536, 1200, 1231
3660, 347, 464, 872, 1134
3661, 440, 301, 490, 1119
3662, 876, 879, 860, 1153
3663, 262, 264, 263, 1093
3664, 466, 343, 497, 1167
3665, 843, 880, 865, 1049
3666, 362, 1119, 215, 1252
3667, 456, 471, 355, 1137
3668, 117, 922, 886, 507
3669, 804, 805, 806, 1251
3670, 840, 740, 158, 623
3671, 646, 665, 732, 1100
3672, 744, 774, 694, 1243
3673, 468, 498, 344, 1088
3674, 461, 501, 437, 1240
3675, 696, 637, 155, 1204
3676, 917, 942, 918, 1172
3677, 9, 394, 486, 184
3678, 486, 393, 9, 184
3679, 513, 593, 436, 1137
3680, 962, 1078, 1219, 1228
3681, 342, 445, 69, 309
3682, 91, 335, 550, 1231
3683, 564, 558, 581, 1197
3684, 696, 155, 794, 1204
3685, 326, 766, 229, 1107
3686, 830, 421, 793, 1152
3687, 858, 1053, 876, 1142
3688, 650, 888, 174, 782
3689, 164, 741, 844, 873
3690, 914, 181, 937, 1233
3691, 167, 890, 928, 1122
3692, 363, 210, 38, 489
3693, 17, 766, 638, 192
3694, 641, 714, 659, 1071
3695, 820, 832, 801, 1209
3696, 776, 648, 740, 1087
3697, 121, 330, 921, 438
3698, 877, 177, 11, 607
3699, 377, 493, 376, 1203
3700, 155, 814, 794, 1204
3701, 654, 718, 721, 1047
3702, 360, 392, 444, 1095
3703, 345, 382, 491, 1125
3704, 843, 872, 107, 464
3705, 366, 92, 511, 1200
3706, 956, 1232, 1034, 1248
3707, 868, 465, 113, 842
3708, 731, 649, 748, 1201
3709, 338, 882, 334, 1156
3710, 760, 726, 733, 1158
3711, 596, 489, 230, 1096
3712, 790, 804, 803, 1083
3713, 266, 819, 75, 325
3714, 298, 735, 53, 1192
3715, 532, 534, 536, 1073
3716, 260, 293, 262, 1174
3717, 496, 369, 461, 1208
3718, 919, 929, 890, 1146
3719, 697, 149, 636, 1209
3720, 858, 1142, 859, 1163
3721, 443, 391, 361, 1083
3722, 253, 16, 228, 203
3723, 914, 915, 893, 1141
3724, 308, 263, 1140, 1235
3725, 274, 273, 275, 1164
3726, 600, 454, 105, 524
3727, 750, 611, 693, 1097
3728, 573, 26, 599, 216
3729, 592, 557, 516, 1205
3730, 765, 126, 599, 523
3731, 453, 327, 74, 252
3732, 936, 181, 896, 1207
3733, 543, 542, 544, 1116
3734, 829, 75, 819, 325
3735, 900, 899, 898, 1129
3736, 443, 482, 394, 1178
3737, 26, 227, 599, 216
3738, 48, 236, 605, 1155
3739, 555, 553, 524, 1132
3740, 251, 766, 39, 326
3741, 810, 670, 762, 1233
3742, 669, 788, 762, 1207
3743, 897, 1129, 899, 1246
3744, 561, 562, 560, 1127
3745, 541, 539, 595, 1189
3746, 487, 421, 830, 1152
3747, 355, 436, 593, 1137
3748, 787, 149, 801, 1209
3749, 591, 531, 512, 1097
3750, 712, 595, 709, 1189
3751, 394, 9, 940, 184
3752, 210, 230, 38, 489
3753, 17, 766, 192, 229
3754, 620, 839, 160, 1243
3755, 598, 551, 818, 144
3756, 239, 308, 320, 1140
3757, 801, 149, 697, 1209
3758, 360, 463, 392, 1253
3759, 938, 915, 945, 1187
3760, 303, 236, 48, 1155
3761, 901, 1104, 909, 1223
3762, 307, 285, 282, 1077
3763, 474, 1200, 417, 1231
3764, 698, 303, 48, 1155
3765, 513, 593, 95, 436
3766, 353, 454, 452, 1132
3767, 554, 556, 564, 1197
3768, 783, 633, 919, 1146
3769, 795, 785, 796, 1095
3770, 707, 748, 649, 1201
3771, 205, 333, 35, 1227
3772, 484, 112, 869, 348
3773, 891, 912, 919, 1052
3774, 526, 519, 575, 1106
3775, 818, 598, 144, 827
3776, 695, 691, 688, 1139
3777, 616, 157, 877, 776
3778, 595, 520, 709, 1189
3779, 338, 499, 114, 882
3780, 540, 570, 538, 1112
3781, 395, 375, 459, 1224
3782, 876, 868, 842, 1053
3783, 151, 757, 802, 1207
3784, 641, 889, 714, 1071
3785, 1152, 1237, 993, 1253
3786, 175, 888, 650, 1126
3787, 670, 937, 12, 181
3788, 503, 389, 424, 1241
3789, 344, 449, 468, 1088
3790, 212, 33, 332, 1220
3791, 265, 291, 322, 1193
3792, 165, 775, 614, 881
3793, 182, 183, 892, 1215
3794, 680, 744, 686, 1176
3795, 340, 106, 500, 880
3796, 225, 198, 200, 1099
3797, 228, 324, 16, 253
3798, 605, 698, 48, 1155
3799, 446, 1157, 341, 1214
3800, 175, 668, 927, 1126
3801, 235, 298, 53, 1192
3802, 582, 550, 536, 1231
3803, 167, 667, 652, 1122
3804, 906, 905, 904, 1150
3805, 842, 465, 113, 346
3806, 490, 30, 362, 228
3807, 291, 246, 290, 1098
3808, 495, 502, 447, 1230
3809, 395, 508, 375, 1224
3810, 917, 918, 907, 1172
3811, 742, 678, 676, 1196
3812, 328, 425, 473, 1211
3813, 484, 450, 348, 1084
3814, 410, 404, 409, 1170
3815, 774, 620, 160, 1243
3816, 559, 558, 557, 1091
3817, 188, 441, 33, 1220
3818, 153, 786, 758, 1233
3819, 894, 116, 391, 376
3820, 666, 665, 647, 1195
3821, 436, 593, 95, 355
3822, 923, 174, 782, 632
3823, 639, 765, 25, 227
3824, 651, 735, 768, 1192
3825, 709, 595, 712, 132
3826, 809, 824, 799, 1215
3827, 151, 788, 669, 1207
3828, 399, 402, 400, 1182
3829, 696, 764, 730, 1092
3830, 456, 389, 370, 1081
3831, 810, 153, 670, 1233
3832, 834, 806, 805, 1251
3833, 126, 765, 689, 523
3834, 562, 569, 602, 1138
3835, 858, 868, 876, 1053
3836, 488, 600, 828, 1113
3837, 514, 589, 567, 1090
3838, 331, 340, 341, 1157
3839, 738, 637, 696, 1204
3840, 30, 362, 228, 215
3841, 599, 227, 765, 1110
3842, 35, 428, 214, 1227
3843, 852, 855, 854, 1061
3844, 167, 928, 667, 1122
3845, 608, 20, 185, 1238
3846, 429, 431, 432, 1098
3847, 173, 632, 923, 1244
3848, 928, 890, 945, 1122
3849, 716, 766, 39, 251
3850, 374, 392, 932, 124
3851, 277, 275, 287, 1164
3852, 914, 893, 182, 1141
3853, 193, 639, 25, 227
3854, 830, 79, 793, 421
3855, 20, 717, 204, 1238
3856, 697, 636, 739, 1209
3857, 774, 625, 724, 1094
3858, 490, 324, 228, 1119
3859, 813, 420, 87, 828
3860, 120, 345, 491, 887
3861, 116, 894, 922, 376
3862, 1017, 1240, 1148, 1242
3863, 358, 427, 478, 1090
3864, 839, 875, 863, 1243
3865, 659, 660, 753, 1226
3866, 511, 536, 534, 1200
3867, 900, 895, 932, 1133
3868, 255, 254, 256, 1234
3869, 392, 895, 932, 124
3870, 423, 329, 495, 1123
3871, 709, 520, 595, 132
3872, 205, 35, 214, 1227
3873, 1012, 1126, 1149, 1246
3874, 735, 671, 53, 1192
3875, 730, 629, 728, 1147
3876, 53, 671, 235, 1192
3877, 373, 368, 455, 1210
3878, 728, 629, 769, 1147
3879, 803, 808, 789, 1178
3880, 944, 930, 889, 1071
3881, 354, 455, 422, 1159
3882, 842, 869, 876, 1162
3883, 270, 242, 315, 1103
3884, 809, 807, 826, 1141
3885, 333, 428, 35, 1227
3886, 441, 332, 33, 1220
3887, 424, 389, 456, 1241
3888, 438, 351, 330, 1186
3889, 182, 892, 896, 1160
3890, 416, 415, 414, 1213
3891, 849, 872, 843, 1134
3892, 188, 33, 212, 1220
3893, 867, 740, 776, 158
3894, 263, 264, 265, 1093
3895, 342, 477, 442, 1169
3896, 394, 940, 443, 1178
3897, 320, 308, 263, 1140
3898, 741, 164, 622, 873
3899, 22, 211, 704, 1250
3900, 931, 899, 1223, 1246
3901, 319, 298, 235, 1192
3902, 923, 888, 931, 1149
3903, 273, 271, 272, 1239
3904, 420, 488, 87, 828
3905, 827, 794, 818, 1092
3906, 529, 528, 527, 1216
3907, 851, 848, 874, 1075
3908, 762, 670, 12, 181
3909, 669, 762, 12, 181
3910, 872, 347, 107, 464
3911, 79, 830, 487, 421
3912, 1034, 1232, 1077, 1248
3913, 374, 392, 451, 1133
3914, 369, 1208, 447, 1230
3915, 719, 937, 670, 1233
3916, 151, 669, 757, 1207
3917, 153, 758, 670, 1233
3918, 168, 652, 783, 890
3919, 422, 502, 329, 1105
3920, 872, 849, 836, 1179
3921, 607, 157, 877, 616
3922, 906, 908, 907, 1219
3923, 726, 684, 733, 1190
3924, 29, 218, 525, 230
3925, 830, 300, 78, 327
3926, 13, 326, 229, 299
3927, 416, 335, 417, 1231
3928, 600, 147, 828, 574
3929, 652, 667, 728, 1122
3930, 709, 711, 712, 1189
3931, 596, 29, 525, 230
3932, 551, 576, 598, 1092
3933, 565, 563, 561, 1191
3934, 584, 529, 523, 1089
3935, 729, 763, 697, 1102
3936, 184, 925, 183, 1145
3937, 745, 689, 690, 1089
3938, 742, 773, 619, 1168
3939, 810, 762, 152, 788
3940, 486, 83, 812, 789
3941, 22, 609, 186, 1250
3942, 402, 466, 400, 1182
3943, 303, 307, 236, 1155
3944, 278, 277, 289, 1206
3945, 725, 680, 678, 1120
3946, 812, 815, 797, 1145
3947, 275, 277, 276, 1065
3948, 505, 118, 886, 357
3949, 768, 628, 727, 1225
3950, 452, 391, 376, 1203
3951, 151, 802, 788, 1207
3952, 20, 204, 185, 1238
3953, 474, 366, 417, 1200
3954, 897, 898, 899, 1129
3955, 504, 426, 479, 1154
3956, 78, 817, 300, 830
3957, 232, 215, 219, 1252
3958, 299, 229, 13, 217
3959, 608, 717, 20, 1238
3960, 306, 322, 284, 1128
3961, 811, 800, 833, 1237
3962, 327, 487, 830, 1152
3963, 574, 147, 828, 816
3964, 899, 909, 931, 1223
3965, 468, 404, 410, 1170
3966, 175, 650, 668, 1126
3967, 691, 692, 690, 1247
3968, 925, 184, 939, 1145
3969, 873, 844, 861, 1114
3970, 829, 819, 801, 1102
3971, 850, 836, 849, 1179
3972, 823, 798, 799, 1160
3973, 639, 689, 765, 1110
3974, 693, 724, 734, 1177
3975, 513, 570, 593, 1137
3976, 607, 722, 617, 1199
3977, 114, 338, 882, 334
3978, 337, 118, 920, 505
3979, 756, 783, 653, 1146
3980, 295, 281, 243, 1105
3981, 610, 165, 614, 881
3982, 261, 260, 262, 1059
3983, 447, 369, 496, 1208
3984, 943, 916, 938, 1187
3985, 504, 479, 386, 1154
3986, 192, 217, 229, 1107
3987, 621, 767, 917, 171
3988, 331, 106, 340, 880
3989, 177, 866, 881, 1143
3990, 181, 12, 669, 936
3991, 314, 257, 238, 1180
3992, 332, 441, 399, 1220
3993, 889, 641, 173, 1244
3994, 683, 743, 612, 1180
3995, 766, 716, 638, 1107
3996, 185, 204, 196, 1238
3997, 266, 325, 302, 1102
3998, 886, 117, 507, 357
3999, 413, 363, 489, 1096
4000, 707, 741, 622, 1114
4001, 885, 356, 506, 123
4002, 776, 157, 877, 867
4003, 675, 717, 608, 1238
4004, 726, 760, 624, 1158
4005, 202, 195, 201, 1254
4006, 761, 617, 722, 1199
4007, 308, 237, 263, 1235
4008, 810, 786, 153, 1233
4009, 764, 730, 576, 143
4010, 230, 210, 218, 1096
4011, 860, 859, 858, 1142
4012, 729, 302, 56, 763
4013, 565, 561, 589, 1191
4014, 19, 20, 185, 608
4015, 212, 33, 32, 332
4016, 606, 172, 942, 714
4017, 377, 480, 396, 1205
4018, 326, 299, 251, 1107
4019, 22, 704, 609, 1250
4020, 413, 88, 575, 489
4021, 186, 211, 22, 1250
4022, 870, 864, 838, 1168
4023, 506, 374, 932, 123
4024, 281, 283, 282, 1232
4025, 525, 575, 596, 1096
4026, 20, 21, 204, 717
4027, 264, 293, 311, 1174
4028, 533, 532, 531, 1184
4029, 446, 341, 485, 1214
4030, 576, 598, 764, 143
4031, 194, 18, 19, 673
4032, 727, 729, 739, 1225
4033, 596, 575, 88, 489
4034, 503, 473, 390, 1211
4035, 302, 325, 56, 763
4036, 435, 464, 347, 1134
4037, 829, 697, 148, 763
4038, 189, 37, 36, 411
4039, 764, 827, 696, 156
4040, 714, 606, 627, 1130
4041, 33, 34, 441, 188
4042, 697, 801, 829, 148
4043, 409, 428, 333, 1227
4044, 781, 613, 169, 891
4045, 528, 526, 527, 1216
4046, 827, 794, 696, 156
4047, 490, 440, 57, 301
4048, 585, 555, 524, 1132
4049, 683, 677, 715, 1229
4050, 36, 35, 205, 333
4051, 668, 650, 727, 1126
4052, 369, 447, 388, 1230
4053, 205, 214, 221, 1227
4054, 331, 341, 446, 1157
4055, 22, 21, 704, 211
4056, 609, 704, 685, 1250
4057, 581, 509, 571, 1175
4058, 168, 783, 633, 919
4059, 362, 440, 490, 1119
4060, 526, 586, 519, 1106
4061, 931, 897, 899, 1246
4062, 632, 654, 784, 1244
4063, 57, 490, 301, 324
4064, 338, 334, 339, 1156
4065, 486, 394, 84, 789
4066, 670, 153, 810, 762
4067, 669, 151, 762, 788
4068, 393, 82, 812, 486
4069, 252, 327, 300, 1152
4070, 227, 216, 193, 1110
4071, 633, 781, 169, 919
4072, 186, 222, 211, 1250
4073, 122, 365, 935, 885
4074, 546, 601, 572, 1202
4075, 922, 117, 376, 507
4076, 509, 581, 602, 1175
4077, 690, 692, 611, 1247
4078, 23, 22, 609, 186
4079, 38, 37, 210, 363
4080, 638, 18, 17, 192
4081, 558, 564, 556, 1197
4082, 860, 879, 878, 1153
4083, 330, 351, 350, 1186
4084, 783, 756, 633, 1146
4085, 316, 256, 254, 1234
4086, 840, 874, 884, 1136
4087, 35, 34, 214, 428
4088, 828, 816, 813, 1113
4089, 92, 93, 366, 511
4090, 680, 686, 685, 1176
4091, 777, 640, 737, 1173
4092, 422, 66, 65, 243
4093, 567, 101, 100, 427
4094, 643, 43, 44, 237
4095, 780, 662, 755, 1217
4096, 253, 324, 301, 1119
4097, 355, 471, 436, 1137
4098, 131, 642, 568, 130
4099, 678, 675, 676, 1196
4100, 364, 461, 339, 1240
4101, 15, 16, 253, 203
4102, 454, 488, 420, 1113
4103, 524, 574, 600, 1113
4104, 647, 751, 666, 1195
4105, 595, 539, 520, 1189
4106, 262, 293, 264, 1174
4107, 523, 573, 599, 1110
4108, 737, 713, 777, 1173
4109, 310, 289, 277, 1206
4110, 215, 228, 203, 1119
4111, 361, 86, 85, 790
4112, 335, 474, 417, 1231
4113, 104, 105, 454, 524
4114, 252, 73, 74, 453
4115, 895, 444, 939, 125
4116, 809, 799, 815, 1215
4117, 81, 80, 360, 795
4118, 187, 32, 31, 397
4119, 860, 858, 876, 1142
4120, 360, 421, 463, 1253
4121, 197, 196, 198, 1183
4122, 343, 466, 449, 1167
4123, 362, 30, 31, 215
4124, 442, 445, 342, 1169
4125, 669, 936, 720, 1207
4126, 25, 24, 639, 193
4127, 461, 364, 501, 1240
4128, 687, 24, 23, 213
4129, 700, 134, 518, 135
4130, 605, 778, 698, 1155
4131, 184, 926, 940, 1178
4132, 127, 126, 689, 523
4133, 212, 224, 188, 1220
4134, 414, 415, 412, 1213
4135, 365, 122, 356, 885
4136, 91, 90, 550, 335
4137, 716, 39, 40, 251
4138, 231, 226, 213, 1161
4139, 262, 263, 237, 1235
4140, 287, 275, 273, 1164
4141, 75, 76, 819, 266
4142, 98, 99, 425, 566
4143, 699, 49, 50, 288
4144, 641, 632, 173, 1244
4145, 28, 29, 218, 525
4146, 154, 814, 155, 637
4147, 128, 611, 129, 512
4148, 484, 346, 430, 1162
4149, 145, 818, 551, 144
4150, 636, 150, 787, 149
4151, 788, 802, 823, 1207
4152, 780, 755, 702, 1217
4153, 209, 200, 222, 1198
4154, 482, 443, 361, 1083
4155, 274, 313, 242, 1224
4156, 360, 444, 481, 1095
4157, 273, 272, 319, 1239
4158, 41, 42, 612, 238
4159, 63, 64, 290, 432
4160, 571, 141, 736, 140
4161, 115, 443, 940, 894
4162, 719, 937, 928, 166
4163, 793, 817, 830, 1152
4164, 719, 670, 758, 1233
4165, 336, 60, 59, 294
4166, 423, 68, 67, 247
4167, 775, 741, 844, 164
4168, 279, 64, 65, 354
4169, 151, 152, 762, 788
4170, 84, 83, 486, 789
4171, 762, 153, 810, 152
4172, 82, 83, 812, 486
4173, 143, 730, 576, 142
4174, 56, 55, 302, 729
4175, 464, 107, 843, 500
4176, 136, 137, 517, 701
4177, 173, 889, 172, 714
4178, 77, 78, 817, 300
4179, 299, 13, 14, 217
4180, 816, 574, 147, 146
4181, 784, 671, 651, 1192
4182, 536, 511, 582, 1200
4183, 102, 103, 460, 516
4184, 720, 176, 175, 927
4185, 827, 598, 10, 764
4186, 2, 490, 324, 228
4187, 230, 596, 4, 489
4188, 325, 829, 5, 763
4189, 828, 488, 7, 600
4190, 326, 766, 1, 229
4191, 227, 765, 3, 599
4192, 573, 27, 26, 216
4193, 6, 830, 327, 487
4194, 698, 47, 48, 303
4195, 603, 546, 572, 1202
4196, 453, 421, 487, 1152
4197, 58, 57, 440, 301
4198, 61, 62, 292, 367
4199, 920, 119, 118, 337
4200, 575, 89, 88, 413
4201, 628, 729, 727, 1225
4202, 139, 138, 703, 569
4203, 915, 938, 916, 1187
4204, 735, 651, 671, 1192
4205, 118, 117, 886, 357
4206, 165, 844, 775, 881
4207, 814, 831, 794, 1204
4208, 249, 14, 15, 190
4209, 241, 77, 76, 792
4210, 106, 843, 500, 880
4211, 27, 28, 191, 521
4212, 515, 145, 146, 791
4213, 868, 114, 499, 882
4214, 54, 53, 298, 735
4215, 242, 71, 72, 459
4216, 786, 810, 826, 1233
4217, 927, 720, 176, 936
4218, 376, 493, 452, 1203
4219, 391, 443, 116, 894
4220, 424, 96, 97, 579
4221, 55, 54, 250, 628
4222, 720, 757, 669, 1207
4223, 46, 45, 239, 708
4224, 899, 901, 909, 1223
4225, 499, 465, 113, 868
4226, 12, 176, 669, 936
4227, 157, 877, 11, 607
4228, 613, 169, 891, 170
4229, 442, 378, 445, 1169
4230, 832, 787, 801, 1209
4231, 175, 668, 720, 927
4232, 141, 142, 522, 629
4233, 95, 94, 513, 436
4234, 446, 485, 387, 1214
4235, 202, 201, 233, 1254
4236, 677, 683, 682, 1229
4237, 160, 863, 159, 625
4238, 443, 115, 116, 894
4239, 753, 718, 659, 1226
4240, 921, 330, 121, 120
4241, 158, 159, 840, 623
4242, 215, 232, 187, 1252
4243, 696, 794, 155, 156
4244, 120, 491, 119, 887
4245, 801, 697, 149, 148
4246, 87, 86, 420, 813
4247, 882, 8, 114, 334
4248, 47, 46, 304, 630
4249, 793, 79, 80, 421
4250, 240, 51, 50, 618
4251, 331, 8, 106, 880
4252, 633, 169, 168, 919
4253, 928, 167, 719, 166
4254, 444, 895, 124, 125
4255, 502, 388, 447, 1230
4256, 473, 503, 328, 1211
4257, 70, 69, 445, 244
4258, 11, 165, 610, 881
4259, 514, 100, 99, 358
4260, 937, 12, 166, 670
4261, 654, 632, 641, 1244
4262, 842, 113, 112, 346
4263, 246, 62, 63, 429
4264, 121, 122, 438, 935
4265, 286, 52, 51, 721
4266, 714, 627, 659, 1130
4267, 392, 444, 895, 124
4268, 328, 97, 98, 510
4269, 908, 933, 907, 1219
4270, 53, 52, 235, 671
4271, 112, 111, 869, 348
4272, 928, 167, 667, 719
4273, 324, 16, 2, 228
4274, 488, 7, 87, 828
4275, 144, 598, 10, 827
4276, 519, 90, 89, 469
4277, 830, 6, 79, 487
4278, 520, 709, 131, 132
4279, 230, 4, 38, 489
4280, 829, 5, 75, 325
4281, 766, 17, 1, 229
4282, 9, 939, 393, 125
4283, 166, 719, 937, 670
4284, 393, 939, 444, 125
4285, 227, 3, 26, 599
4286, 9, 115, 394, 940
4287, 767, 170, 917, 171
4288, 467, 59, 58, 248
4289, 48, 49, 605, 236
4290, 888, 174, 175, 650
4291, 349, 108, 109, 836
4292, 163, 624, 838, 162
4293, 446, 387, 501, 1214
4294, 744, 620, 774, 1243
4295, 103, 104, 353, 585
4296, 168, 167, 652, 890
4297, 117, 116, 922, 376
4298, 595, 133, 712, 132
4299, 757, 150, 151, 802
4300, 82, 81, 481, 785
4301, 85, 84, 482, 803
4302, 758, 154, 786, 153
4303, 864, 161, 162, 619
4304, 764, 598, 10, 143
4305, 325, 5, 56, 763
4306, 72, 73, 315, 352
4307, 433, 93, 94, 578
4308, 44, 45, 705, 308
4309, 163, 622, 164, 873
4310, 634, 138, 137, 577
4311, 488, 105, 7, 600
4312, 327, 74, 6, 487
4313, 107, 108, 347, 872
4314, 329, 67, 66, 295
4315, 596, 4, 29, 230
4316, 490, 2, 30, 228
4317, 889, 173, 641, 714
4318, 134, 133, 631, 580
4319, 5, 829, 148, 763
4320, 765, 3, 25, 227
4321, 764, 10, 827, 156
4322, 596, 88, 4, 489
4323, 326, 1, 13, 229
4324, 147, 828, 7, 600
4325, 830, 78, 6, 327
4326, 490, 57, 2, 324
4327, 160, 620, 161, 839
4328, 765, 126, 3, 599
4329, 70, 71, 313, 395
4330, 1, 39, 766, 326
4331, 140, 672, 509, 139
4332, 720, 669, 176, 936
4333, 867, 776, 157, 158
4334, 96, 95, 593, 355
4335, 69, 68, 342, 309
4336, 174, 923, 173, 632
4337, 172, 171, 606, 942
4338, 396, 101, 102, 592
4339, 470, 61, 60, 245
4340, 124, 932, 374, 123
4341, 590, 135, 136, 604
4342, 443, 394, 115, 940
4343, 745, 128, 127, 584
4344, 40, 41, 743, 314
4345, 365, 438, 122, 935
4346, 844, 775, 164, 165
4347, 885, 122, 356, 123
4348, 107, 106, 843, 500
4349, 343, 110, 111, 835
4350, 110, 109, 871, 344
4351, 499, 113, 114, 868
4352, 130, 129, 750, 591
4353, 42, 43, 746, 312
4354, 92, 91, 582, 474
4355, 1008, 1218, 1185, 986
4356, 1185, 1218, 1008, 948
4357, 1133, 1019, 993, 1129
4358, 1133, 993, 1019, 1095
4359, 1177, 863, 1075, 1094
4360, 1177, 1075, 863, 1136
4361, 1082, 207, 208, 988
4362, 1082, 208, 207, 234
4363, 256, 1180, 258, 257
4364, 258, 1180, 256, 1008
4365, 1176, 1031, 950, 1009
4366, 1176, 950, 1031, 1139
4367, 1109, 1125, 910, 887
4368, 910, 1125, 1109, 977
4369, 179, 1156, 180, 857
4370, 180, 1156, 179, 1015
4371, 1157, 179, 180, 865
4372, 1157, 180, 179, 1015
4373, 1122, 1135, 929, 945
4374, 929, 1135, 1122, 994
4375, 1251, 420, 462, 361
4376, 1251, 462, 420, 1113
4377, 1203, 460, 377, 493
4378, 1203, 377, 460, 1001
4379, 1086, 779, 1195, 990
4380, 1086, 1195, 779, 749
4381, 1087, 1100, 953, 1028
4382, 953, 1100, 1087, 1029
4383, 1204, 1064, 806, 1023
4384, 825, 806, 1064, 1023
4385, 1125, 494, 1109, 977
4386, 1125, 1109, 494, 491
4387, 1135, 943, 1187, 1001
4388, 1135, 1187, 943, 938
4389, 1186, 1150, 934, 904
4390, 1186, 934, 1150, 967
4391, 1148, 359, 387, 437
4392, 1148, 387, 359, 1021
4393, 404, 1182, 1167, 402
4394, 1167, 1182, 404, 1002
4395, 1167, 449, 404, 402
4396, 404, 449, 1167, 1002
4397, 1008, 1234, 1180, 256
4398, 1008, 1180, 1234, 986
4399, 257, 1180, 1234, 256
4400, 772, 1044, 976, 645
4401, 772, 976, 1044, 1069
4402, 1204, 825, 806, 1064
4403, 1204, 806, 825, 831
4404, 1045, 935, 885, 902
4405, 1045, 885, 935, 365
4406, 1236, 1243, 1120, 1009
4407, 1236, 1120, 1243, 744
4408, 1176, 1120, 1243, 1009
4409, 1176, 1243, 1120, 744
4410, 1153, 861, 1142, 979
4411, 1153, 1142, 861, 860
4412, 1218, 674, 1229, 1055
4413, 1218, 1229, 674, 1035
4414, 1056, 1248, 1118, 966
4415, 1118, 1248, 1056, 956
4416, 1139, 1016, 1194, 1031
4417, 1139, 1194, 1016, 972
4418, 1085, 1029, 1112, 953
4419, 1085, 1112, 1029, 965
4420, 471, 980, 456, 372
4421, 471, 456, 980, 1137
4422, 1081, 456, 980, 372
4423, 1081, 980, 456, 1137
4424, 1186, 437, 380, 350
4425, 1186, 380, 437, 1017
4426, 1100, 617, 1199, 1028
4427, 1100, 1199, 617, 647
4428, 220, 1161, 208, 231
4429, 208, 1161, 220, 972
4430, 1229, 681, 983, 682
4431, 1229, 983, 681, 1035
4432, 1237, 820, 963, 800
4433, 1237, 963, 820, 1066
4434, 1209, 963, 820, 800
4435, 1209, 820, 963, 1066
4436, 540, 1116, 1029, 542
4437, 1029, 1116, 540, 1112
4438, 1112, 1189, 1117, 539
4439, 1117, 1189, 1112, 965
4440, 1179, 848, 1054, 849
4441, 1179, 1054, 848, 1075
4442, 993, 1019, 963, 1129
4443, 963, 1019, 993, 1237
4444, 1075, 1073, 1165, 970
4445, 1075, 1165, 1073, 959
4446, 1217, 949, 1228, 1212
4447, 1217, 1228, 949, 1040
4448, 1167, 1061, 1088, 854
4449, 1167, 1088, 1061, 1002
4450, 1254, 232, 1042, 201
4451, 1254, 1042, 232, 1252
4452, 1178, 804, 803, 808
4453, 1178, 803, 804, 1083
4454, 423, 309, 68, 247
4455, 68, 309, 423, 342
4456, 1043, 1134, 1137, 435
4457, 1043, 1137, 1134, 980
4458, 471, 1137, 1134, 435
4459, 471, 1134, 1137, 980
4460, 1123, 342, 477, 423
4461, 1123, 477, 342, 1000
4462, 1199, 1195, 761, 647
4463, 1199, 761, 1195, 991
4464, 353, 516, 103, 585
4465, 103, 516, 353, 460
4466, 1158, 622, 706, 760
4467, 1158, 706, 622, 1114
4468, 1170, 418, 410, 468
4469, 1170, 410, 418, 1038
4470, 1168, 726, 681, 773
4471, 1168, 681, 726, 983
4472, 1051, 380, 496, 381
4473, 1051, 496, 380, 1017
4474, 1092, 515, 552, 1046
4475, 1092, 552, 515, 551
4476, 1130, 657, 1069, 627
4477, 1130, 1069, 657, 1014
4478, 1088, 418, 498, 1006
4479, 1088, 498, 418, 468
4480, 1157, 370, 340, 341
4481, 1157, 340, 370, 1049
4482, 1250, 695, 1161, 992
4483, 1250, 1161, 695, 609
4484, 1150, 918, 1022, 998
4485, 1150, 1022, 918, 905
4486, 1239, 996, 1223, 1164
4487, 1239, 1223, 996, 1003
4488, 1131, 271, 1239, 269
4489, 1131, 1239, 271, 1003
4490, 1227, 225, 1099, 1058
4491, 1227, 1099, 225, 221
4492, 1130, 942, 1172, 918
4493, 1130, 1172, 942, 606
4494, 275, 1169, 276, 244
4495, 276, 1169, 275, 1065
4496, 252, 352, 73, 453
4497, 73, 352, 252, 315
4498, 1059, 1153, 983, 958
4499, 983, 1153, 1059, 979
4500, 1223, 1244, 1104, 909
4501, 1104, 1244, 1223, 969
4502, 1203, 462, 1132, 452
4503, 1203, 1132, 462, 984
4504, 588, 1184, 1117, 533
4505, 1117, 1184, 588, 1005
4506, 978, 1220, 1042, 1057
4507, 978, 1042, 1220, 224
4508, 223, 1042, 1220, 1057
4509, 223, 1220, 1042, 224
4510, 1180, 255, 1234, 986
4511, 1180, 1234, 255, 257
4512, 1168, 855, 1108, 870
4513, 1168, 1108, 855, 999
4514, 1253, 453, 421, 463
4515, 1253, 421, 453, 1152
4516, 1140, 265, 263, 320
4517, 1140, 263, 265, 1093
4518, 1247, 959, 1177, 1097
4519, 1247, 1177, 959, 1031
4520, 1230, 1034, 1159, 1013
4521, 1230, 1159, 1034, 1105
4522, 1220, 1182, 1057, 978
4523, 1220, 1057, 1182, 399
4524, 1167, 871, 853, 1088
4525, 1167, 853, 871, 835
4526, 618, 1226, 718, 753
4527, 718, 1226, 618, 1047
4528, 1227, 1170, 1062, 409
4529, 1227, 1062, 1170, 985
4530, 1038, 1062, 1170, 409
4531, 1038, 1170, 1062, 985
4532, 1224, 275, 1164, 274
4533, 1224, 1164, 275, 996
4534, 687, 193, 24, 213
4535, 24, 193, 687, 639
4536, 1175, 703, 509, 672
4537, 1175, 509, 703, 1138
4538, 777, 1199, 663, 722
4539, 663, 1199, 777, 1060
4540, 1224, 445, 378, 1169
4541, 1224, 378, 445, 395
4542, 1174, 1235, 979, 1093
4543, 979, 1235, 1174, 1059
4544, 1220, 225, 1099, 224
4545, 1220, 1099, 225, 1058
4546, 409, 1062, 333, 419
4547, 409, 333, 1062, 1227
4548, 1123, 502, 329, 495
4549, 1123, 329, 502, 1105
4550, 1135, 1175, 1146, 974
4551, 1146, 1175, 1135, 994
4552, 1241, 328, 503, 1211
4553, 1241, 503, 328, 424
4554, 1170, 449, 468, 404
4555, 1170, 468, 449, 1088
4556, 1209, 822, 800, 832
4557, 1209, 800, 822, 1072
4558, 300, 792, 1066, 817
4559, 1066, 792, 300, 241
4560, 791, 574, 1046, 816
4561, 791, 1046, 574, 515
4562, 1237, 795, 796, 1095
4563, 1237, 796, 795, 811
4564, 1104, 944, 930, 909
4565, 1104, 930, 944, 1071
4566, 323, 1232, 305, 283
4567, 305, 1232, 323, 1056
4568, 1253, 80, 793, 795
4569, 1253, 793, 80, 421
4570, 1051, 496, 447, 381
4571, 1051, 447, 496, 1208
4572, 1175, 140, 736, 672
4573, 1175, 736, 140, 571
4574, 244, 395, 70, 313
4575, 70, 395, 244, 445
4576, 1047, 1226, 654, 718
4577, 1047, 654, 1226, 1071
4578, 641, 654, 1226, 718
4579, 641, 1226, 654, 1071
4580, 245, 367, 61, 292
4581, 61, 367, 245, 470
4582, 325, 819, 1102, 266
4583, 325, 1102, 819, 829

*NSET, NSET=CONSTRAINT_1
1, 2, 3, 4, 13, 14, 15, 16, 17, 18, 19, 20, 21, 22, 23, 24
25, 26, 27, 28, 29, 30, 31, 32, 33, 34, 35, 36, 37, 38, 185, 186
187, 188, 189, 190, 191, 192, 193, 194, 195, 196, 197, 198, 199, 200, 201, 202
203, 204, 205, 206, 207, 208, 209, 210, 211, 212, 213, 214, 215, 216, 217, 218
219, 220, 221, 222, 223, 224, 225, 226, 227, 228, 229, 230, 231, 232, 233, 234

*NSET, NSET=DLOAD_1
8, 106, 107, 108, 109, 110, 111, 112, 113, 114, 338, 340, 348, 349, 499, 500
835, 836, 842, 843, 868, 869, 871, 872, 880, 882

*NSET, NSET=DLOAD_2
9, 115, 116, 117, 118, 119, 120, 121, 122, 123, 124, 125, 337, 438, 443, 444
491, 885, 886, 887, 894, 895, 920, 921, 922, 932, 935, 939, 940

*MATERIAL, NAME=STRUCTURAL_STEEL
*ELASTIC
200000.000000, 0.300000

*SOLID SECTION, ELSET=ALL_ELEMENTS, MATERIAL=STRUCTURAL_STEEL

*BOUNDARY
CONSTRAINT_1, 1, 3

*STEP, NLGEOM=NO
*STATIC
0.1, 1.0

*CLOAD
DLOAD_1, 3, -3000.000000

*CLOAD
DLOAD_2, 3, -5000.000000

*NODE FILE
U, RF
*EL FILE
S, E

*END STEP
