*HEADING
Bracket design domain created via CSG: box with cylindrical hole for bolt. Demonstrates parametric design space constraints.

*NODE, NSET=ALL_NODES
1, 0.000000, 0.000000, 0.000000
2, 0.000000, 0.000000, 24.242399
3, 0.000000, 48.484798, 0.000000
4, 0.000000, 48.484798, 24.242399
5, 90.909103, 0.000000, 0.000000
6, 90.909103, 0.000000, 24.242399
7, 90.909103, 48.484798, 24.242399
8, 81.818199, 24.242399, 24.242399
9, 90.909103, 48.484798, 0.000000
10, 81.818199, 24.242399, 0.000000
11, 0.000000, 0.000000, 4.848480
12, 0.000000, 0.000000, 9.696960
13, 0.000000, 0.000000, 14.545440
14, 0.000000, 0.000000, 19.393921
15, 0.000000, 4.848480, 0.000000
16, 0.000000, 9.696960, 0.000000
17, 0.000000, 14.545440, 0.000000
18, 0.000000, 19.393921, 0.000000
19, 0.000000, 24.242399, 0.000000
20, 0.000000, 29.090879, 0.000000
21, 0.000000, 33.939362, 0.000000
22, 0.000000, 38.787842, 0.000000
23, 0.000000, 43.636318, 0.000000
24, 0.000000, 48.484798, 4.848480
25, 0.000000, 48.484798, 9.696960
26, 0.000000, 48.484798, 14.545440
27, 0.000000, 48.484798, 19.393921
28, 0.000000, 4.848480, 24.242399
29, 0.000000, 9.696960, 24.242399
30, 0.000000, 14.545440, 24.242399
31, 0.000000, 19.393921, 24.242399
32, 0.000000, 24.242399, 24.242399
33, 0.000000, 29.090879, 24.242399
34, 0.000000, 33.939362, 24.242399
35, 0.000000, 38.787842, 24.242399
36, 0.000000, 43.636318, 24.242399
37, 4.784689, 0.000000, 0.000000
38, 9.569379, 0.000000, 0.000000
39, 14.354069, 0.000000, 0.000000
40, 19.138758, 0.000000, 0.000000
41, 23.923447, 0.000000, 0.000000
42, 28.708138, 0.000000, 0.000000
43, 33.492825, 0.000000, 0.000000
44, 38.277515, 0.000000, 0.000000
45, 43.062206, 0.000000, 0.000000
46, 47.846893, 0.000000, 0.000000
47, 52.631584, 0.000000, 0.000000
48, 57.416275, 0.000000, 0.000000
49, 62.200962, 0.000000, 0.000000
50, 66.985649, 0.000000, 0.000000
51, 71.770340, 0.000000, 0.000000
52, 76.555031, 0.000000, 0.000000
53, 81.339722, 0.000000, 0.000000
54, 86.124413, 0.000000, 0.000000
55, 4.784689, 0.000000, 24.242399
56, 9.569379, 0.000000, 24.242399
57, 14.354069, 0.000000, 24.242399
58, 19.138758, 0.000000, 24.242399
59, 23.923447, 0.000000, 24.242399
60, 28.708138, 0.000000, 24.242399
61, 33.492825, 0.000000, 24.242399
62, 38.277515, 0.000000, 24.242399
63, 43.062206, 0.000000, 24.242399
64, 47.846893, 0.000000, 24.242399
65, 52.631584, 0.000000, 24.242399
66, 57.416275, 0.000000, 24.242399
67, 62.200962, 0.000000, 24.242399
68, 66.985649, 0.000000, 24.242399
69, 71.770340, 0.000000, 24.242399
70, 76.555031, 0.000000, 24.242399
71, 81.339722, 0.000000, 24.242399
72, 86.124413, 0.000000, 24.242399
73, 90.909103, 0.000000, 4.848480
74, 90.909103, 0.000000, 9.696960
75, 90.909103, 0.000000, 14.545440
76, 90.909103, 0.000000, 19.393921
77, 90.909103, 4.848480, 24.242399
78, 90.909103, 9.696960, 24.242399
79, 90.909103, 14.545440, 24.242399
80, 90.909103, 19.393921, 24.242399
81, 90.909103, 24.242399, 24.242399
82, 90.909103, 29.090879, 24.242399
83, 90.909103, 33.939362, 24.242399
84, 90.909103, 38.787842, 24.242399
85, 90.909103, 43.636318, 24.242399
86, 4.784689, 48.484798, 24.242399
87, 9.569379, 48.484798, 24.242399
88, 14.354069, 48.484798, 24.242399
89, 19.138758, 48.484798, 24.242399
90, 23.923447, 48.484798, 24.242399
91, 28.708138, 48.484798, 24.242399
92, 33.492825, 48.484798, 24.242399
93, 38.277515, 48.484798, 24.242399
94, 43.062206, 48.484798, 24.242399
95, 47.846893, 48.484798, 24.242399
96, 52.631584, 48.484798, 24.242399
97, 57.416275, 48.484798, 24.242399
98, 62.200962, 48.484798, 24.242399
99, 66.985649, 48.484798, 24.242399
100, 71.770340, 48.484798, 24.242399
101, 76.555031, 48.484798, 24.242399
102, 81.339722, 48.484798, 24.242399
103, 86.124413, 48.484798, 24.242399
104, 80.600250, 28.787849, 24.242399
105, 77.272751, 32.115349, 24.242399
106, 72.727303, 33.333302, 24.242399
107, 68.181847, 32.115349, 24.242399
108, 64.854347, 28.787849, 24.242399
109, 63.636398, 24.242399, 24.242399
110, 64.854347, 19.696951, 24.242399
111, 68.181847, 16.369450, 24.242399
112, 72.727303, 15.151500, 24.242399
113, 77.272751, 16.369450, 24.242399
114, 80.600250, 19.696951, 24.242399
115, 4.784689, 48.484798, 0.000000
116, 9.569379, 48.484798, 0.000000
117, 14.354069, 48.484798, 0.000000
118, 19.138758, 48.484798, 0.000000
119, 23.923447, 48.484798, 0.000000
120, 28.708138, 48.484798, 0.000000
121, 33.492825, 48.484798, 0.000000
122, 38.277515, 48.484798, 0.000000
123, 43.062206, 48.484798, 0.000000
124, 47.846893, 48.484798, 0.000000
125, 52.631584, 48.484798, 0.000000
126, 57.416275, 48.484798, 0.000000
127, 62.200962, 48.484798, 0.000000
128, 66.985649, 48.484798, 0.000000
129, 71.770340, 48.484798, 0.000000
130, 76.555031, 48.484798, 0.000000
131, 81.339722, 48.484798, 0.000000
132, 86.124413, 48.484798, 0.000000
133, 90.909103, 48.484798, 4.848480
134, 90.909103, 48.484798, 9.696960
135, 90.909103, 48.484798, 14.545440
136, 90.909103, 48.484798, 19.393921
137, 90.909103, 4.848480, 0.000000
138, 90.909103, 9.696960, 0.000000
139, 90.909103, 14.545440, 0.000000
140, 90.909103, 19.393921, 0.000000
141, 90.909103, 24.242399, 0.000000
142, 90.909103, 29.090879, 0.000000
143, 90.909103, 33.939362, 0.000000
144, 90.909103, 38.787842, 0.000000
145, 90.909103, 43.636318, 0.000000
146, 80.600250, 28.787849, 0.000000
147, 77.272751, 32.115349, 0.000000
148, 72.727303, 33.333302, 0.000000
149, 68.181847, 32.115349, 0.000000
150, 64.854347, 28.787849, 0.000000
151, 63.636398, 24.242399, 0.000000
152, 64.854347, 19.696951, 0.000000
153, 68.181847, 16.369450, 0.000000
154, 72.727303, 15.151500, 0.000000
155, 77.272751, 16.369450, 0.000000
156, 80.600250, 19.696951, 0.000000
157, 81.818199, 24.242399, 4.848480
158, 81.818199, 24.242399, 9.696960
159, 81.818199, 24.242399, 14.545440
160, 81.818199, 24.242399, 19.393921
161, 0.000000, 16.969681, 4.198907
162, 0.000000, 31.450603, 4.082405
163, 0.000000, 12.371234, 20.277557
164, 0.000000, 21.818159, 20.043493
165, 0.000000, 36.363602, 20.043493
166, 0.000000, 3.968641, 12.395986
167, 0.000000, 44.539223, 11.886827
168, 0.000000, 7.293265, 4.105557
169, 0.000000, 40.875473, 4.652166
170, 0.000000, 12.124624, 4.183349
171, 0.000000, 14.546011, 8.395221
172, 0.000000, 19.394014, 8.397382
173, 0.000000, 16.969681, 12.596721
174, 0.000000, 21.818159, 12.596721
175, 0.000000, 24.177900, 8.360494
176, 0.000000, 26.658962, 12.309230
177, 0.000000, 11.752686, 12.571342
178, 0.000000, 9.550118, 7.978977
179, 0.000000, 4.106230, 16.966927
180, 0.000000, 21.807426, 4.192615
181, 0.000000, 31.579636, 20.080742
182, 0.000000, 34.014629, 15.888042
183, 0.000000, 38.890114, 16.248171
184, 0.000000, 36.757820, 11.735289
185, 0.000000, 31.554390, 11.834725
186, 0.000000, 41.201843, 20.127680
187, 0.000000, 26.578833, 4.134973
188, 0.000000, 16.969681, 20.043493
189, 0.000000, 36.086456, 4.043923
190, 0.000000, 26.741909, 20.166203
191, 0.000000, 7.651494, 19.657709
192, 0.000000, 44.629265, 7.388922
193, 0.000000, 4.554835, 7.669030
194, 0.000000, 43.928551, 16.575928
195, 0.000000, 7.660158, 14.889343
196, 0.000000, 40.881912, 9.401046
197, 0.000000, 29.230841, 16.090765
198, 0.000000, 28.958231, 8.126488
199, 0.000000, 14.736101, 16.407566
200, 0.000000, 19.393921, 16.320107
201, 0.000000, 24.242399, 16.320107
202, 0.000000, 33.722267, 7.904918
203, 0.000000, 44.935467, 3.549334
204, 0.000000, 3.549334, 20.693066
205, 0.000000, 3.549334, 3.549334
206, 0.000000, 44.935467, 20.693066
207, 0.000000, 37.526096, 7.606677
208, 0.000000, 10.834334, 16.760704
209, 0.000000, 7.497288, 11.100935
210, 0.000000, 40.999523, 13.169452
211, 69.223228, 0.000000, 4.054308
212, 50.325279, 0.000000, 4.042393
213, 25.827156, 0.000000, 4.577431
214, 16.725679, 0.000000, 4.435760
215, 35.837704, 0.000000, 3.805293
216, 59.808617, 0.000000, 4.007953
217, 86.739159, 0.000000, 12.075616
218, 74.180061, 0.000000, 19.810387
219, 45.454552, 0.000000, 20.098734
220, 65.078140, 0.000000, 19.669926
221, 21.685272, 0.000000, 20.187746
222, 31.100481, 0.000000, 20.235348
223, 55.028194, 0.000000, 20.362967
224, 11.571175, 0.000000, 19.921064
225, 4.169134, 0.000000, 12.167426
226, 79.335991, 0.000000, 4.321354
227, 7.641547, 0.000000, 4.387145
228, 83.266769, 0.000000, 19.856606
229, 4.054046, 0.000000, 16.947828
230, 8.727975, 0.000000, 15.327895
231, 8.355526, 0.000000, 9.747407
232, 12.541654, 0.000000, 12.137170
233, 12.320651, 0.000000, 7.291562
234, 16.662092, 0.000000, 9.649322
235, 16.692747, 0.000000, 14.535032
236, 20.683502, 0.000000, 12.217364
237, 21.070143, 0.000000, 7.325430
238, 24.991323, 0.000000, 9.753201
239, 29.600389, 0.000000, 8.144940
240, 28.860041, 0.000000, 12.682180
241, 33.356983, 0.000000, 10.997539
242, 86.854759, 0.000000, 7.294626
243, 82.178101, 0.000000, 8.915498
244, 82.551186, 0.000000, 14.498343
245, 78.360512, 0.000000, 12.107504
246, 78.584747, 0.000000, 16.954058
247, 74.239624, 0.000000, 14.597181
248, 74.220970, 0.000000, 9.732678
249, 70.218124, 0.000000, 12.031330
250, 69.833534, 0.000000, 16.922150
251, 65.907257, 0.000000, 14.496612
252, 61.302631, 0.000000, 16.105579
253, 62.037689, 0.000000, 11.569596
254, 57.542229, 0.000000, 13.258186
255, 40.669861, 0.000000, 20.098734
256, 43.062206, 0.000000, 15.955042
257, 47.846916, 0.000000, 15.955046
258, 45.454620, 0.000000, 11.862981
259, 50.118912, 0.000000, 11.942125
260, 40.839394, 0.000000, 11.969557
261, 43.090469, 0.000000, 7.962882
262, 64.567513, 0.000000, 3.970442
263, 66.587379, 0.000000, 8.627659
264, 55.081257, 0.000000, 4.079347
265, 57.588711, 0.000000, 8.519872
266, 35.885170, 0.000000, 20.121504
267, 33.393795, 0.000000, 15.771381
268, 26.341488, 0.000000, 20.272953
269, 24.318285, 0.000000, 15.617504
270, 16.640778, 0.000000, 19.398394
271, 50.239952, 0.000000, 20.142776
272, 53.180229, 0.000000, 15.789975
273, 38.458858, 0.000000, 16.052525
274, 74.266823, 0.000000, 4.847295
275, 3.942965, 0.000000, 7.392739
276, 86.965469, 0.000000, 16.850552
277, 7.143591, 0.000000, 20.227079
278, 83.764885, 0.000000, 4.015447
279, 45.712471, 0.000000, 3.994752
280, 40.489403, 0.000000, 3.984856
281, 52.500835, 0.000000, 8.054157
282, 37.711861, 0.000000, 8.323388
283, 47.847290, 0.000000, 7.977532
284, 31.139729, 0.000000, 3.879458
285, 59.762947, 0.000000, 20.358353
286, 62.117985, 0.000000, 7.339104
287, 28.802818, 0.000000, 16.915874
288, 21.531103, 0.000000, 3.319501
289, 69.377998, 0.000000, 20.927456
290, 12.122265, 0.000000, 3.222893
291, 78.785263, 0.000000, 21.021170
292, 12.979645, 0.000000, 16.170979
293, 77.920471, 0.000000, 8.071532
294, 20.048243, 0.000000, 16.463642
295, 70.857765, 0.000000, 7.779168
296, 33.529335, 0.000000, 7.030123
297, 57.363247, 0.000000, 17.175013
298, 36.863541, 0.000000, 12.457226
299, 54.095531, 0.000000, 11.672269
300, 3.543201, 0.000000, 20.682446
301, 87.365898, 0.000000, 3.559955
302, 3.491584, 0.000000, 3.509017
303, 87.417519, 0.000000, 20.733383
304, 26.307846, 44.858147, 24.242399
305, 35.885170, 4.143662, 24.242399
306, 40.739658, 44.301228, 24.242399
307, 4.091177, 21.998377, 24.242399
308, 21.374704, 4.397455, 24.242399
309, 60.303978, 20.915657, 24.242399
310, 50.245354, 4.144775, 24.242399
311, 4.191162, 31.632780, 24.242399
312, 17.371601, 44.428291, 24.242399
313, 50.256340, 44.383797, 24.242399
314, 4.047994, 12.068004, 24.242399
315, 63.299473, 33.064770, 24.242399
316, 59.820000, 4.141974, 24.242399
317, 60.301891, 30.003922, 24.242399
318, 58.817616, 34.425564, 24.242399
319, 55.731312, 31.221649, 24.242399
320, 11.961723, 4.143662, 24.242399
321, 61.115986, 16.003675, 24.242399
322, 56.894726, 17.520208, 24.242399
323, 78.647209, 3.920367, 24.242399
324, 78.646164, 44.565037, 24.242399
325, 69.399803, 11.823999, 24.242399
326, 69.399803, 36.660801, 24.242399
327, 86.319420, 12.516006, 24.242399
328, 86.318169, 35.971378, 24.242399
329, 4.063839, 41.223064, 24.242399
330, 65.037010, 39.014004, 24.242399
331, 55.730000, 22.128805, 24.242399
332, 52.394032, 18.807837, 24.242399
333, 51.173038, 23.387991, 24.242399
334, 47.808002, 20.038176, 24.242399
335, 46.581341, 24.620838, 24.242399
336, 43.214020, 21.271564, 24.242399
337, 41.988644, 25.875446, 24.242399
338, 38.614296, 22.503881, 24.242399
339, 37.382877, 27.121496, 24.242399
340, 34.001015, 23.751825, 24.242399
341, 32.771496, 28.367680, 24.242399
342, 29.383600, 24.994476, 24.242399
343, 30.619337, 20.357487, 24.242399
344, 25.993351, 21.610182, 24.242399
345, 24.759972, 26.243898, 24.242399
346, 21.363068, 22.860657, 24.242399
347, 20.129953, 27.498760, 24.242399
348, 44.428097, 16.689823, 24.242399
349, 45.148293, 29.168665, 24.242399
350, 22.597813, 18.223047, 24.242399
351, 17.961763, 19.473608, 24.242399
352, 23.529642, 30.875225, 24.242399
353, 18.897329, 32.137798, 24.242399
354, 36.156086, 31.739813, 24.242399
355, 15.574566, 28.772171, 24.242399
356, 14.270156, 33.401455, 24.242399
357, 19.197874, 14.831763, 24.242399
358, 23.834555, 13.584104, 24.242399
359, 14.573972, 16.149872, 24.242399
360, 53.630692, 14.551671, 24.242399
361, 31.542791, 32.986591, 24.242399
362, 34.928688, 36.360924, 24.242399
363, 39.466530, 34.835224, 24.242399
364, 12.558761, 21.040222, 24.242399
365, 54.504570, 35.796017, 24.242399
366, 22.299461, 35.516956, 24.242399
367, 57.749313, 39.469868, 24.242399
368, 75.979828, 11.414931, 24.242399
369, 72.495850, 7.878512, 24.242399
370, 75.979828, 37.069870, 24.242399
371, 72.727303, 40.753269, 24.242399
372, 15.831728, 11.528029, 24.242399
373, 9.811841, 17.209520, 24.242399
374, 30.271959, 37.442322, 24.242399
375, 33.241306, 40.629345, 24.242399
376, 11.261057, 29.274597, 24.242399
377, 8.936619, 33.861782, 24.242399
378, 12.911281, 38.009064, 24.242399
379, 51.281834, 32.590343, 24.242399
380, 50.006088, 36.373844, 24.242399
381, 80.823746, 35.716888, 24.242399
382, 80.823784, 12.768267, 24.242399
383, 85.355782, 20.152966, 24.242399
384, 85.355782, 28.331835, 24.242399
385, 64.800903, 43.710293, 24.242399
386, 69.460396, 3.964427, 24.242399
387, 87.060532, 41.096176, 24.242399
388, 87.060684, 7.391543, 24.242399
389, 64.570412, 4.085783, 24.242399
390, 62.494473, 8.242741, 24.242399
391, 57.713158, 8.544573, 24.242399
392, 55.075066, 4.186144, 24.242399
393, 52.693050, 7.943076, 24.242399
394, 47.854305, 8.274338, 24.242399
395, 4.276433, 36.444828, 24.242399
396, 4.746374, 17.132845, 24.242399
397, 3.968793, 26.715704, 24.242399
398, 8.454574, 24.690430, 24.242399
399, 69.884026, 44.465000, 24.242399
400, 59.795197, 44.308540, 24.242399
401, 55.029442, 44.344318, 24.242399
402, 4.044322, 7.293979, 24.242399
403, 8.400365, 9.045287, 24.242399
404, 20.375053, 9.953675, 24.242399
405, 25.011395, 8.686623, 24.242399
406, 28.455002, 12.292592, 24.242399
407, 29.701481, 7.704987, 24.242399
408, 32.959332, 11.211775, 24.242399
409, 16.478643, 6.878088, 24.242399
410, 31.831978, 15.733117, 24.242399
411, 36.449333, 14.503597, 24.242399
412, 37.561871, 9.009056, 24.242399
413, 41.094471, 13.225062, 24.242399
414, 42.509445, 8.581471, 24.242399
415, 35.233410, 19.116781, 24.242399
416, 27.222006, 16.966755, 24.242399
417, 45.386734, 44.389530, 24.242399
418, 43.414303, 40.448414, 24.242399
419, 45.364677, 4.188619, 24.242399
420, 17.603697, 36.611370, 24.242399
421, 21.075029, 40.164448, 24.242399
422, 25.664846, 38.770641, 24.242399
423, 40.715332, 30.432110, 24.242399
424, 43.582798, 33.413353, 24.242399
425, 12.320064, 43.362633, 24.242399
426, 26.636608, 4.066194, 24.242399
427, 28.156130, 29.614130, 24.242399
428, 38.650486, 39.710583, 24.242399
429, 40.669861, 4.131127, 24.242399
430, 49.009121, 15.649108, 24.242399
431, 16.713360, 24.150852, 24.242399
432, 57.806099, 13.162266, 24.242399
433, 26.910805, 34.200977, 24.242399
434, 59.092823, 25.458475, 24.242399
435, 64.856171, 13.042437, 24.242399
436, 39.838936, 17.885118, 24.242399
437, 83.926949, 32.112354, 24.242399
438, 83.926949, 16.372444, 24.242399
439, 54.521393, 26.682659, 24.242399
440, 50.024448, 28.081963, 24.242399
441, 8.317740, 39.561703, 24.242399
442, 45.668884, 12.270569, 24.242399
443, 79.761795, 8.080851, 24.242399
444, 79.760269, 40.405224, 24.242399
445, 52.483143, 40.141762, 24.242399
446, 66.916626, 8.152014, 24.242399
447, 83.417931, 4.481474, 24.242399
448, 83.416077, 44.006271, 24.242399
449, 7.245969, 44.403259, 24.242399
450, 7.149927, 4.009667, 24.242399
451, 31.141081, 44.700916, 24.242399
452, 21.646017, 44.670433, 24.242399
453, 11.451131, 12.772408, 24.242399
454, 36.093777, 44.472717, 24.242399
455, 74.162689, 3.628880, 24.242399
456, 74.199898, 44.831635, 24.242399
457, 12.824718, 8.873495, 24.242399
458, 12.580572, 25.487350, 24.242399
459, 31.329124, 3.858989, 24.242399
460, 47.661911, 40.464855, 24.242399
461, 83.475754, 39.439186, 24.242399
462, 83.476723, 9.047628, 24.242399
463, 50.649174, 11.604272, 24.242399
464, 16.168928, 40.438507, 24.242399
465, 69.096054, 40.326275, 24.242399
466, 87.484070, 16.596155, 24.242399
467, 87.483818, 31.889162, 24.242399
468, 7.691541, 13.645613, 24.242399
469, 61.718327, 40.764587, 24.242399
470, 33.550529, 7.239091, 24.242399
471, 28.440948, 41.374763, 24.242399
472, 87.066833, 24.242399, 24.242399
473, 7.299787, 29.192867, 24.242399
474, 7.766963, 20.483860, 24.242399
475, 87.357544, 3.568198, 24.242399
476, 87.365898, 44.924847, 24.242399
477, 3.543201, 44.924847, 24.242399
478, 3.543201, 3.559955, 24.242399
479, 45.983055, 36.787521, 24.242399
480, 76.209473, 6.984708, 24.242399
481, 76.259338, 41.610111, 24.242399
482, 47.470974, 32.260101, 24.242399
483, 16.715498, 2.887396, 24.242399
484, 54.841995, 11.018613, 24.242399
485, 61.154629, 11.783638, 24.242399
486, 61.680157, 37.185375, 24.242399
487, 66.002098, 35.599674, 24.242399
488, 72.688217, 11.353337, 24.242399
489, 72.534348, 37.425709, 24.242399
490, 42.492100, 36.835140, 24.242399
491, 24.176996, 41.878559, 24.242399
492, 69.114845, 48.484798, 3.907835
493, 50.548332, 48.484798, 20.304140
494, 25.943436, 48.484798, 19.554680
495, 16.732882, 48.484798, 4.293334
496, 35.628372, 48.484798, 20.483429
497, 59.819580, 48.484798, 20.155708
498, 86.739159, 48.484798, 12.075616
499, 74.173691, 48.484798, 19.952749
500, 54.607300, 48.484798, 4.215974
501, 45.565086, 48.484798, 4.432139
502, 11.663346, 48.484798, 19.796053
503, 30.908812, 48.484798, 3.988415
504, 4.169134, 48.484798, 12.167426
505, 79.335991, 48.484798, 4.321354
506, 7.641434, 48.484798, 4.387439
507, 83.266769, 48.484798, 19.856606
508, 4.054046, 48.484798, 16.947828
509, 8.741097, 48.484798, 15.310033
510, 8.345675, 48.484798, 9.755672
511, 12.541654, 48.484798, 12.137170
512, 12.319702, 48.484798, 7.269411
513, 16.703192, 48.484798, 9.505113
514, 21.243286, 48.484798, 7.016248
515, 21.068361, 48.484798, 11.817856
516, 25.227201, 48.484798, 9.267337
517, 25.435114, 48.484798, 14.181622
518, 29.363104, 48.484798, 11.628414
519, 21.300615, 48.484798, 16.598967
520, 29.780952, 48.484798, 16.231239
521, 33.581711, 48.484798, 13.472937
522, 33.209663, 48.484798, 8.180258
523, 37.625626, 48.484798, 10.866287
524, 37.781322, 48.484798, 5.807384
525, 41.659348, 48.484798, 8.117344
526, 41.931450, 48.484798, 13.093309
527, 45.977856, 48.484798, 9.973868
528, 49.968426, 48.484798, 7.052105
529, 50.267300, 48.484798, 12.412300
530, 45.923191, 48.484798, 15.094562
531, 42.257053, 48.484798, 17.001493
532, 16.982151, 48.484798, 14.263124
533, 16.849911, 48.484798, 19.443644
534, 86.854759, 48.484798, 7.294626
535, 82.178101, 48.484798, 8.915498
536, 82.551186, 48.484798, 14.498343
537, 78.360512, 48.484798, 12.107504
538, 78.583687, 48.484798, 16.977785
539, 74.197823, 48.484798, 14.742881
540, 69.659752, 48.484798, 17.233795
541, 69.946457, 48.484798, 12.537935
542, 65.682076, 48.484798, 14.999243
543, 65.941933, 48.484798, 10.599236
544, 61.649975, 48.484798, 12.759341
545, 61.972733, 48.484798, 7.965033
546, 57.757404, 48.484798, 10.779098
547, 74.173187, 48.484798, 9.846021
548, 57.511166, 48.484798, 15.426044
549, 55.023930, 48.484798, 20.098738
550, 65.128265, 48.484798, 19.833815
551, 25.753960, 48.484798, 4.401861
552, 64.499657, 48.484798, 3.765455
553, 37.777206, 48.484798, 16.036674
554, 74.161690, 48.484798, 4.914397
555, 52.815350, 48.484798, 16.303511
556, 3.941304, 48.484798, 7.394166
557, 86.965469, 48.484798, 16.850552
558, 7.225293, 48.484798, 20.214746
559, 83.764885, 48.484798, 4.015447
560, 59.718903, 48.484798, 3.805533
561, 31.134710, 48.484798, 20.415836
562, 45.683701, 48.484798, 20.048759
563, 41.269096, 48.484798, 3.671373
564, 70.261963, 48.484798, 8.254040
565, 21.531103, 48.484798, 20.791603
566, 53.815056, 48.484798, 8.946241
567, 12.123493, 48.484798, 3.190037
568, 78.783783, 48.484798, 21.054388
569, 13.355632, 48.484798, 16.190004
570, 77.641899, 48.484798, 8.020954
571, 28.735729, 48.484798, 7.428930
572, 62.019245, 48.484798, 16.689430
573, 50.239239, 48.484798, 3.117243
574, 21.358467, 48.484798, 3.142289
575, 69.543541, 48.484798, 21.101032
576, 39.837036, 48.484798, 20.609636
577, 57.605499, 48.484798, 6.953280
578, 34.802139, 48.484798, 3.518374
579, 3.543201, 48.484798, 20.682446
580, 33.336697, 48.484798, 17.358366
581, 87.365898, 48.484798, 3.559955
582, 3.491584, 48.484798, 3.509017
583, 87.417519, 48.484798, 20.733383
584, 54.253296, 48.484798, 12.766811
585, 66.712181, 48.484798, 6.902977
586, 49.288071, 48.484798, 16.813030
587, 26.307846, 44.858147, 0.000000
588, 35.885170, 4.143662, 0.000000
589, 40.739658, 44.301228, 0.000000
590, 4.091177, 21.998377, 0.000000
591, 21.374704, 4.397455, 0.000000
592, 60.303978, 20.915657, 0.000000
593, 50.245354, 4.144775, 0.000000
594, 4.191162, 31.632780, 0.000000
595, 17.371601, 44.428291, 0.000000
596, 50.256340, 44.383797, 0.000000
597, 4.047994, 12.068004, 0.000000
598, 63.299473, 33.064770, 0.000000
599, 59.820000, 4.141974, 0.000000
600, 60.301891, 30.003922, 0.000000
601, 58.817616, 34.425564, 0.000000
602, 55.731312, 31.221649, 0.000000
603, 11.961723, 4.143662, 0.000000
604, 61.115986, 16.003675, 0.000000
605, 56.894726, 17.520208, 0.000000
606, 78.647209, 3.920367, 0.000000
607, 78.646164, 44.565037, 0.000000
608, 69.399803, 11.823999, 0.000000
609, 69.399803, 36.660801, 0.000000
610, 86.319420, 12.516006, 0.000000
611, 86.318169, 35.971378, 0.000000
612, 4.063839, 41.223064, 0.000000
613, 65.037010, 39.014004, 0.000000
614, 55.730000, 22.128805, 0.000000
615, 52.394032, 18.807837, 0.000000
616, 51.173038, 23.387991, 0.000000
617, 47.808002, 20.038176, 0.000000
618, 46.581341, 24.620838, 0.000000
619, 43.214020, 21.271564, 0.000000
620, 41.988644, 25.875446, 0.000000
621, 38.614296, 22.503881, 0.000000
622, 37.382877, 27.121496, 0.000000
623, 34.001015, 23.751825, 0.000000
624, 32.771496, 28.367680, 0.000000
625, 29.383600, 24.994476, 0.000000
626, 30.619337, 20.357487, 0.000000
627, 25.993351, 21.610182, 0.000000
628, 24.759972, 26.243898, 0.000000
629, 21.363068, 22.860657, 0.000000
630, 20.129953, 27.498760, 0.000000
631, 44.428097, 16.689823, 0.000000
632, 45.148293, 29.168665, 0.000000
633, 22.597813, 18.223047, 0.000000
634, 17.961763, 19.473608, 0.000000
635, 23.529642, 30.875225, 0.000000
636, 18.897329, 32.137798, 0.000000
637, 36.156086, 31.739813, 0.000000
638, 15.574566, 28.772171, 0.000000
639, 14.270156, 33.401455, 0.000000
640, 19.197874, 14.831763, 0.000000
641, 23.834555, 13.584104, 0.000000
642, 14.573972, 16.149872, 0.000000
643, 53.630692, 14.551671, 0.000000
644, 31.542791, 32.986591, 0.000000
645, 34.928688, 36.360924, 0.000000
646, 39.466530, 34.835224, 0.000000
647, 12.558761, 21.040222, 0.000000
648, 54.504570, 35.796017, 0.000000
649, 22.299461, 35.516956, 0.000000
650, 57.749313, 39.469868, 0.000000
651, 75.979828, 11.414931, 0.000000
652, 72.495850, 7.878512, 0.000000
653, 75.979828, 37.069870, 0.000000
654, 72.727303, 40.753269, 0.000000
655, 15.831728, 11.528029, 0.000000
656, 9.811841, 17.209520, 0.000000
657, 30.271959, 37.442322, 0.000000
658, 33.241306, 40.629345, 0.000000
659, 11.261057, 29.274597, 0.000000
660, 8.936619, 33.861782, 0.000000
661, 12.911281, 38.009064, 0.000000
662, 51.281834, 32.590343, 0.000000
663, 50.006088, 36.373844, 0.000000
664, 80.823746, 35.716888, 0.000000
665, 80.823784, 12.768267, 0.000000
666, 85.355782, 20.152966, 0.000000
667, 85.355782, 28.331835, 0.000000
668, 64.800903, 43.710293, 0.000000
669, 69.460396, 3.964427, 0.000000
670, 87.060684, 7.391543, 0.000000
671, 87.060532, 41.096176, 0.000000
672, 64.570412, 4.085783, 0.000000
673, 62.494473, 8.242741, 0.000000
674, 57.713158, 8.544573, 0.000000
675, 55.075066, 4.186144, 0.000000
676, 52.693050, 7.943076, 0.000000
677, 47.854305, 8.274338, 0.000000
678, 4.276433, 36.444828, 0.000000
679, 4.746374, 17.132845, 0.000000
680, 3.968793, 26.715704, 0.000000
681, 8.454574, 24.690430, 0.000000
682, 69.884026, 44.465000, 0.000000
683, 59.795197, 44.308540, 0.000000
684, 55.029442, 44.344318, 0.000000
685, 4.044322, 7.293979, 0.000000
686, 8.400365, 9.045287, 0.000000
687, 20.375053, 9.953675, 0.000000
688, 25.011395, 8.686623, 0.000000
689, 28.455002, 12.292592, 0.000000
690, 29.701481, 7.704987, 0.000000
691, 32.959332, 11.211775, 0.000000
692, 16.478643, 6.878088, 0.000000
693, 31.831978, 15.733117, 0.000000
694, 36.449333, 14.503597, 0.000000
695, 37.561871, 9.009056, 0.000000
696, 41.094471, 13.225062, 0.000000
697, 42.509445, 8.581471, 0.000000
698, 35.233410, 19.116781, 0.000000
699, 27.222006, 16.966755, 0.000000
700, 45.386734, 44.389530, 0.000000
701, 43.414303, 40.448414, 0.000000
702, 45.364677, 4.188619, 0.000000
703, 17.603697, 36.611370, 0.000000
704, 21.075029, 40.164448, 0.000000
705, 25.664846, 38.770641, 0.000000
706, 40.715332, 30.432110, 0.000000
707, 43.582798, 33.413353, 0.000000
708, 12.320064, 43.362633, 0.000000
709, 26.636608, 4.066194, 0.000000
710, 28.156130, 29.614130, 0.000000
711, 38.650486, 39.710583, 0.000000
712, 40.669861, 4.131127, 0.000000
713, 49.009121, 15.649108, 0.000000
714, 16.713360, 24.150852, 0.000000
715, 57.806099, 13.162266, 0.000000
716, 26.910805, 34.200977, 0.000000
717, 59.092823, 25.458475, 0.000000
718, 64.856171, 13.042437, 0.000000
719, 39.838936, 17.885118, 0.000000
720, 83.926949, 32.112354, 0.000000
721, 83.926949, 16.372444, 0.000000
722, 54.521393, 26.682659, 0.000000
723, 50.024448, 28.081963, 0.000000
724, 8.317740, 39.561703, 0.000000
725, 45.668884, 12.270569, 0.000000
726, 79.761795, 8.080851, 0.000000
727, 79.760269, 40.405224, 0.000000
728, 52.483143, 40.141762, 0.000000
729, 66.916626, 8.152014, 0.000000
730, 83.417931, 4.481474, 0.000000
731, 83.416077, 44.006271, 0.000000
732, 7.245969, 44.403259, 0.000000
733, 7.149927, 4.009667, 0.000000
734, 31.141081, 44.700916, 0.000000
735, 21.646017, 44.670433, 0.000000
736, 11.451131, 12.772408, 0.000000
737, 36.093777, 44.472717, 0.000000
738, 74.162689, 3.628880, 0.000000
739, 74.199898, 44.831635, 0.000000
740, 12.824718, 8.873495, 0.000000
741, 12.580572, 25.487350, 0.000000
742, 31.329124, 3.858989, 0.000000
743, 47.661911, 40.464855, 0.000000
744, 83.475754, 39.439186, 0.000000
745, 83.476723, 9.047628, 0.000000
746, 50.649174, 11.604272, 0.000000
747, 16.168928, 40.438507, 0.000000
748, 69.096054, 40.326275, 0.000000
749, 87.484070, 16.596155, 0.000000
750, 87.483818, 31.889162, 0.000000
751, 7.691541, 13.645613, 0.000000
752, 61.718327, 40.764587, 0.000000
753, 33.550529, 7.239091, 0.000000
754, 28.440948, 41.374763, 0.000000
755, 87.066833, 24.242399, 0.000000
756, 7.299787, 29.192867, 0.000000
757, 7.766963, 20.483860, 0.000000
758, 87.357544, 3.568198, 0.000000
759, 87.365898, 44.924847, 0.000000
760, 3.543201, 44.924847, 0.000000
761, 3.543201, 3.559955, 0.000000
762, 45.983055, 36.787521, 0.000000
763, 76.209473, 6.984708, 0.000000
764, 76.259338, 41.610111, 0.000000
765, 47.470974, 32.260101, 0.000000
766, 16.715498, 2.887396, 0.000000
767, 54.841995, 11.018613, 0.000000
768, 61.154629, 11.783638, 0.000000
769, 61.680157, 37.185375, 0.000000
770, 66.002098, 35.599674, 0.000000
771, 72.688217, 11.353337, 0.000000
772, 72.534348, 37.425709, 0.000000
773, 42.492100, 36.835140, 0.000000
774, 24.176996, 41.878559, 0.000000
775, 90.909103, 16.969681, 20.043493
776, 90.909103, 31.515120, 4.198907
777, 90.909103, 12.331491, 3.987797
778, 90.909103, 21.818159, 4.198907
779, 90.909103, 26.666639, 20.043493
780, 90.909103, 36.363602, 20.043493
781, 90.909103, 44.539223, 11.886827
782, 90.909103, 3.945576, 11.886827
783, 90.909103, 7.293265, 20.136843
784, 90.909103, 40.875473, 4.652166
785, 90.909103, 12.124624, 20.059052
786, 90.909103, 14.546011, 15.847179
787, 90.909103, 19.394014, 15.845018
788, 90.909103, 16.969681, 11.645679
789, 90.909103, 21.818159, 11.645679
790, 90.909103, 11.752425, 11.671797
791, 90.909103, 7.639369, 4.622008
792, 90.909103, 16.969681, 4.198907
793, 90.909103, 31.515120, 20.043493
794, 90.909103, 33.939362, 15.844586
795, 90.909103, 38.877567, 16.240927
796, 90.909103, 36.745274, 11.728046
797, 90.909103, 31.578732, 11.817914
798, 90.909103, 29.101482, 15.873292
799, 90.909103, 26.672951, 11.743637
800, 90.909103, 26.666639, 4.198907
801, 90.909103, 9.549860, 16.263865
802, 90.909103, 21.818176, 20.043566
803, 90.909103, 41.201298, 20.127367
804, 90.909103, 36.097210, 4.063341
805, 90.909103, 24.245237, 15.865781
806, 90.909103, 43.926678, 16.574848
807, 90.909103, 4.551319, 16.579479
808, 90.909103, 44.629265, 7.388922
809, 90.909103, 3.917999, 7.420063
810, 90.909103, 7.622545, 9.390627
811, 90.909103, 40.879822, 9.399838
812, 90.909103, 14.729317, 7.838858
813, 90.909103, 19.393921, 7.922293
814, 90.909103, 24.242399, 7.922293
815, 90.909103, 33.758884, 7.889530
816, 90.909103, 29.090879, 7.922293
817, 90.909103, 44.935467, 3.549334
818, 90.909103, 44.935467, 20.693066
819, 90.909103, 3.549334, 3.549334
820, 90.909103, 3.549334, 20.693066
821, 90.909103, 37.563904, 7.591034
822, 90.909103, 10.958703, 7.606677
823, 90.909103, 7.521199, 13.136394
824, 90.909103, 40.993713, 13.166098
825, 70.374405, 15.461265, 20.178850
826, 70.374405, 33.023537, 4.063550
827, 63.821152, 26.065861, 20.322683
828, 75.069443, 15.458391, 4.021414
829, 66.238426, 17.875380, 4.198802
830, 75.080200, 33.023537, 20.178850
831, 63.946163, 26.595299, 4.063550
832, 80.848503, 20.156998, 12.121200
833, 80.861435, 28.301992, 12.146303
834, 78.734840, 31.065447, 4.078917
835, 78.735619, 17.420044, 20.163675
836, 80.266052, 19.161879, 7.141877
837, 77.534157, 16.526274, 9.819791
838, 78.241295, 17.014654, 14.555577
839, 73.855629, 15.221793, 12.165302
840, 74.631058, 15.353071, 16.909420
841, 70.145126, 15.525931, 14.542280
842, 66.321602, 17.791702, 17.395395
843, 66.383804, 17.730526, 12.630796
844, 64.248299, 20.963520, 15.250803
845, 64.209282, 21.066273, 10.632459
846, 63.695690, 25.278959, 13.167537
847, 69.337738, 15.807038, 9.975362
848, 80.570076, 28.839716, 17.028400
849, 78.184891, 31.512829, 14.545388
850, 78.332344, 31.399769, 9.667466
851, 74.419044, 33.174503, 12.073117
852, 74.709297, 33.114613, 7.339859
853, 70.322052, 33.009338, 9.804333
854, 70.333595, 33.012497, 14.524566
855, 66.733719, 31.077707, 12.174531
856, 66.572418, 30.932831, 16.698643
857, 66.361923, 30.732887, 6.913424
858, 64.398438, 27.885822, 9.518165
859, 70.486443, 33.052792, 19.383438
860, 63.904312, 22.051659, 4.035214
861, 63.946163, 21.889502, 20.178850
862, 70.440216, 15.443894, 4.055103
863, 80.912025, 20.285789, 16.727230
864, 81.020370, 27.966572, 7.502491
865, 79.034866, 30.789087, 20.270435
866, 78.881279, 17.551134, 3.917075
867, 66.144936, 17.972075, 8.517185
868, 73.226936, 15.165240, 7.851943
869, 63.636398, 24.242399, 7.546079
870, 75.080200, 33.023537, 3.347625
871, 75.080200, 15.461265, 20.896959
872, 74.402412, 33.177635, 16.210382
873, 66.016411, 30.374971, 20.742132
874, 64.419189, 27.932903, 16.419998
875, 66.299065, 30.670637, 3.049623
876, 66.299065, 17.814163, 21.195803
877, 63.639751, 24.489206, 17.015226
878, 81.140999, 27.685375, 20.658163
879, 80.873344, 20.206755, 3.629864
880, 81.174835, 20.883282, 20.763674
881, 81.174835, 27.601517, 3.478726
882, 64.604584, 28.324795, 12.967672
883, 68.738106, 16.073509, 6.814468
884, 64.329636, 20.760490, 7.214388
885, 77.242638, 32.132656, 17.753880
886, 77.242638, 16.352142, 6.488521
887, 55.587006, 12.091464, 12.121200
888, 45.371986, 19.117092, 12.121200
889, 42.894588, 31.205662, 12.121200
890, 15.094469, 26.202894, 12.121200
891, 30.517260, 30.629749, 12.121200
892, 53.897461, 36.357796, 12.121200
893, 32.587875, 18.374729, 12.121200
894, 16.782724, 13.925802, 12.121200
895, 20.420732, 36.725925, 12.649674
896, 39.027508, 10.213222, 13.648611
897, 54.493031, 21.916418, 14.491799
898, 10.139475, 35.253136, 13.723751
899, 24.281942, 23.273790, 9.661431
900, 36.341282, 38.754459, 13.671747
901, 28.207695, 9.762257, 9.645101
902, 62.421093, 39.221581, 14.965168
903, 47.014732, 10.566631, 8.993242
904, 9.378741, 19.214743, 14.993365
905, 28.434750, 39.415894, 8.997761
906, 45.542931, 39.210358, 8.742886
907, 8.802921, 10.086531, 14.401441
908, 36.961906, 25.416204, 8.767811
909, 63.527794, 8.844977, 9.037424
910, 24.550419, 16.629440, 15.653400
911, 82.805275, 10.087448, 9.664015
912, 82.356720, 39.119335, 8.683388
913, 22.371136, 28.953083, 15.893386
914, 50.960308, 28.305458, 9.052928
915, 40.470608, 24.410757, 16.218435
916, 22.137953, 8.353206, 15.951700
917, 52.105850, 17.968943, 7.953003
918, 48.844875, 13.227599, 16.496471
919, 8.333448, 29.205891, 8.274109
920, 59.737221, 40.876163, 7.683170
921, 9.921431, 14.716346, 7.775919
922, 8.053860, 27.245726, 16.272018
923, 39.139969, 15.989890, 7.897752
924, 27.696806, 36.749294, 16.602251
925, 20.600645, 30.259455, 7.724800
926, 36.596218, 33.275444, 7.768416
927, 47.008331, 36.745277, 16.261311
928, 14.146809, 40.275906, 8.216154
929, 71.394440, 7.673193, 10.034089
930, 28.718557, 24.023403, 16.305176
931, 31.800674, 8.915086, 16.678076
932, 82.789864, 37.702999, 16.504387
933, 35.252705, 7.493048, 7.508866
934, 67.709747, 40.748020, 9.039238
935, 61.691368, 9.962795, 16.606422
936, 51.594696, 30.316233, 16.674782
937, 36.698906, 31.068512, 16.628325
938, 22.890596, 15.816774, 7.504599
939, 14.936543, 40.805798, 16.502232
940, 71.795982, 40.807148, 15.992619
941, 20.488298, 8.017472, 8.057393
942, 75.355682, 41.887726, 7.241143
943, 81.832932, 7.743162, 16.493296
944, 19.310791, 22.034792, 16.933716
945, 55.028709, 6.961829, 17.348272
946, 38.440689, 17.105682, 16.808039
947, 59.593174, 15.302294, 7.031953
948, 7.121957, 21.778662, 7.432810
949, 58.432091, 16.438814, 17.214029
950, 44.399658, 24.897112, 7.278218
951, 74.337349, 7.155330, 16.948393
952, 15.616668, 20.020079, 7.409551
953, 6.990193, 39.193378, 8.523737
954, 12.851178, 7.639296, 7.562387
955, 58.704712, 32.900322, 16.831905
956, 55.112709, 6.843613, 6.914531
957, 45.398003, 6.901346, 15.134113
958, 47.904449, 23.964994, 17.037739
959, 59.174427, 33.254925, 7.544632
960, 15.199882, 9.213363, 17.496559
961, 30.735565, 22.638950, 6.736938
962, 15.571379, 31.591751, 17.179464
963, 41.773666, 41.409538, 17.398760
964, 55.433067, 41.538750, 17.308691
965, 6.872091, 41.493519, 15.384654
966, 52.312462, 41.535027, 7.188608
967, 22.559061, 41.560093, 17.358177
968, 14.182498, 33.195950, 8.287385
969, 56.367218, 23.825632, 7.068089
970, 26.841572, 33.065182, 6.809172
971, 35.151321, 41.528313, 7.006078
972, 32.608158, 14.156412, 6.667230
973, 21.679012, 41.254345, 7.136605
974, 50.192986, 34.657669, 6.622977
975, 56.870190, 27.986671, 12.459133
976, 78.140251, 41.828644, 13.656273
977, 76.877510, 6.362531, 6.559213
978, 6.283875, 7.414841, 8.810828
979, 51.462570, 7.258662, 12.098322
980, 30.717487, 15.367898, 17.721289
981, 31.156975, 42.239639, 18.062521
982, 84.601082, 14.367489, 12.944390
983, 58.571316, 6.551450, 12.163564
984, 46.042412, 16.378674, 6.276981
985, 13.099933, 23.567074, 18.059187
986, 42.801651, 33.947353, 6.334095
987, 41.980816, 6.612752, 6.543611
988, 67.601837, 6.565773, 15.668212
989, 42.704784, 31.388222, 18.379911
990, 34.673717, 22.207886, 18.010796
991, 13.930820, 27.263517, 5.957519
992, 30.714827, 29.920359, 18.433361
993, 32.200180, 28.788031, 6.296593
994, 15.023516, 17.043245, 17.694511
995, 50.242554, 41.607758, 13.368027
996, 84.655296, 33.675713, 11.621017
997, 6.177945, 14.614106, 18.094372
998, 54.249283, 12.733467, 5.781635
999, 5.973030, 33.062481, 18.138498
1000, 44.285473, 18.952280, 18.343969
1001, 63.977921, 36.765373, 5.756551
1002, 37.326111, 5.970222, 18.184481
1003, 15.891165, 13.896074, 5.861964
1004, 5.950102, 5.920295, 18.256493
1005, 49.176208, 5.653327, 6.066588
1006, 40.409241, 42.654129, 10.552135
1007, 50.869732, 18.737795, 18.295189
1008, 16.472122, 5.868156, 12.356376
1009, 77.038254, 9.651289, 11.882925
1010, 19.619591, 24.460617, 5.738785
1011, 22.142406, 34.652035, 18.166016
1012, 54.248814, 12.610848, 18.646219
1013, 38.825890, 20.557133, 11.853615
1014, 84.862350, 42.622559, 13.229773
1015, 42.963310, 11.781728, 18.361439
1016, 58.477184, 27.138491, 18.069965
1017, 61.043480, 14.103830, 12.551774
1018, 33.506008, 35.989689, 18.317524
1019, 52.748821, 36.111782, 18.361628
1020, 26.454269, 27.189981, 5.673750
1021, 19.998055, 13.557575, 18.323933
1022, 56.689327, 17.655962, 11.365316
1023, 5.657723, 34.002781, 5.490793
1024, 55.901508, 42.958397, 11.622547
1025, 19.094719, 42.740849, 12.467885
1026, 34.258205, 26.433102, 13.912999
1027, 27.005455, 5.602840, 18.178925
1028, 19.100828, 35.873257, 5.867501
1029, 19.895020, 19.122759, 11.631522
1030, 25.078987, 33.022388, 12.495195
1031, 42.011364, 37.031849, 13.023082
1032, 26.065943, 11.806201, 18.805960
1033, 31.830130, 36.004662, 5.536378
1034, 50.031849, 23.246248, 5.914702
1035, 48.156494, 42.955688, 18.818102
1036, 36.107231, 20.501547, 5.650082
1037, 85.858665, 4.887805, 11.996885
1038, 77.163803, 38.407600, 18.502260
1039, 68.233643, 10.304552, 5.843131
1040, 39.339920, 36.154064, 18.140293
1041, 5.600951, 14.681395, 12.046916
1042, 84.757072, 14.828352, 6.707337
1043, 33.685581, 12.510584, 12.302514
1044, 40.429878, 28.728758, 5.525408
1045, 30.028048, 5.575779, 5.507879
1046, 36.530869, 11.834520, 18.800291
1047, 48.602757, 32.857742, 12.058773
1048, 66.374649, 43.026028, 17.527584
1049, 34.706005, 5.427176, 12.968124
1050, 85.392113, 32.400116, 17.755175
1051, 32.190876, 42.805721, 12.194749
1052, 5.727360, 22.274269, 18.539928
1053, 43.032913, 13.851743, 11.603965
1054, 43.085720, 43.159985, 5.219616
1055, 49.613392, 22.967041, 11.640894
1056, 27.676889, 15.462113, 10.849019
1057, 81.052811, 42.990967, 18.792603
1058, 63.525421, 35.532047, 19.135235
1059, 85.374268, 34.537868, 5.737982
1060, 85.796265, 14.542644, 18.647202
1061, 24.846270, 43.173969, 11.635900
1062, 5.609254, 23.271427, 12.828437
1063, 73.587311, 10.419745, 5.231552
1064, 60.500298, 5.479150, 5.528052
1065, 66.104584, 11.570884, 13.349867
1066, 22.339327, 12.654969, 12.216175
1067, 85.545036, 43.007217, 5.670989
1068, 85.545273, 5.467790, 5.607551
1069, 44.710957, 25.912130, 12.816954
1070, 49.654419, 5.516817, 18.710999
1071, 50.530827, 14.006307, 11.362420
1072, 27.926563, 17.778734, 5.621457
1073, 55.823097, 37.374756, 5.361092
1074, 41.738400, 20.307053, 5.359530
1075, 46.724648, 29.836004, 5.484890
1076, 31.478214, 36.173641, 12.461756
1077, 14.634957, 20.627657, 13.266512
1078, 24.536987, 21.257381, 18.831789
1079, 17.479525, 26.802074, 19.360794
1080, 11.231126, 5.367618, 16.332905
1081, 11.533295, 42.919449, 12.493808
1082, 10.243237, 38.137047, 18.859936
1083, 5.068845, 43.392685, 5.358303
1084, 78.347588, 37.284309, 5.135634
1085, 61.050423, 42.695919, 19.077030
1086, 5.439039, 33.218224, 11.160275
1087, 57.738514, 21.679731, 19.041306
1088, 71.621933, 5.177964, 5.023672
1089, 66.075867, 5.151733, 5.706751
1090, 28.946316, 43.409370, 5.155407
1091, 77.943359, 10.997240, 18.968468
1092, 36.454117, 40.826969, 18.799116
1093, 25.690765, 5.210854, 12.437403
1094, 63.270370, 43.337204, 11.263728
1095, 29.057728, 25.487167, 11.068004
1096, 5.524965, 11.951201, 5.481330
1097, 25.807732, 11.732550, 4.942829
1098, 78.884552, 36.507805, 12.174198
1099, 39.967918, 38.744743, 6.597836
1100, 67.665817, 37.828358, 13.767483
1101, 61.988857, 34.184956, 12.384770
1102, 62.205212, 4.959676, 19.184402
1103, 42.583118, 12.080486, 6.068590
1104, 11.411266, 13.016062, 18.738302
1105, 79.997818, 42.697945, 5.088562
1106, 52.980217, 24.472462, 19.142500
1107, 66.760796, 11.140455, 19.042273
1108, 37.239986, 11.853007, 4.829974
1109, 41.204189, 5.486411, 11.870135
1110, 37.806240, 29.817099, 11.598359
1111, 10.779675, 36.555916, 5.121879
1112, 23.463203, 20.751060, 4.733412
1113, 18.732178, 31.520306, 12.712048
1114, 58.635643, 10.375050, 8.303862
1115, 18.502119, 4.941618, 18.114014
1116, 85.989540, 28.548401, 10.254680
1117, 72.494812, 38.236065, 11.197909
1118, 59.066349, 22.542700, 11.613506
1119, 11.243098, 29.995152, 12.813304
1120, 20.421410, 26.491909, 11.541745
1121, 64.186783, 43.470459, 5.888620
1122, 80.045502, 5.128395, 11.192625
1123, 86.100540, 19.960447, 18.317076
1124, 75.042992, 43.101566, 19.383945
1125, 85.895447, 5.243601, 19.218872
1126, 78.947067, 11.404605, 4.939680
1127, 71.017456, 38.407211, 5.247337
1128, 11.460906, 14.611997, 12.987689
1129, 45.033962, 43.333389, 13.426368
1130, 68.239426, 38.202248, 19.141775
1131, 4.617397, 17.043167, 6.955656
1132, 72.142570, 43.653580, 11.379148
1133, 64.355598, 13.444626, 6.955828
1134, 85.883926, 18.975281, 10.179446
1135, 86.215576, 26.671225, 17.250257
1136, 26.116886, 27.492455, 19.303493
1137, 15.043823, 37.158310, 12.527645
1138, 17.114710, 36.476234, 18.871565
1139, 27.823172, 20.568411, 12.447409
1140, 44.010647, 26.452663, 19.465239
1141, 34.976170, 27.159002, 19.617243
1142, 55.423119, 29.331417, 5.482028
1143, 24.429703, 5.432148, 4.989449
1144, 10.651557, 23.431299, 11.081494
1145, 43.062206, 4.744001, 19.441216
1146, 53.631802, 15.791711, 14.846083
1147, 5.218360, 26.207031, 5.156908
1148, 46.190098, 4.961451, 10.324369
1149, 4.915896, 38.201164, 19.096003
1150, 56.377514, 18.965900, 5.037955
1151, 24.134871, 37.166889, 4.817194
1152, 9.963593, 43.469669, 7.440682
1153, 11.232334, 19.384829, 4.292266
1154, 73.041222, 11.262327, 19.333096
1155, 70.722336, 43.727917, 5.766470
1156, 48.268612, 43.930500, 4.841727
1157, 78.437126, 4.826896, 19.130919
1158, 86.034332, 41.456104, 18.207663
1159, 49.207371, 12.606975, 4.823893
1160, 23.856909, 24.196865, 14.686634
1161, 58.882946, 37.825966, 18.530802
1162, 10.696157, 30.836786, 19.183365
1163, 10.746519, 43.416294, 18.476929
1164, 63.593525, 4.947983, 12.616203
1165, 71.012230, 10.306828, 14.496854
1166, 24.970409, 28.414278, 10.370543
1167, 62.689671, 14.410489, 19.502729
1168, 86.470123, 19.393921, 5.093834
1169, 29.429657, 20.006884, 19.322584
1170, 47.656879, 32.527924, 19.117899
1171, 26.520777, 32.520859, 19.497839
1172, 86.510712, 10.362055, 5.310527
1173, 74.976212, 4.680408, 12.388279
1174, 4.554302, 5.996985, 13.372338
1175, 4.974958, 43.560146, 10.588701
1176, 16.816919, 31.144247, 4.495697
1177, 10.227502, 4.757466, 11.160402
1178, 13.380440, 9.945048, 12.106125
1179, 54.608624, 31.800255, 9.895001
1180, 16.971521, 5.301126, 5.084653
1181, 4.835259, 28.308937, 12.446928
1182, 86.609718, 29.090879, 5.271407
1183, 39.899349, 20.892410, 19.703440
1184, 9.017369, 5.121110, 4.860000
1185, 86.604416, 24.222700, 12.827363
1186, 70.585953, 4.678129, 19.331812
1187, 58.691921, 37.997196, 11.737843
1188, 10.631430, 11.402088, 4.135767
1189, 32.586605, 4.758949, 19.435694
1190, 28.377205, 11.798924, 14.289128
1191, 61.740688, 10.098616, 4.545419
1192, 36.856766, 43.843510, 14.056006
1193, 80.356499, 12.238439, 14.696022
1194, 56.404350, 43.847721, 5.258280
1195, 4.824337, 43.217529, 19.666241
1196, 30.349298, 4.476136, 10.482797
1197, 46.185722, 29.761524, 15.398028
1198, 25.216419, 37.980099, 12.487561
1199, 48.464596, 38.935486, 4.693328
1200, 10.004748, 20.119009, 19.830402
1201, 20.617350, 12.033112, 4.758415
1202, 4.196574, 10.332900, 19.074083
1203, 11.181579, 31.325006, 4.644179
1204, 4.449464, 37.209171, 14.138606
1205, 35.364307, 25.765484, 4.199191
1206, 26.415627, 42.529339, 20.046568
1207, 17.223528, 43.294964, 5.159333
1208, 86.066147, 9.999150, 14.969734
1209, 4.622342, 28.515116, 19.647346
1210, 20.761753, 18.222393, 19.680332
1211, 37.924812, 4.479453, 4.550094
1212, 39.602859, 28.219397, 20.157234
1213, 34.546898, 17.640989, 19.664425
1214, 43.845997, 35.839699, 19.750893
1215, 50.007233, 18.429075, 13.141307
1216, 33.363976, 22.919340, 10.754104
1217, 35.782658, 34.012291, 12.901686
1218, 27.161182, 28.280455, 14.663173
1219, 52.431694, 26.352976, 13.859919
1220, 58.484364, 10.838833, 20.084314
1221, 37.014061, 16.060385, 12.274528
1222, 20.850134, 30.173395, 20.299641
1223, 59.500656, 27.720793, 8.094114
1224, 82.688148, 11.057485, 19.912651
1225, 4.515836, 18.789879, 14.499495
1226, 30.527403, 10.352889, 4.244366

*ELEMENT, TYPE=C3D4, ELSET=ALL_ELEMENTS
1, 634, 938, 952, 1003
2, 903, 1005, 1103, 1159
3, 939, 967, 464, 1138
4, 800, 778, 814, 1182
5, 1078, 1079, 346, 1136
6, 617, 713, 615, 917
7, 778, 1168, 814, 1182
8, 348, 430, 918, 1000
9, 617, 713, 917, 984
10, 921, 1077, 952, 1144
11, 634, 952, 938, 1112
12, 903, 979, 956, 998
13, 299, 979, 945, 983
14, 741, 991, 681, 1153
15, 921, 1128, 1077, 1144
16, 934, 1001, 902, 1094
17, 533, 967, 939, 1025
18, 902, 1094, 1001, 1187
19, 902, 1001, 934, 1101
20, 640, 938, 633, 1112
21, 896, 987, 933, 1103
22, 912, 976, 535, 1105
23, 774, 551, 735, 973
24, 1001, 1101, 902, 1187
25, 920, 1001, 1094, 1187
26, 896, 1103, 933, 1108
27, 348, 430, 442, 918
28, 548, 1085, 1024, 1094
29, 921, 1144, 952, 1153
30, 348, 1000, 918, 1015
31, 681, 991, 948, 1153
32, 903, 998, 956, 1159
33, 464, 939, 312, 967
34, 535, 976, 912, 1014
35, 634, 640, 938, 1003
36, 811, 821, 796, 912
37, 312, 939, 533, 967
38, 520, 1061, 981, 1206
39, 570, 976, 942, 1105
40, 921, 904, 1128, 1144
41, 297, 983, 945, 1102
42, 887, 918, 979, 1012
43, 796, 912, 996, 1014
44, 918, 1012, 463, 1070
45, 617, 984, 917, 1034
46, 606, 977, 226, 1068
47, 948, 991, 681, 1147
48, 903, 1005, 987, 1103
49, 918, 394, 1015, 1070
50, 933, 1103, 987, 1108
51, 570, 535, 976, 1105
52, 322, 1007, 949, 1012
53, 626, 693, 1036, 1072
54, 348, 918, 442, 1015
55, 287, 1027, 1189, 1196
56, 551, 973, 774, 1090
57, 811, 912, 796, 1014
58, 677, 1103, 1005, 1159
59, 911, 1068, 977, 1126
60, 617, 984, 1034, 1074
61, 981, 1061, 1051, 1198
62, 889, 937, 915, 989
63, 619, 617, 618, 1074
64, 1048, 1094, 541, 1132
65, 249, 988, 929, 1164
66, 908, 950, 1044, 1110
67, 551, 774, 587, 1090
68, 906, 966, 892, 974
69, 979, 998, 903, 1071
70, 906, 892, 966, 995
71, 906, 892, 995, 1047
72, 925, 970, 635, 1151
73, 313, 493, 964, 1035
74, 944, 1079, 1078, 1136
75, 1024, 1085, 902, 1094
76, 796, 912, 821, 996
77, 908, 1069, 950, 1110
78, 904, 921, 948, 1144
79, 617, 1034, 950, 1074
80, 617, 950, 618, 1074
81, 821, 996, 912, 1059
82, 906, 1129, 995, 1156
83, 887, 998, 979, 1071
84, 987, 1005, 677, 1103
85, 887, 979, 945, 1012
86, 617, 917, 615, 1034
87, 895, 1030, 1028, 1151
88, 915, 937, 889, 1110
89, 945, 918, 979, 1070
90, 903, 956, 1005, 1159
91, 1077, 1128, 904, 1144
92, 617, 618, 950, 1034
93, 855, 1100, 1001, 1101
94, 537, 570, 535, 976
95, 902, 934, 1100, 1101
96, 941, 1008, 236, 1093
97, 925, 635, 1028, 1151
98, 685, 168, 761, 1184
99, 977, 1068, 726, 1126
100, 981, 1051, 924, 1198
101, 972, 1036, 693, 1072
102, 888, 984, 950, 1034
103, 548, 544, 1085, 1094
104, 904, 948, 921, 1041
105, 892, 906, 974, 1047
106, 898, 968, 1086, 1111
107, 460, 380, 927, 1035
108, 945, 979, 918, 1012
109, 910, 1032, 416, 1210
110, 1033, 1090, 657, 1151
111, 956, 979, 903, 1005
112, 960, 1080, 457, 1104
113, 254, 299, 945, 983
114, 968, 919, 1086, 1111
115, 380, 1019, 927, 1035
116, 322, 360, 1007, 1012
117, 944, 913, 1079, 1136
118, 794, 932, 795, 996
119, 934, 1094, 1048, 1132
120, 884, 947, 1118, 1150
121, 520, 1051, 981, 1061
122, 952, 1077, 921, 1128
123, 587, 774, 551, 735
124, 956, 979, 299, 983
125, 995, 1129, 527, 1156
126, 888, 917, 984, 1034
127, 918, 1015, 957, 1070
128, 894, 916, 960, 1008
129, 944, 913, 1136, 1160
130, 592, 947, 860, 1150
131, 169, 953, 678, 1083
132, 971, 1033, 926, 1076
133, 773, 1099, 986, 1199
134, 895, 925, 1028, 1030
135, 974, 1075, 662, 1142
136, 615, 643, 917, 1159
137, 926, 637, 1044, 1205
138, 926, 645, 1033, 1099
139, 205, 275, 302, 1184
140, 887, 956, 979, 998
141, 685, 978, 168, 1184
142, 630, 635, 925, 1020
143, 1027, 931, 1189, 1196
144, 915, 1069, 908, 1110
145, 542, 541, 1048, 1094
146, 896, 1043, 923, 1108
147, 957, 1070, 1015, 1145
148, 966, 995, 528, 1156
149, 533, 519, 967, 1025
150, 346, 1078, 944, 1079
151, 648, 974, 662, 1142
152, 520, 517, 1061, 1206
153, 657, 1090, 754, 1151
154, 926, 993, 637, 1205
155, 430, 918, 1000, 1007
156, 865, 932, 885, 1038
157, 678, 953, 169, 1023
158, 649, 1028, 635, 1151
159, 824, 796, 795, 1014
160, 168, 205, 761, 1184
161, 894, 916, 1008, 1066
162, 342, 990, 930, 1141
163, 944, 1136, 1078, 1160
164, 637, 993, 926, 1033
165, 615, 917, 713, 1159
166, 634, 640, 633, 1112
167, 643, 998, 917, 1159
168, 1001, 1100, 934, 1101
169, 422, 967, 924, 1011
170, 888, 917, 1034, 1055
171, 1049, 1189, 931, 1196
172, 634, 938, 640, 1112
173, 908, 1013, 950, 1069
174, 810, 790, 822, 1172
175, 1030, 1151, 895, 1198
176, 312, 565, 452, 967
177, 919, 991, 948, 1147
178, 887, 945, 935, 1220
179, 896, 923, 1103, 1108
180, 701, 1099, 773, 1199
181, 532, 533, 939, 1025
182, 908, 915, 1013, 1069
183, 945, 1012, 918, 1070
184, 548, 1024, 544, 1094
185, 938, 1003, 640, 1201
186, 606, 226, 730, 1068
187, 158, 1116, 814, 1182
188, 698, 626, 693, 1036
189, 896, 933, 1043, 1108
190, 575, 399, 1048, 1124
191, 358, 416, 1032, 1210
192, 910, 980, 416, 1032
193, 830, 859, 489, 1038
194, 544, 572, 1085, 1094
195, 416, 980, 910, 1169
196, 726, 1068, 745, 1126
197, 888, 918, 1000, 1053
198, 940, 1038, 489, 1130
199, 177, 208, 1174, 1202
200, 814, 1168, 157, 1182
201, 630, 925, 1010, 1020
202, 986, 1031, 889, 1047
203, 1044, 1074, 908, 1205
204, 921, 948, 1144, 1153
205, 821, 912, 811, 1067
206, 655, 1003, 954, 1180
207, 887, 949, 1012, 1220
208, 924, 967, 422, 1206
209, 193, 978, 275, 1184
210, 887, 1012, 945, 1220
211, 794, 795, 796, 996
212, 1015, 1070, 394, 1145
213, 912, 1059, 744, 1067
214, 821, 1059, 912, 1067
215, 676, 956, 998, 1159
216, 906, 1054, 1129, 1156
217, 631, 1074, 719, 1103
218, 637, 644, 993, 1033
219, 671, 744, 1059, 1067
220, 906, 995, 927, 1047
221, 272, 945, 299, 979
222, 887, 935, 949, 1220
223, 905, 1090, 1033, 1151
224, 648, 1073, 974, 1142
225, 548, 544, 572, 1085
226, 193, 275, 205, 1184
227, 991, 1144, 948, 1153
228, 421, 464, 967, 1138
229, 615, 713, 643, 1159
230, 645, 926, 646, 1099
231, 971, 1033, 645, 1099
232, 911, 982, 790, 1172
233, 859, 489, 1038, 1130
234, 949, 1007, 322, 1087
235, 394, 918, 463, 1070
236, 961, 626, 1036, 1072
237, 342, 930, 990, 1169
238, 744, 1059, 912, 1084
239, 1023, 1086, 919, 1111
240, 646, 986, 926, 1044
241, 719, 1074, 923, 1103
242, 685, 168, 978, 1096
243, 436, 413, 946, 1000
244, 263, 249, 929, 1164
245, 903, 957, 918, 1053
246, 574, 735, 551, 973
247, 916, 1008, 941, 1093
248, 442, 918, 394, 1015
249, 489, 940, 371, 1038
250, 592, 604, 860, 947
251, 416, 1078, 910, 1210
252, 884, 1118, 969, 1150
253, 889, 914, 1069, 1075
254, 493, 401, 313, 964
255, 189, 678, 169, 1023
256, 918, 1015, 1000, 1053
257, 941, 1003, 954, 1178
258, 903, 1053, 987, 1109
259, 889, 1031, 937, 1040
260, 342, 930, 992, 1141
261, 613, 1121, 1001, 1127
262, 285, 297, 223, 945
263, 267, 287, 1189, 1196
264, 676, 1005, 956, 1159
265, 894, 1003, 941, 1178
266, 740, 655, 954, 1180
267, 243, 1068, 977, 1122
268, 783, 785, 1208, 1224
269, 285, 392, 316, 945
270, 914, 889, 1047, 1075
271, 646, 926, 637, 1044
272, 902, 1024, 964, 1085
273, 527, 528, 995, 1156
274, 896, 987, 1053, 1109
275, 889, 986, 926, 1031
276, 635, 970, 925, 1020
277, 889, 914, 1047, 1069
278, 285, 945, 316, 1102
279, 252, 983, 297, 1102
280, 575, 1048, 540, 1124
281, 263, 929, 1089, 1164
282, 896, 1053, 987, 1103
283, 790, 982, 911, 1208
284, 887, 979, 918, 1071
285, 762, 765, 974, 986
286, 935, 945, 887, 983
287, 918, 957, 903, 979
288, 898, 1086, 953, 1111
289, 937, 1031, 889, 1217
290, 713, 917, 984, 1159
291, 960, 372, 1021, 1104
292, 399, 1048, 940, 1130
293, 845, 947, 1017, 1022
294, 783, 1208, 1125, 1224
295, 894, 960, 916, 1021
296, 177, 1174, 907, 1202
297, 808, 781, 534, 1067
298, 898, 968, 919, 1086
299, 921, 907, 978, 1178
300, 701, 1054, 1099, 1199
301, 1048, 1100, 934, 1132
302, 906, 995, 966, 1156
303, 285, 223, 392, 945
304, 889, 937, 989, 1040
305, 332, 322, 360, 1007
306, 903, 957, 1053, 1109
307, 649, 636, 635, 1028
308, 932, 996, 794, 1050
309, 548, 964, 1024, 1085
310, 565, 312, 533, 967
311, 1004, 1080, 907, 1104
312, 940, 1048, 399, 1124
313, 177, 907, 1041, 1202
314, 891, 926, 993, 1033
315, 898, 953, 928, 1111
316, 592, 604, 947, 1150
317, 890, 985, 962, 1119
318, 543, 541, 1094, 1132
319, 493, 555, 964, 1035
320, 612, 169, 678, 1083
321, 814, 1134, 158, 1168
322, 906, 1031, 986, 1047
323, 328, 932, 780, 1050
324, 762, 773, 986, 1199
325, 328, 780, 932, 1158
326, 769, 752, 920, 1001
327, 890, 968, 925, 991
328, 860, 884, 969, 1150
329, 937, 1040, 354, 1212
330, 393, 463, 1012, 1070
331, 711, 1054, 971, 1099
332, 948, 1041, 904, 1225
333, 921, 978, 954, 1178
334, 952, 1144, 991, 1153
335, 655, 1003, 1180, 1201
336, 894, 952, 921, 1128
337, 416, 910, 1078, 1169
338, 984, 1074, 631, 1103
339, 860, 947, 884, 1150
340, 406, 980, 931, 1032
341, 865, 932, 381, 1050
342, 705, 657, 754, 1151
343, 398, 458, 985, 1162
344, 267, 1189, 1049, 1196
345, 824, 811, 796, 1014
346, 946, 1000, 413, 1015
347, 915, 1000, 888, 1069
348, 926, 1031, 1099, 1217
349, 962, 1119, 985, 1162
350, 829, 860, 604, 947
351, 403, 457, 1080, 1104
352, 917, 998, 643, 1150
353, 371, 940, 489, 1130
354, 518, 1061, 571, 1090
355, 897, 969, 917, 1055
356, 855, 853, 1001, 1100
357, 297, 945, 285, 1102
358, 958, 1140, 1170, 1197
359, 893, 972, 961, 1036
360, 685, 1096, 978, 1184
361, 764, 739, 942, 1105
362, 898, 1111, 928, 1137
363, 740, 954, 655, 1188
364, 237, 941, 236, 1093
365, 894, 1008, 941, 1066
366, 916, 1021, 960, 1115
367, 950, 984, 888, 1074
368, 354, 937, 992, 1018
369, 950, 1013, 888, 1069
370, 948, 991, 919, 1144
371, 994, 1021, 372, 1104
372, 644, 970, 710, 993
373, 921, 952, 894, 1003
374, 1079, 1136, 913, 1222
375, 986, 1099, 906, 1199
376, 865, 381, 932, 1038
377, 918, 1007, 430, 1012
378, 920, 769, 1001, 1073
379, 302, 761, 205, 1184
380, 935, 887, 949, 1017
381, 829, 884, 860, 947
382, 950, 1034, 984, 1074
383, 897, 917, 969, 1022
384, 888, 1000, 946, 1053
385, 954, 1003, 655, 1188
386, 845, 884, 947, 1118
387, 516, 1061, 973, 1090
388, 987, 1053, 903, 1103
389, 957, 979, 918, 1070
390, 898, 968, 1111, 1137
391, 1000, 1015, 946, 1053
392, 254, 299, 272, 945
393, 774, 1090, 973, 1151
394, 891, 926, 1033, 1076
395, 937, 1040, 1031, 1217
396, 747, 928, 1028, 1207
397, 681, 1147, 991, 1203
398, 403, 1080, 1004, 1104
399, 158, 1134, 814, 1185
400, 896, 923, 1043, 1221
401, 892, 955, 936, 1179
402, 535, 1014, 912, 1067
403, 615, 917, 643, 1150
404, 875, 598, 959, 1001
405, 308, 916, 1027, 1115
406, 961, 1020, 627, 1112
407, 982, 1042, 790, 1172
408, 895, 928, 973, 1028
409, 780, 932, 795, 1050
410, 952, 991, 647, 1153
411, 900, 1099, 1031, 1217
412, 952, 1029, 1010, 1120
413, 926, 889, 1031, 1217
414, 921, 1041, 948, 1131
415, 940, 1100, 1048, 1132
416, 1022, 1118, 947, 1150
417, 264, 956, 675, 1005
418, 543, 1094, 934, 1132
419, 674, 998, 956, 1114
420, 542, 543, 541, 1094
421, 915, 958, 1000, 1069
422, 532, 519, 533, 1025
423, 888, 1034, 950, 1055
424, 762, 986, 974, 1199
425, 675, 593, 212, 1005
426, 845, 947, 867, 1017
427, 888, 1013, 950, 1074
428, 970, 1151, 1030, 1198
429, 915, 888, 1000, 1013
430, 741, 647, 991, 1153
431, 888, 1000, 958, 1069
432, 340, 990, 342, 1141
433, 1021, 1029, 994, 1210
434, 890, 952, 1010, 1120
435, 837, 982, 911, 1042
436, 991, 1147, 919, 1203
437, 932, 996, 912, 1014
438, 345, 1078, 346, 1136
439, 406, 408, 931, 980
440, 958, 1170, 936, 1197
441, 678, 953, 724, 1083
442, 844, 845, 1017, 1118
443, 929, 909, 1089, 1164
444, 363, 354, 1040, 1212
445, 671, 1059, 784, 1067
446, 911, 1042, 982, 1172
447, 243, 226, 977, 1068
448, 320, 1080, 960, 1115
449, 388, 785, 783, 1224
450, 524, 971, 737, 1054
451, 393, 1012, 945, 1070
452, 421, 464, 312, 967
453, 890, 925, 968, 1113
454, 898, 928, 953, 1081
455, 295, 929, 1088, 1089
456, 933, 987, 896, 1109
457, 941, 1093, 237, 1143
458, 850, 912, 1059, 1084
459, 970, 993, 644, 1033
460, 332, 322, 1007, 1087
461, 845, 947, 1022, 1118
462, 535, 1067, 912, 1105
463, 915, 889, 989, 1197
464, 845, 1022, 1017, 1118
465, 888, 946, 1013, 1053
466, 928, 895, 973, 1025
467, 950, 1044, 620, 1074
468, 625, 627, 961, 1020
469, 915, 989, 937, 1212
470, 751, 1096, 921, 1131
471, 998, 1114, 674, 1191
472, 527, 1129, 1054, 1156
473, 566, 995, 966, 1024
474, 374, 981, 924, 1206
475, 677, 697, 987, 1103
476, 551, 516, 973, 1090
477, 891, 993, 970, 1033
478, 458, 1079, 985, 1162
479, 919, 1111, 968, 1203
480, 540, 1048, 940, 1124
481, 896, 923, 1053, 1103
482, 371, 1038, 940, 1124
483, 177, 978, 1041, 1174
484, 994, 1021, 894, 1029
485, 554, 942, 739, 1105
486, 891, 992, 924, 1171
487, 518, 1051, 1061, 1090
488, 299, 956, 281, 979
489, 891, 924, 992, 1076
490, 821, 784, 1059, 1067
491, 177, 1041, 907, 1174
492, 272, 979, 259, 1070
493, 921, 978, 907, 1041
494, 928, 1111, 968, 1137
495, 891, 924, 1030, 1171
496, 612, 678, 724, 1083
497, 934, 1001, 853, 1100
498, 918, 979, 903, 1071
499, 647, 952, 714, 991
500, 891, 1171, 1030, 1218
501, 647, 714, 741, 991
502, 212, 264, 675, 1005
503, 912, 1014, 811, 1067
504, 1051, 1076, 924, 1198
505, 406, 931, 407, 1032
506, 254, 945, 297, 983
507, 178, 1041, 978, 1096
508, 646, 926, 986, 1099
509, 928, 1025, 513, 1081
510, 955, 1019, 365, 1161
511, 630, 628, 635, 1020
512, 1001, 1121, 934, 1127
513, 744, 1084, 912, 1105
514, 961, 972, 893, 1072
515, 708, 1111, 928, 1152
516, 804, 784, 671, 1059
517, 592, 860, 969, 1150
518, 445, 313, 964, 1035
519, 401, 493, 549, 964
520, 388, 783, 1125, 1224
521, 404, 1021, 916, 1115
522, 236, 941, 237, 1008
523, 927, 995, 892, 1047
524, 537, 976, 535, 1014
525, 850, 912, 996, 1059
526, 442, 463, 394, 918
527, 814, 158, 157, 1168
528, 696, 631, 719, 1103
529, 896, 1015, 1002, 1145
530, 837, 911, 982, 1193
531, 308, 916, 405, 1027
532, 787, 982, 1123, 1134
533, 422, 1011, 924, 1171
534, 734, 971, 578, 1090
535, 589, 524, 737, 1054
536, 896, 957, 1015, 1145
537, 529, 528, 966, 995
538, 1004, 1104, 907, 1202
539, 715, 947, 998, 1191
540, 906, 1099, 1054, 1199
541, 646, 637, 706, 1044
542, 158, 814, 157, 1182
543, 946, 1000, 888, 1013
544, 613, 748, 1121, 1127
545, 808, 811, 781, 1067
546, 769, 601, 1001, 1073
547, 398, 985, 922, 1162
548, 249, 929, 988, 1173
549, 985, 1119, 922, 1162
550, 354, 992, 361, 1018
551, 890, 1113, 1079, 1120
552, 950, 1013, 908, 1074
553, 941, 1008, 916, 1066
554, 877, 1087, 1016, 1118
555, 937, 1018, 354, 1040
556, 316, 945, 391, 1102
557, 795, 932, 780, 1158
558, 354, 992, 937, 1141
559, 630, 1010, 628, 1020
560, 891, 992, 1171, 1218
561, 555, 995, 964, 1035
562, 342, 992, 930, 1136
563, 926, 1110, 889, 1217
564, 533, 939, 312, 1163
565, 955, 882, 975, 1101
566, 1082, 1138, 356, 1162
567, 795, 932, 794, 1050
568, 924, 1018, 992, 1076
569, 355, 1079, 458, 1162
570, 360, 430, 1007, 1012
571, 518, 1051, 520, 1061
572, 974, 986, 765, 1075
573, 436, 348, 413, 1000
574, 924, 981, 374, 1018
575, 529, 527, 528, 995
576, 885, 932, 865, 1050
577, 955, 975, 936, 1179
578, 363, 1040, 989, 1212
579, 351, 985, 944, 994
580, 744, 611, 671, 1059
581, 896, 1053, 957, 1109
582, 977, 1068, 911, 1122
583, 769, 752, 650, 920
584, 404, 960, 1021, 1115
585, 714, 991, 952, 1010
586, 399, 940, 465, 1130
587, 894, 1021, 916, 1066
588, 584, 555, 995, 1024
589, 715, 998, 674, 1191
590, 957, 1015, 918, 1053
591, 919, 968, 898, 1119
592, 198, 1023, 919, 1147
593, 962, 1138, 1082, 1162
594, 915, 1069, 889, 1197
595, 950, 908, 1044, 1074
596, 938, 952, 1029, 1112
597, 342, 990, 340, 1169
598, 926, 1031, 986, 1099
599, 929, 988, 909, 1164
600, 1079, 1113, 913, 1120
601, 907, 1041, 978, 1174
602, 954, 978, 921, 1188
603, 833, 1116, 1050, 1135
604, 952, 1003, 938, 1029
605, 1029, 1056, 938, 1139
606, 744, 912, 1067, 1105
607, 374, 924, 1018, 1171
608, 933, 1043, 901, 1049
609, 898, 1082, 962, 1138
610, 493, 555, 549, 964
611, 158, 814, 1116, 1185
612, 889, 989, 1031, 1040
613, 918, 1012, 887, 1146
614, 914, 1075, 974, 1142
615, 430, 463, 918, 1012
616, 804, 671, 611, 1059
617, 919, 1023, 198, 1086
618, 1036, 908, 1074, 1205
619, 445, 964, 1019, 1035
620, 374, 924, 422, 1206
621, 399, 465, 940, 1124
622, 1003, 1153, 736, 1188
623, 899, 1029, 938, 1139
624, 1101, 1179, 955, 1187
625, 894, 1077, 952, 1128
626, 299, 265, 956, 983
627, 915, 1000, 946, 1013
628, 321, 949, 309, 1167
629, 374, 1018, 361, 1171
630, 811, 1014, 781, 1067
631, 972, 1036, 923, 1108
632, 1048, 1094, 934, 1100
633, 909, 988, 929, 1065
634, 295, 263, 929, 1089
635, 892, 955, 1179, 1187
636, 762, 707, 765, 986
637, 963, 1035, 418, 1214
638, 901, 933, 1049, 1196
639, 614, 1034, 615, 1150
640, 968, 1111, 1028, 1176
641, 898, 928, 1081, 1137
642, 894, 938, 1003, 1029
643, 891, 1033, 970, 1076
644, 408, 407, 406, 931
645, 646, 645, 637, 926
646, 992, 1018, 937, 1217
647, 715, 767, 674, 998
648, 960, 1021, 994, 1104
649, 318, 955, 365, 1161
650, 764, 942, 654, 1084
651, 234, 1008, 941, 1180
652, 250, 1173, 988, 1186
653, 460, 1035, 927, 1214
654, 335, 958, 334, 1000
655, 891, 992, 937, 1217
656, 272, 945, 979, 1070
657, 263, 249, 295, 929
658, 910, 1021, 1029, 1066
659, 872, 1038, 1098, 1117
660, 177, 978, 178, 1041
661, 910, 1029, 1021, 1210
662, 703, 639, 1028, 1111
663, 281, 979, 956, 1005
664, 294, 269, 236, 1093
665, 917, 887, 998, 1022
666, 767, 956, 674, 998
667, 677, 725, 1103, 1159
668, 894, 1029, 1021, 1066
669, 614, 616, 615, 1034
670, 961, 1036, 972, 1072
671, 614, 969, 616, 1034
672, 962, 985, 890, 1079
673, 905, 1061, 1051, 1090
674, 773, 762, 701, 1199
675, 637, 926, 645, 1033
676, 873, 955, 874, 1016
677, 282, 933, 1049, 1109
678, 936, 955, 892, 1019
679, 795, 1014, 932, 1158
680, 889, 1069, 950, 1075
681, 954, 1003, 941, 1180
682, 891, 1026, 993, 1110
683, 249, 988, 250, 1173
684, 462, 1125, 943, 1224
685, 440, 958, 1140, 1170
686, 630, 925, 635, 1176
687, 844, 949, 1087, 1118
688, 335, 958, 1000, 1140
689, 938, 1072, 899, 1139
690, 498, 781, 1014, 1067
691, 890, 991, 925, 1120
692, 391, 1102, 945, 1220
693, 895, 967, 939, 1138
694, 335, 1000, 336, 1140
695, 1050, 1116, 798, 1135
696, 348, 413, 1000, 1015
697, 358, 350, 416, 1210
698, 177, 208, 195, 1174
699, 764, 942, 739, 1155
700, 696, 719, 923, 1103
701, 764, 739, 654, 1155
702, 319, 936, 955, 1016
703, 882, 874, 955, 975
704, 910, 1056, 1029, 1139
705, 921, 1153, 1003, 1188
706, 959, 1001, 601, 1073
707, 833, 996, 1050, 1116
708, 1023, 1111, 919, 1203
709, 885, 849, 932, 1050
710, 566, 529, 966, 995
711, 903, 1071, 998, 1159
712, 460, 418, 1035, 1214
713, 498, 534, 781, 1067
714, 711, 971, 645, 1099
715, 1028, 1111, 639, 1176
716, 837, 1042, 911, 1126
717, 590, 948, 180, 1131
718, 955, 975, 874, 1016
719, 517, 967, 1061, 1206
720, 918, 1053, 888, 1071
721, 371, 940, 465, 1124
722, 234, 237, 941, 1008
723, 615, 1034, 917, 1150
724, 797, 798, 1050, 1116
725, 906, 986, 974, 1047
726, 889, 950, 1044, 1075
727, 674, 1114, 956, 1191
728, 889, 989, 927, 1031
729, 440, 936, 958, 1170
730, 901, 1066, 941, 1093
731, 905, 1076, 1051, 1198
732, 979, 1005, 259, 1148
733, 893, 990, 930, 1169
734, 889, 1069, 915, 1110
735, 308, 404, 916, 1115
736, 787, 982, 1060, 1123
737, 391, 316, 392, 945
738, 953, 1086, 1023, 1111
739, 234, 1008, 954, 1177
740, 436, 1000, 946, 1183
741, 1002, 1015, 414, 1145
742, 991, 1010, 925, 1120
743, 976, 1098, 1038, 1117
744, 941, 894, 1066, 1201
745, 888, 923, 1013, 1074
746, 993, 1026, 908, 1110
747, 757, 948, 590, 1131
748, 849, 996, 932, 1050
749, 422, 421, 967, 1011
750, 988, 1173, 951, 1186
751, 895, 928, 1028, 1137
752, 621, 1036, 1074, 1205
753, 916, 1021, 404, 1032
754, 908, 1026, 915, 1110
755, 975, 1101, 882, 1223
756, 319, 955, 936, 1019
757, 694, 1036, 972, 1108
758, 942, 976, 912, 1105
759, 553, 963, 1092, 1192
760, 636, 630, 635, 1176
761, 309, 949, 861, 1167
762, 1041, 948, 1131, 1225
763, 995, 1019, 964, 1035
764, 566, 529, 995, 1024
765, 915, 888, 1013, 1069
766, 923, 888, 984, 1074
767, 374, 433, 422, 924
768, 941, 1180, 1003, 1201
769, 872, 940, 1038, 1117
770, 780, 795, 794, 1050
771, 944, 994, 1029, 1210
772, 715, 998, 947, 1150
773, 531, 1035, 963, 1129
774, 986, 1044, 889, 1110
775, 945, 983, 935, 1102
776, 1048, 1085, 572, 1094
777, 694, 923, 719, 1036
778, 259, 979, 281, 1005
779, 797, 1050, 996, 1116
780, 785, 1060, 1208, 1224
781, 396, 997, 188, 1052
782, 446, 1102, 988, 1186
783, 371, 465, 940, 1130
784, 333, 334, 958, 1007
785, 308, 1027, 221, 1115
786, 964, 995, 555, 1024
787, 893, 930, 990, 1216
788, 234, 236, 237, 1008
789, 565, 533, 519, 967
790, 614, 969, 1034, 1150
791, 898, 1137, 1082, 1138
792, 461, 932, 444, 1057
793, 1010, 1029, 952, 1112
794, 215, 1045, 296, 1211
795, 931, 1027, 407, 1032
796, 162, 1023, 198, 1147
797, 877, 844, 1087, 1118
798, 918, 888, 1000, 1215
799, 252, 254, 297, 983
800, 650, 769, 920, 1073
801, 512, 928, 1081, 1152
802, 898, 962, 1137, 1138
803, 328, 932, 461, 1158
804, 554, 739, 607, 1105
805, 894, 1008, 960, 1178
806, 659, 681, 991, 1203
807, 786, 787, 982, 1060
808, 924, 1051, 981, 1076
809, 830, 872, 859, 1038
810, 904, 1041, 921, 1128
811, 320, 960, 409, 1115
812, 891, 993, 926, 1110
813, 677, 987, 702, 1005
814, 940, 1048, 540, 1132
815, 392, 945, 223, 1070
816, 898, 962, 1082, 1162
817, 931, 1027, 1093, 1196
818, 946, 1000, 915, 1183
819, 330, 1058, 1085, 1130
820, 752, 920, 1001, 1121
821, 588, 742, 215, 1045
822, 708, 928, 747, 1207
823, 894, 941, 1008, 1178
824, 917, 998, 887, 1071
825, 417, 306, 562, 963
826, 710, 993, 970, 1020
827, 188, 1052, 997, 1225
828, 941, 1003, 894, 1201
829, 895, 1151, 973, 1198
830, 937, 989, 1040, 1212
831, 1093, 1190, 931, 1196
832, 955, 1101, 975, 1179
833, 764, 654, 653, 1084
834, 755, 157, 1168, 1182
835, 447, 943, 462, 1125
836, 928, 513, 1025, 1207
837, 847, 1039, 929, 1065
838, 1062, 1147, 175, 1181
839, 1113, 1119, 962, 1137
840, 430, 1000, 334, 1007
841, 884, 867, 845, 947
842, 986, 1047, 889, 1075
843, 950, 1069, 914, 1075
844, 675, 956, 676, 1005
845, 1084, 1098, 942, 1117
846, 976, 1038, 940, 1117
847, 854, 872, 940, 1130
848, 641, 633, 938, 1072
849, 273, 1109, 1002, 1145
850, 938, 1066, 894, 1201
851, 470, 931, 1046, 1189
852, 901, 941, 1066, 1097
853, 948, 904, 1062, 1225
854, 363, 989, 423, 1212
855, 335, 334, 336, 1000
856, 634, 1010, 952, 1112
857, 915, 908, 1013, 1026
858, 431, 944, 351, 985
859, 886, 1042, 837, 1126
860, 893, 990, 946, 1013
861, 890, 1079, 944, 1120
862, 309, 861, 949, 1087
863, 764, 607, 739, 1105
864, 741, 659, 681, 991
865, 890, 952, 991, 1010
866, 890, 1010, 991, 1120
867, 894, 1003, 952, 1029
868, 901, 1190, 1093, 1196
869, 850, 996, 912, 1098
870, 408, 931, 980, 1046
871, 898, 953, 965, 1081
872, 273, 256, 1109, 1145
873, 978, 1041, 921, 1096
874, 988, 1102, 446, 1107
875, 837, 1009, 911, 1193
876, 513, 512, 928, 1081
877, 897, 969, 1055, 1219
878, 804, 821, 784, 1059
879, 177, 209, 978, 1174
880, 342, 1078, 1136, 1169
881, 463, 442, 430, 918
882, 832, 1123, 982, 1134
883, 403, 1104, 1004, 1202
884, 960, 1104, 894, 1128
885, 951, 1091, 1009, 1154
886, 928, 895, 1025, 1137
887, 1121, 1127, 748, 1155
888, 654, 1084, 942, 1127
889, 399, 371, 465, 1124
890, 951, 1154, 1009, 1165
891, 641, 699, 633, 1072
892, 490, 1040, 963, 1214
893, 457, 960, 320, 1080
894, 926, 986, 889, 1110
895, 282, 933, 1109, 1211
896, 888, 918, 1071, 1215
897, 918, 887, 1071, 1146
898, 939, 967, 895, 1025
899, 897, 949, 1007, 1146
900, 541, 540, 1048, 1132
901, 694, 923, 1036, 1108
902, 927, 1170, 380, 1214
903, 744, 664, 1059, 1084
904, 890, 962, 1079, 1113
905, 868, 1009, 1063, 1126
906, 865, 885, 830, 1038
907, 935, 983, 887, 1017
908, 938, 1056, 1072, 1139
909, 968, 1119, 1113, 1137
910, 578, 734, 737, 971
911, 676, 956, 767, 998
912, 350, 1078, 416, 1210
913, 889, 927, 989, 1197
914, 922, 473, 1162, 1209
915, 296, 241, 282, 933
916, 927, 1019, 995, 1035
917, 893, 1213, 980, 1221
918, 949, 1012, 1007, 1146
919, 947, 998, 887, 1022
920, 926, 1044, 986, 1110
921, 905, 1033, 971, 1076
922, 960, 994, 894, 1104
923, 922, 985, 398, 1052
924, 905, 1051, 1061, 1198
925, 940, 976, 539, 1124
926, 683, 920, 752, 1121
927, 381, 932, 328, 1050
928, 330, 1085, 1048, 1130
929, 735, 973, 574, 1207
930, 961, 627, 1072, 1112
931, 919, 898, 1086, 1119
932, 539, 976, 940, 1132
933, 893, 990, 1169, 1213
934, 334, 1000, 958, 1007
935, 962, 356, 1138, 1162
936, 1013, 1053, 946, 1221
937, 412, 1015, 1002, 1046
938, 909, 983, 935, 1017
939, 1086, 1119, 999, 1181
940, 536, 976, 537, 1014
941, 863, 982, 832, 1123
942, 546, 577, 545, 920
943, 947, 1114, 998, 1191
944, 479, 380, 1170, 1214
945, 208, 195, 1174, 1202
946, 934, 1127, 1121, 1155
947, 821, 815, 996, 1059
948, 922, 999, 1119, 1181
949, 895, 1028, 973, 1151
950, 332, 331, 1087, 1106
951, 422, 366, 421, 1011
952, 433, 422, 924, 1171
953, 470, 1046, 1002, 1189
954, 905, 1030, 970, 1076
955, 853, 1001, 934, 1127
956, 342, 1136, 930, 1169
957, 938, 894, 1003, 1201
958, 234, 941, 237, 1180
959, 372, 994, 359, 1021
960, 903, 1053, 918, 1071
961, 723, 662, 1075, 1142
962, 986, 1044, 707, 1075
963, 739, 942, 554, 1155
964, 444, 461, 381, 932
965, 620, 1044, 950, 1075
966, 588, 1045, 215, 1211
967, 893, 1169, 980, 1213
968, 580, 496, 981, 1092
969, 523, 1051, 971, 1192
970, 888, 1053, 984, 1071
971, 404, 405, 308, 916
972, 827, 873, 874, 1016
973, 724, 953, 1111, 1152
974, 914, 1055, 969, 1219
975, 524, 1006, 971, 1054
976, 580, 496, 1092, 1192
977, 171, 1041, 178, 1096
978, 207, 1023, 953, 1086
979, 577, 920, 1024, 1194
980, 857, 875, 831, 959
981, 724, 1083, 953, 1152
982, 946, 1015, 413, 1046
983, 933, 1045, 753, 1211
984, 374, 471, 981, 1206
985, 445, 313, 401, 964
986, 362, 354, 1018, 1040
987, 1029, 1077, 944, 1120
988, 892, 1073, 966, 1187
989, 679, 751, 656, 1131
990, 923, 984, 888, 1053
991, 182, 1086, 999, 1181
992, 837, 868, 886, 1126
993, 926, 1033, 971, 1099
994, 657, 716, 1033, 1151
995, 294, 236, 1008, 1115
996, 961, 993, 625, 1020
997, 887, 945, 979, 983
998, 234, 954, 1008, 1180
999, 889, 1044, 986, 1075
1000, 322, 949, 432, 1012
1001, 837, 911, 1009, 1126
1002, 941, 1066, 916, 1093
1003, 601, 959, 598, 1001
1004, 272, 259, 257, 1070
1005, 890, 985, 922, 1144
1006, 927, 1031, 906, 1047
1007, 915, 1013, 990, 1026
1008, 951, 943, 1157, 1173
1009, 890, 944, 1077, 1120
1010, 875, 959, 857, 1001
1011, 439, 936, 1016, 1106
1012, 922, 985, 904, 1144
1013, 405, 1027, 916, 1032
1014, 321, 309, 861, 1167
1015, 764, 654, 942, 1155
1016, 389, 1102, 446, 1186
1017, 966, 974, 906, 1199
1018, 532, 1025, 939, 1081
1019, 642, 736, 1003, 1153
1020, 932, 1038, 444, 1057
1021, 625, 993, 961, 1205
1022, 957, 1109, 903, 1148
1023, 366, 1011, 422, 1171
1024, 631, 984, 617, 1074
1025, 857, 855, 1001, 1101
1026, 296, 241, 933, 1196
1027, 787, 788, 982, 1134
1028, 408, 470, 931, 1046
1029, 588, 753, 1045, 1211
1030, 949, 1022, 897, 1118
1031, 900, 1018, 981, 1076
1032, 716, 710, 644, 970
1033, 912, 1084, 850, 1098
1034, 892, 966, 1024, 1187
1035, 951, 1009, 943, 1173
1036, 297, 254, 272, 945
1037, 279, 1005, 987, 1148
1038, 1122, 1157, 943, 1173
1039, 394, 414, 1015, 1145
1040, 919, 1086, 198, 1181
1041, 675, 676, 593, 1005
1042, 557, 1057, 1014, 1158
1043, 592, 969, 614, 1150
1044, 938, 1029, 910, 1056
1045, 966, 1073, 1024, 1187
1046, 838, 982, 1060, 1193
1047, 888, 917, 1055, 1215
1048, 296, 1045, 933, 1211
1049, 893, 930, 1139, 1169
1050, 374, 433, 924, 1171
1051, 894, 1104, 994, 1128
1052, 941, 901, 1093, 1143
1053, 1048, 1085, 1058, 1130
1054, 937, 889, 1110, 1217
1055, 969, 1034, 917, 1055
1056, 925, 991, 968, 1176
1057, 930, 1136, 1078, 1169
1058, 574, 551, 514, 973
1059, 1009, 1122, 943, 1173
1060, 620, 632, 1044, 1075
1061, 332, 1087, 1007, 1106
1062, 243, 977, 293, 1122
1063, 632, 707, 706, 1044
1064, 887, 979, 956, 983
1065, 421, 967, 1011, 1138
1066, 658, 1033, 971, 1090
1067, 752, 920, 683, 1194
1068, 238, 237, 1093, 1143
1069, 890, 922, 985, 1119
1070, 677, 725, 697, 1103
1071, 253, 1064, 983, 1164
1072, 551, 516, 514, 973
1073, 929, 868, 1009, 1063
1074, 628, 1020, 1010, 1112
1075, 890, 991, 952, 1144
1076, 723, 914, 1034, 1142
1077, 985, 1079, 962, 1162
1078, 902, 964, 1024, 1187
1079, 917, 998, 947, 1022
1080, 708, 1152, 928, 1207
1081, 838, 982, 863, 1060
1082, 279, 702, 987, 1005
1083, 388, 327, 785, 1224
1084, 948, 1062, 919, 1147
1085, 175, 172, 948, 1062
1086, 675, 956, 264, 1064
1087, 569, 532, 939, 1081
1088, 433, 366, 422, 1171
1089, 514, 973, 1025, 1207
1090, 264, 281, 956, 1005
1091, 577, 920, 546, 1024
1092, 971, 1051, 905, 1076
1093, 900, 1051, 971, 1076
1094, 896, 946, 1015, 1053
1095, 922, 1181, 201, 1209
1096, 1029, 910, 1139, 1160
1097, 893, 990, 1013, 1216
1098, 653, 1084, 654, 1127
1099, 657, 1033, 658, 1090
1100, 917, 887, 1022, 1071
1101, 740, 692, 655, 1180
1102, 710, 970, 635, 1020
1103, 358, 1032, 1021, 1210
1104, 948, 1131, 757, 1153
1105, 515, 1025, 973, 1061
1106, 175, 1062, 948, 1147
1107, 972, 1072, 693, 1226
1108, 968, 1028, 895, 1113
1109, 847, 1065, 929, 1165
1110, 490, 963, 418, 1214
1111, 309, 949, 322, 1087
1112, 312, 452, 421, 967
1113, 278, 730, 226, 1068
1114, 1030, 1076, 905, 1198
1115, 626, 961, 627, 1072
1116, 363, 423, 354, 1212
1117, 361, 1018, 992, 1171
1118, 405, 916, 404, 1032
1119, 787, 1134, 1123, 1185
1120, 687, 1143, 941, 1180
1121, 974, 1047, 986, 1075
1122, 596, 1156, 966, 1194
1123, 182, 999, 197, 1181
1124, 249, 295, 929, 1173
1125, 553, 963, 576, 1092
1126, 945, 1012, 484, 1220
1127, 380, 927, 1019, 1170
1128, 708, 661, 928, 1111
1129, 328, 381, 461, 932
1130, 605, 998, 715, 1150
1131, 1026, 1095, 993, 1216
1132, 890, 919, 991, 1144
1133, 922, 1062, 201, 1181
1134, 923, 1043, 972, 1108
1135, 933, 972, 901, 1043
1136, 286, 1089, 1064, 1164
1137, 440, 958, 936, 1106
1138, 532, 513, 1025, 1081
1139, 891, 993, 1095, 1166
1140, 970, 1033, 716, 1151
1141, 898, 1081, 965, 1082
1142, 943, 1125, 447, 1157
1143, 908, 1026, 993, 1216
1144, 633, 938, 640, 1201
1145, 508, 965, 194, 1175
1146, 919, 1147, 1062, 1181
1147, 689, 693, 1072, 1226
1148, 891, 926, 1076, 1217
1149, 919, 890, 991, 1119
1150, 526, 963, 531, 1192
1151, 950, 1034, 618, 1075
1152, 905, 970, 1030, 1198
1153, 430, 360, 463, 1012
1154, 894, 994, 960, 1021
1155, 867, 1017, 947, 1133
1156, 869, 860, 884, 969
1157, 484, 945, 393, 1012
1158, 923, 1074, 984, 1103
1159, 984, 1071, 917, 1215
1160, 330, 1058, 469, 1085
1161, 868, 929, 847, 1039
1162, 753, 933, 1108, 1226
1163, 875, 598, 600, 959
1164, 916, 1093, 1066, 1190
1165, 407, 408, 470, 931
1166, 696, 923, 719, 1108
1167, 588, 753, 742, 1045
1168, 906, 927, 995, 1129
1169, 893, 946, 1213, 1221
1170, 1020, 1095, 993, 1166
1171, 832, 1123, 1134, 1185
1172, 531, 530, 1035, 1129
1173, 742, 284, 215, 1045
1174, 850, 1059, 834, 1084
1175, 342, 344, 1078, 1169
1176, 513, 928, 512, 1207
1177, 844, 842, 949, 1017
1178, 412, 414, 1002, 1015
1179, 233, 234, 954, 1177
1180, 988, 1107, 446, 1186
1181, 901, 1066, 1093, 1190
1182, 922, 1052, 201, 1062
1183, 620, 1044, 622, 1205
1184, 333, 334, 335, 958
1185, 974, 1142, 1073, 1179
1186, 918, 1000, 1007, 1215
1187, 981, 580, 1092, 1192
1188, 410, 1046, 980, 1213
1189, 545, 546, 920, 1094
1190, 993, 1026, 891, 1095
1191, 342, 1078, 344, 1136
1192, 286, 1064, 253, 1164
1193, 417, 963, 562, 1035
1194, 990, 1026, 1013, 1216
1195, 983, 1102, 252, 1164
1196, 184, 207, 953, 1086
1197, 532, 511, 513, 1081
1198, 201, 1052, 922, 1209
1199, 357, 372, 359, 1021
1200, 633, 938, 1072, 1112
1201, 896, 1015, 957, 1053
1202, 692, 655, 1180, 1201
1203, 954, 1008, 941, 1178
1204, 619, 631, 617, 1074
1205, 810, 1068, 1037, 1172
1206, 949, 897, 1087, 1118
1207, 455, 480, 951, 1186
1208, 546, 1024, 920, 1094
1209, 359, 994, 372, 1104
1210, 909, 983, 1017, 1114
1211, 569, 939, 533, 1163
1212, 455, 951, 480, 1157
1213, 376, 355, 458, 1162
1214, 1082, 1137, 939, 1138
1215, 172, 1062, 174, 1225
1216, 888, 984, 917, 1215
1217, 719, 1036, 923, 1074
1218, 567, 1152, 708, 1207
1219, 897, 1007, 949, 1087
1220, 837, 1009, 868, 1126
1221, 981, 1051, 900, 1076
1222, 927, 1035, 963, 1214
1223, 378, 464, 939, 1163
1224, 749, 777, 792, 1042
1225, 381, 444, 932, 1038
1226, 1045, 1143, 239, 1196
1227, 543, 934, 564, 1132
1228, 944, 1079, 913, 1120
1229, 627, 626, 625, 961
1230, 586, 995, 555, 1035
1231, 796, 821, 815, 996
1232, 418, 963, 417, 1035
1233, 932, 996, 849, 1098
1234, 959, 1101, 975, 1223
1235, 178, 177, 209, 978
1236, 997, 1041, 907, 1202
1237, 909, 988, 1065, 1164
1238, 604, 829, 947, 1133
1239, 338, 1183, 1141, 1212
1240, 632, 707, 1044, 1075
1241, 621, 620, 622, 1205
1242, 333, 958, 335, 1106
1243, 939, 1082, 378, 1163
1244, 954, 1003, 921, 1178
1245, 726, 730, 745, 1068
1246, 635, 970, 716, 1151
1247, 912, 976, 932, 1014
1248, 306, 576, 963, 1092
1249, 915, 989, 1140, 1197
1250, 991, 1010, 638, 1176
1251, 975, 1101, 959, 1179
1252, 864, 1059, 996, 1116
1253, 914, 1197, 1069, 1219
1254, 401, 964, 549, 1085
1255, 890, 1119, 919, 1144
1256, 999, 1086, 898, 1119
1257, 523, 522, 971, 1051
1258, 376, 458, 398, 1162
1259, 716, 970, 644, 1033
1260, 1006, 1054, 527, 1129
1261, 997, 1104, 468, 1202
1262, 641, 1072, 938, 1097
1263, 533, 569, 532, 939
1264, 518, 520, 517, 1061
1265, 887, 1017, 983, 1114
1266, 1066, 1097, 941, 1201
1267, 955, 892, 1019, 1161
1268, 894, 921, 1003, 1178
1269, 351, 364, 985, 994
1270, 265, 983, 253, 1064
1271, 454, 981, 496, 1092
1272, 473, 398, 922, 1162
1273, 936, 975, 955, 1016
1274, 240, 287, 267, 1196
1275, 961, 1072, 893, 1139
1276, 888, 1013, 923, 1053
1277, 915, 1026, 937, 1110
1278, 897, 975, 969, 1219
1279, 241, 282, 933, 1049
1280, 286, 265, 253, 1064
1281, 895, 1028, 968, 1137
1282, 622, 1044, 637, 1205
1283, 522, 971, 1051, 1090
1284, 910, 1021, 1032, 1210
1285, 1008, 1080, 235, 1115
1286, 333, 1007, 958, 1106
1287, 269, 221, 1027, 1115
1288, 751, 656, 921, 1188
1289, 626, 623, 961, 1036
1290, 932, 976, 912, 1098
1291, 888, 1071, 984, 1215
1292, 422, 967, 491, 1206
1293, 833, 1050, 848, 1135
1294, 321, 322, 309, 949
1295, 812, 790, 982, 1042
1296, 981, 1018, 924, 1076
1297, 527, 995, 529, 1129
1298, 852, 1098, 1084, 1117
1299, 854, 859, 872, 1130
1300, 362, 363, 354, 1040
1301, 893, 946, 990, 1213
1302, 708, 724, 1111, 1152
1303, 407, 931, 470, 1189
1304, 264, 212, 281, 1005
1305, 1024, 1073, 920, 1187
1306, 348, 334, 430, 1000
1307, 573, 596, 500, 1156
1308, 906, 1031, 927, 1129
1309, 893, 1036, 1013, 1221
1310, 404, 960, 372, 1021
1311, 1093, 1143, 901, 1196
1312, 293, 243, 226, 977
1313, 783, 785, 801, 1208
1314, 938, 899, 1072, 1112
1315, 927, 892, 995, 1019
1316, 398, 473, 922, 1209
1317, 408, 980, 410, 1046
1318, 899, 1020, 961, 1112
1319, 928, 1028, 968, 1111
1320, 202, 198, 1023, 1086
1321, 596, 500, 1156, 1194
1322, 292, 235, 1080, 1115
1323, 1045, 901, 1143, 1196
1324, 590, 180, 948, 1147
1325, 850, 996, 864, 1059
1326, 566, 529, 528, 966
1327, 708, 661, 747, 928
1328, 526, 1129, 963, 1192
1329, 249, 248, 295, 1173
1330, 674, 956, 1064, 1191
1331, 863, 1060, 982, 1123
1332, 244, 943, 1122, 1157
1333, 898, 962, 1119, 1137
1334, 839, 847, 868, 929
1335, 630, 638, 1010, 1176
1336, 839, 929, 868, 1009
1337, 757, 590, 679, 1131
1338, 723, 1075, 914, 1142
1339, 605, 715, 947, 1150
1340, 752, 650, 920, 1194
1341, 723, 1034, 914, 1075
1342, 914, 1034, 969, 1055
1343, 904, 985, 922, 1052
1344, 844, 845, 843, 1017
1345, 514, 1025, 513, 1207
1346, 741, 681, 647, 1153
1347, 947, 998, 917, 1150
1348, 624, 637, 644, 993
1349, 839, 847, 929, 1165
1350, 319, 936, 379, 1019
1351, 238, 237, 236, 1093
1352, 594, 1023, 162, 1147
1353, 389, 220, 1102, 1186
1354, 259, 299, 281, 979
1355, 630, 1010, 925, 1176
1356, 398, 1052, 985, 1200
1357, 889, 1069, 1047, 1197
1358, 910, 1029, 944, 1160
1359, 899, 1029, 1010, 1112
1360, 503, 734, 578, 1090
1361, 283, 259, 1005, 1148
1362, 891, 970, 1030, 1076
1363, 845, 867, 843, 1017
1364, 895, 925, 1030, 1113
1365, 523, 971, 1006, 1192
1366, 914, 1047, 1069, 1197
1367, 374, 361, 433, 1171
1368, 374, 422, 471, 1206
1369, 885, 1038, 932, 1098
1370, 902, 1058, 1048, 1085
1371, 648, 662, 602, 1142
1372, 452, 967, 565, 1206
1373, 585, 564, 543, 934
1374, 604, 1133, 947, 1191
1375, 467, 793, 384, 1050
1376, 514, 515, 973, 1061
1377, 944, 985, 431, 1079
1378, 964, 1019, 892, 1161
1379, 625, 993, 710, 1020
1380, 391, 945, 484, 1220
1381, 1010, 1029, 899, 1120
1382, 658, 645, 971, 1033
1383, 198, 175, 1147, 1181
1384, 247, 1173, 250, 1186
1385, 927, 892, 1019, 1047
1386, 514, 973, 515, 1025
1387, 895, 1011, 967, 1138
1388, 906, 1054, 1006, 1129
1389, 875, 600, 831, 959
1390, 1024, 1094, 902, 1187
1391, 536, 537, 535, 1014
1392, 947, 917, 1022, 1150
1393, 921, 894, 1128, 1178
1394, 702, 677, 697, 987
1395, 486, 469, 1058, 1161
1396, 938, 1097, 1066, 1201
1397, 936, 1019, 892, 1047
1398, 571, 1061, 516, 1090
1399, 929, 1039, 909, 1065
1400, 865, 830, 381, 1038
1401, 319, 365, 955, 1019
1402, 892, 1161, 955, 1187
1403, 855, 853, 857, 1001
1404, 367, 1019, 964, 1161
1405, 910, 1029, 938, 1066
1406, 542, 1048, 572, 1094
1407, 915, 946, 990, 1013
1408, 977, 1088, 248, 1173
1409, 897, 1022, 969, 1118
1410, 757, 1131, 679, 1153
1411, 215, 284, 296, 1045
1412, 228, 1125, 943, 1157
1413, 1058, 1100, 856, 1101
1414, 496, 454, 451, 981
1415, 175, 174, 172, 1062
1416, 893, 1013, 946, 1221
1417, 927, 1031, 989, 1214
1418, 901, 941, 1097, 1143
1419, 997, 1052, 396, 1200
1420, 1009, 1091, 840, 1154
1421, 320, 457, 409, 960
1422, 566, 584, 529, 1024
1423, 490, 428, 963, 1040
1424, 1009, 1154, 840, 1165
1425, 869, 969, 884, 1118
1426, 341, 342, 992, 1141
1427, 956, 983, 265, 1064
1428, 901, 1066, 938, 1097
1429, 892, 964, 1161, 1187
1430, 920, 1024, 966, 1073
1431, 968, 1113, 895, 1137
1432, 933, 241, 1049, 1196
1433, 531, 562, 576, 963
1434, 903, 984, 1053, 1071
1435, 893, 980, 1043, 1221
1436, 893, 1139, 980, 1169
1437, 694, 719, 923, 1108
1438, 171, 177, 178, 1041
1439, 831, 857, 959, 1223
1440, 641, 938, 633, 1201
1441, 901, 1056, 938, 1066
1442, 782, 809, 242, 1037
1443, 969, 975, 897, 1118
1444, 354, 341, 992, 1141
1445, 198, 1147, 919, 1181
1446, 891, 1110, 926, 1217
1447, 963, 1129, 1006, 1192
1448, 234, 233, 954, 1180
1449, 856, 955, 874, 1058
1450, 944, 890, 985, 1079
1451, 904, 1062, 922, 1144
1452, 968, 991, 890, 1119
1453, 907, 921, 1128, 1178
1454, 317, 955, 873, 1016
1455, 917, 897, 1055, 1215
1456, 919, 1062, 948, 1144
1457, 926, 993, 908, 1110
1458, 933, 896, 1049, 1109
1459, 351, 994, 944, 1210
1460, 901, 972, 933, 1226
1461, 605, 643, 715, 998
1462, 762, 765, 663, 974
1463, 663, 974, 1073, 1199
1464, 1027, 931, 1093, 1190
1465, 872, 854, 940, 1117
1466, 589, 563, 524, 1054
1467, 788, 786, 787, 982
1468, 912, 976, 942, 1098
1469, 247, 951, 1173, 1186
1470, 417, 418, 306, 963
1471, 863, 1123, 832, 1185
1472, 1107, 1154, 369, 1186
1473, 895, 1137, 1113, 1138
1474, 901, 938, 1056, 1097
1475, 973, 1090, 905, 1151
1476, 958, 1000, 888, 1215
1477, 411, 436, 413, 946
1478, 396, 188, 164, 1052
1479, 526, 1006, 1129, 1192
1480, 188, 200, 1052, 1225
1481, 554, 570, 942, 1105
1482, 658, 971, 734, 1090
1483, 357, 359, 994, 1021
1484, 896, 1043, 933, 1049
1485, 540, 940, 539, 1124
1486, 990, 1141, 338, 1183
1487, 1013, 1036, 908, 1074
1488, 961, 899, 1072, 1139
1489, 223, 945, 272, 1070
1490, 624, 637, 993, 1205
1491, 914, 969, 975, 1219
1492, 928, 1152, 512, 1207
1493, 483, 320, 409, 1115
1494, 656, 679, 1131, 1153
1495, 645, 646, 711, 1099
1496, 403, 457, 320, 1080
1497, 930, 1026, 990, 1216
1498, 838, 1060, 835, 1193
1499, 310, 392, 223, 1070
1500, 780, 793, 467, 1050
1501, 899, 1029, 1139, 1160
1502, 577, 545, 920, 1194
1503, 294, 236, 235, 1008
1504, 1010, 1020, 925, 1166
1505, 716, 635, 710, 970
1506, 1113, 1137, 962, 1138
1507, 873, 874, 955, 1058
1508, 973, 1061, 905, 1090
1509, 469, 1085, 1058, 1161
1510, 221, 426, 268, 1027
1511, 890, 922, 1119, 1144
1512, 971, 1054, 1006, 1099
1513, 959, 1179, 1101, 1187
1514, 868, 929, 1039, 1063
1515, 890, 1113, 968, 1119
1516, 949, 1017, 842, 1167
1517, 885, 932, 849, 1098
1518, 354, 341, 361, 992
1519, 384, 1050, 793, 1135
1520, 1060, 835, 1193, 1224
1521, 1037, 1068, 911, 1172
1522, 809, 242, 1037, 1068
1523, 905, 970, 1033, 1076
1524, 273, 1049, 1002, 1109
1525, 925, 895, 1028, 1113
1526, 704, 747, 1028, 1207
1527, 531, 562, 963, 1035
1528, 893, 1139, 930, 1216
1529, 910, 980, 1139, 1169
1530, 972, 1043, 933, 1108
1531, 920, 1121, 683, 1194
1532, 938, 1056, 910, 1066
1533, 609, 613, 770, 1001
1534, 553, 1092, 496, 1192
1535, 1016, 1087, 897, 1118
1536, 980, 1056, 910, 1139
1537, 687, 941, 1143, 1201
1538, 259, 272, 299, 979
1539, 867, 884, 829, 947
1540, 897, 917, 1022, 1215
1541, 752, 1001, 613, 1121
1542, 872, 1098, 851, 1117
1543, 561, 496, 451, 981
1544, 336, 1140, 1000, 1183
1545, 899, 1020, 1010, 1166
1546, 987, 1109, 933, 1211
1547, 549, 497, 400, 1085
1548, 956, 998, 887, 1114
1549, 964, 995, 892, 1019
1550, 294, 1008, 235, 1115
1551, 665, 1042, 1126, 1172
1552, 994, 1104, 373, 1200
1553, 958, 1007, 1000, 1215
1554, 915, 937, 1026, 1141
1555, 767, 676, 674, 956
1556, 274, 606, 738, 977
1557, 932, 1057, 461, 1158
1558, 838, 863, 835, 1060
1559, 613, 1001, 609, 1127
1560, 810, 1037, 823, 1208
1561, 893, 1036, 961, 1216
1562, 246, 1157, 1122, 1173
1563, 418, 490, 428, 963
1564, 1141, 1183, 915, 1212
1565, 987, 903, 1109, 1148
1566, 892, 974, 966, 1073
1567, 637, 645, 644, 1033
1568, 867, 843, 1017, 1133
1569, 576, 562, 306, 963
1570, 282, 1049, 298, 1109
1571, 247, 249, 250, 1173
1572, 393, 484, 391, 945
1573, 411, 946, 413, 1046
1574, 765, 986, 707, 1075
1575, 948, 1062, 904, 1144
1576, 526, 531, 963, 1129
1577, 1013, 1036, 893, 1216
1578, 185, 1086, 182, 1181
1579, 455, 951, 1157, 1186
1580, 988, 1165, 951, 1173
1581, 929, 1165, 988, 1173
1582, 216, 599, 675, 1064
1583, 564, 934, 585, 1155
1584, 540, 539, 940, 1132
1585, 202, 1023, 207, 1086
1586, 890, 925, 1113, 1120
1587, 332, 331, 322, 1087
1588, 432, 1012, 949, 1220
1589, 545, 1121, 920, 1194
1590, 290, 233, 1180, 1184
1591, 696, 1103, 923, 1108
1592, 634, 952, 642, 1003
1593, 625, 624, 710, 993
1594, 536, 1014, 557, 1057
1595, 628, 1010, 629, 1112
1596, 898, 965, 953, 1204
1597, 529, 584, 555, 995
1598, 915, 990, 946, 1183
1599, 296, 933, 1045, 1196
1600, 864, 1059, 1116, 1182
1601, 283, 259, 281, 1005
1602, 910, 944, 1078, 1160
1603, 642, 1003, 952, 1153
1604, 283, 1005, 279, 1148
1605, 698, 694, 719, 1036
1606, 717, 592, 860, 969
1607, 590, 948, 757, 1147
1608, 280, 279, 702, 987
1609, 927, 1019, 936, 1047
1610, 689, 1072, 1097, 1226
1611, 406, 416, 980, 1032
1612, 585, 934, 543, 1121
1613, 895, 1113, 1011, 1138
1614, 580, 553, 496, 1192
1615, 889, 1031, 927, 1047
1616, 893, 1056, 980, 1139
1617, 675, 674, 956, 1064
1618, 971, 1033, 905, 1090
1619, 360, 322, 432, 1012
1620, 584, 995, 529, 1024
1621, 512, 1152, 567, 1207
1622, 379, 1019, 936, 1170
1623, 445, 964, 367, 1019
1624, 628, 627, 1020, 1112
1625, 232, 1008, 234, 1177
1626, 703, 661, 639, 1111
1627, 831, 860, 869, 969
1628, 665, 1126, 745, 1172
1629, 854, 940, 1100, 1130
1630, 953, 1175, 196, 1204
1631, 197, 201, 1181, 1209
1632, 894, 960, 1128, 1178
1633, 769, 601, 598, 1001
1634, 207, 196, 184, 953
1635, 261, 279, 987, 1148
1636, 762, 974, 663, 1199
1637, 714, 638, 991, 1010
1638, 663, 974, 648, 1073
1639, 988, 1102, 220, 1186
1640, 877, 1016, 846, 1118
1641, 916, 1027, 1093, 1190
1642, 711, 658, 645, 971
1643, 950, 1055, 914, 1069
1644, 384, 793, 779, 1135
1645, 946, 1053, 896, 1221
1646, 967, 1025, 519, 1061
1647, 704, 1028, 973, 1207
1648, 210, 196, 1175, 1204
1649, 207, 169, 196, 953
1650, 913, 1079, 962, 1113
1651, 885, 848, 849, 1050
1652, 905, 1151, 970, 1198
1653, 299, 265, 281, 956
1654, 697, 987, 1103, 1108
1655, 899, 961, 1072, 1112
1656, 908, 1044, 926, 1110
1657, 751, 921, 1096, 1188
1658, 887, 983, 956, 1114
1659, 634, 714, 952, 1010
1660, 909, 1039, 929, 1089
1661, 863, 880, 1060, 1123
1662, 485, 1167, 935, 1220
1663, 342, 340, 343, 1169
1664, 244, 1037, 943, 1125
1665, 812, 1042, 982, 1134
1666, 256, 957, 258, 1109
1667, 867, 947, 829, 1133
1668, 319, 365, 318, 955
1669, 676, 677, 1005, 1159
1670, 320, 224, 450, 1080
1671, 392, 393, 945, 1070
1672, 848, 996, 849, 1050
1673, 310, 223, 271, 1070
1674, 624, 993, 625, 1205
1675, 996, 1059, 815, 1116
1676, 175, 172, 180, 948
1677, 891, 937, 992, 1026
1678, 531, 963, 553, 1192
1679, 657, 658, 754, 1090
1680, 941, 687, 1180, 1201
1681, 863, 159, 1123, 1185
1682, 945, 1102, 935, 1220
1683, 690, 1143, 1045, 1226
1684, 1048, 1058, 902, 1130
1685, 975, 1016, 897, 1118
1686, 1002, 1015, 896, 1046
1687, 857, 1001, 959, 1101
1688, 751, 736, 656, 1188
1689, 893, 1072, 1056, 1139
1690, 1017, 1065, 842, 1167
1691, 553, 576, 496, 1092
1692, 756, 1023, 594, 1147
1693, 982, 1042, 836, 1134
1694, 956, 1114, 1064, 1191
1695, 749, 610, 777, 1042
1696, 921, 1003, 954, 1188
1697, 605, 643, 998, 1150
1698, 959, 1101, 1001, 1187
1699, 676, 998, 746, 1159
1700, 891, 1030, 924, 1076
1701, 902, 1085, 1048, 1094
1702, 513, 511, 512, 1081
1703, 892, 936, 1047, 1179
1704, 244, 228, 943, 1157
1705, 947, 887, 998, 1114
1706, 915, 1141, 990, 1183
1707, 425, 533, 312, 1163
1708, 914, 1047, 1197, 1219
1709, 981, 1051, 580, 1192
1710, 962, 1079, 355, 1162
1711, 390, 935, 485, 1167
1712, 404, 409, 960, 1115
1713, 902, 934, 1094, 1100
1714, 971, 1006, 900, 1099
1715, 238, 1143, 1093, 1196
1716, 164, 307, 396, 1052
1717, 401, 549, 400, 1085
1718, 675, 264, 216, 1064
1719, 185, 182, 197, 1181
1720, 506, 732, 567, 1152
1721, 914, 1069, 1055, 1219
1722, 988, 1154, 1107, 1186
1723, 949, 887, 1012, 1146
1724, 188, 314, 163, 997
1725, 912, 996, 932, 1098
1726, 243, 278, 226, 1068
1727, 244, 943, 228, 1125
1728, 407, 1027, 931, 1189
1729, 699, 1072, 641, 1097
1730, 866, 665, 1042, 1126
1731, 648, 602, 1073, 1142
1732, 874, 882, 955, 1101
1733, 625, 961, 623, 1205
1734, 889, 1047, 927, 1197
1735, 273, 298, 1049, 1109
1736, 553, 531, 576, 963
1737, 681, 948, 757, 1153
1738, 925, 1028, 968, 1113
1739, 844, 843, 842, 1017
1740, 544, 1024, 546, 1094
1741, 831, 959, 600, 1223
1742, 753, 1045, 933, 1226
1743, 753, 1108, 691, 1226
1744, 634, 642, 952, 1153
1745, 737, 734, 658, 971
1746, 554, 607, 505, 1105
1747, 732, 1083, 724, 1152
1748, 485, 935, 390, 1220
1749, 421, 1011, 366, 1138
1750, 915, 1000, 958, 1140
1751, 911, 1193, 943, 1208
1752, 649, 635, 716, 1151
1753, 978, 1096, 921, 1188
1754, 954, 1180, 233, 1184
1755, 920, 1001, 959, 1073
1756, 921, 1041, 907, 1128
1757, 491, 422, 421, 967
1758, 591, 1143, 687, 1180
1759, 904, 1052, 922, 1062
1760, 901, 1056, 972, 1097
1761, 930, 1026, 992, 1141
1762, 919, 1144, 1119, 1181
1763, 953, 184, 1086, 1204
1764, 972, 1056, 893, 1072
1765, 494, 967, 517, 1206
1766, 843, 1065, 1017, 1133
1767, 1111, 1176, 968, 1203
1768, 751, 679, 1096, 1131
1769, 1002, 1046, 931, 1189
1770, 330, 486, 469, 1058
1771, 873, 955, 317, 1058
1772, 390, 1107, 935, 1167
1773, 296, 933, 282, 1211
1774, 934, 1094, 543, 1121
1775, 294, 221, 269, 1115
1776, 919, 991, 968, 1119
1777, 539, 537, 976, 1132
1778, 251, 988, 249, 1164
1779, 873, 856, 874, 1058
1780, 244, 1122, 246, 1157
1781, 969, 1034, 914, 1142
1782, 912, 942, 1084, 1098
1783, 910, 944, 1029, 1210
1784, 355, 962, 353, 1222
1785, 367, 365, 1019, 1161
1786, 790, 810, 823, 1208
1787, 847, 1039, 1065, 1133
1788, 180, 175, 948, 1147
1789, 327, 1060, 785, 1224
1790, 1056, 1072, 972, 1097
1791, 1025, 1081, 928, 1137
1792, 560, 1121, 545, 1194
1793, 1006, 1031, 900, 1099
1794, 895, 973, 1025, 1198
1795, 978, 1177, 954, 1178
1796, 858, 882, 1101, 1223
1797, 833, 996, 848, 1050
1798, 714, 630, 638, 1010
1799, 995, 1035, 586, 1129
1800, 973, 1061, 1025, 1198
1801, 922, 1052, 398, 1209
1802, 911, 1122, 943, 1193
1803, 923, 1013, 1036, 1221
1804, 907, 1177, 978, 1178
1805, 815, 1116, 1059, 1182
1806, 596, 966, 684, 1194
1807, 976, 1014, 536, 1057
1808, 920, 959, 1001, 1187
1809, 508, 194, 504, 1175
1810, 256, 957, 1109, 1145
1811, 923, 896, 1053, 1221
1812, 375, 374, 981, 1018
1813, 866, 1042, 886, 1126
1814, 325, 369, 1107, 1154
1815, 359, 373, 994, 1104
1816, 1011, 1113, 962, 1138
1817, 359, 994, 373, 1200
1818, 994, 1029, 894, 1077
1819, 931, 896, 1002, 1049
1820, 1010, 1120, 899, 1166
1821, 922, 1119, 1144, 1181
1822, 625, 628, 627, 1020
1823, 925, 1120, 1010, 1166
1824, 574, 973, 514, 1207
1825, 927, 963, 1035, 1129
1826, 972, 1043, 923, 1221
1827, 966, 1156, 500, 1194
1828, 885, 865, 848, 1050
1829, 946, 896, 1015, 1046
1830, 836, 982, 837, 1042
1831, 955, 1058, 856, 1101
1832, 480, 1091, 951, 1154
1833, 1021, 1032, 916, 1066
1834, 448, 583, 476, 1158
1835, 915, 1140, 1069, 1197
1836, 282, 1109, 987, 1211
1837, 180, 948, 172, 1131
1838, 663, 1073, 728, 1199
1839, 431, 351, 364, 985
1840, 339, 338, 1141, 1212
1841, 1073, 1142, 959, 1179
1842, 914, 975, 969, 1142
1843, 827, 317, 873, 1016
1844, 944, 1029, 994, 1077
1845, 937, 1026, 891, 1217
1846, 346, 944, 431, 1079
1847, 646, 986, 773, 1099
1848, 992, 1018, 924, 1171
1849, 915, 937, 1141, 1212
1850, 787, 789, 1134, 1185
1851, 378, 939, 464, 1138
1852, 708, 567, 732, 1152
1853, 604, 605, 715, 947
1854, 514, 973, 516, 1061
1855, 935, 983, 909, 1164
1856, 985, 994, 364, 1200
1857, 843, 842, 1017, 1065
1858, 780, 387, 803, 1158
1859, 861, 844, 949, 1087
1860, 1107, 1154, 988, 1165
1861, 924, 1011, 967, 1198
1862, 934, 564, 1132, 1155
1863, 890, 944, 985, 1077
1864, 893, 1043, 980, 1190
1865, 524, 523, 971, 1006
1866, 656, 757, 679, 1153
1867, 196, 184, 953, 1204
1868, 780, 467, 328, 1050
1869, 308, 426, 221, 1027
1870, 722, 616, 614, 969
1871, 888, 1055, 950, 1069
1872, 560, 683, 1121, 1194
1873, 460, 479, 418, 1214
1874, 939, 1081, 1025, 1137
1875, 676, 767, 746, 998
1876, 264, 956, 265, 1064
1877, 722, 1034, 969, 1142
1878, 644, 710, 624, 993
1879, 911, 943, 1037, 1208
1880, 952, 894, 1029, 1077
1881, 238, 239, 1143, 1196
1882, 390, 1102, 935, 1107
1883, 842, 861, 844, 949
1884, 794, 996, 797, 1050
1885, 988, 1165, 1154, 1186
1886, 968, 1028, 928, 1137
1887, 1064, 1089, 909, 1164
1888, 896, 931, 1002, 1046
1889, 913, 1011, 962, 1222
1890, 445, 367, 365, 1019
1891, 853, 826, 1001, 1127
1892, 1031, 1040, 989, 1214
1893, 757, 948, 681, 1147
1894, 861, 949, 842, 1167
1895, 166, 225, 193, 1174
1896, 967, 1011, 895, 1198
1897, 898, 1119, 968, 1137
1898, 170, 597, 161, 1096
1899, 686, 1096, 685, 1184
1900, 626, 698, 623, 1036
1901, 765, 662, 974, 1075
1902, 406, 410, 408, 980
1903, 763, 738, 606, 977
1904, 856, 1100, 1058, 1130
1905, 1026, 1110, 891, 1217
1906, 609, 770, 826, 1001
1907, 328, 387, 780, 1158
1908, 916, 1032, 1027, 1190
1909, 178, 978, 168, 1096
1910, 848, 833, 849, 996
1911, 850, 864, 834, 1059
1912, 929, 1088, 977, 1173
1913, 881, 834, 864, 1182
1914, 641, 633, 640, 1201
1915, 874, 955, 856, 1101
1916, 360, 430, 332, 1007
1917, 983, 935, 1102, 1164
1918, 494, 517, 520, 1206
1919, 962, 1011, 913, 1113
1920, 699, 689, 693, 1072
1921, 722, 616, 969, 1034
1922, 930, 990, 1026, 1141
1923, 893, 980, 1056, 1190
1924, 909, 1017, 935, 1065
1925, 237, 941, 1143, 1180
1926, 938, 1029, 899, 1112
1927, 963, 927, 1031, 1129
1928, 937, 1110, 1026, 1217
1929, 839, 929, 1009, 1165
1930, 896, 931, 1043, 1049
1931, 161, 1096, 679, 1131
1932, 905, 1051, 971, 1090
1933, 393, 394, 463, 1070
1934, 834, 1059, 864, 1182
1935, 210, 194, 965, 1175
1936, 455, 1157, 218, 1186
1937, 764, 942, 1084, 1105
1938, 353, 962, 1138, 1222
1939, 197, 1181, 999, 1209
1940, 577, 560, 545, 1194
1941, 911, 1009, 1122, 1193
1942, 974, 986, 906, 1199
1943, 515, 519, 1025, 1061
1944, 663, 662, 648, 974
1945, 378, 1082, 939, 1138
1946, 717, 860, 831, 969
1947, 275, 978, 231, 1184
1948, 854, 1100, 940, 1117
1949, 623, 961, 1036, 1205
1950, 999, 1119, 898, 1162
1951, 533, 425, 502, 1163
1952, 959, 1142, 600, 1223
1953, 247, 951, 1157, 1173
1954, 403, 468, 1104, 1202
1955, 973, 1028, 928, 1207
1956, 338, 990, 340, 1141
1957, 507, 1057, 557, 1158
1958, 910, 1032, 1021, 1066
1959, 740, 954, 603, 1180
1960, 525, 527, 1006, 1054
1961, 812, 982, 788, 1134
1962, 258, 1109, 957, 1148
1963, 964, 892, 995, 1024
1964, 222, 1027, 459, 1189
1965, 516, 571, 518, 1061
1966, 856, 854, 1100, 1130
1967, 772, 653, 654, 1127
1968, 480, 951, 1091, 1157
1969, 969, 1022, 917, 1150
1970, 685, 761, 733, 1184
1971, 863, 832, 159, 1185
1972, 1037, 1068, 243, 1122
1973, 356, 377, 1082, 1162
1974, 369, 951, 480, 1186
1975, 319, 439, 936, 1016
1976, 893, 1056, 1043, 1190
1977, 639, 1176, 1111, 1203
1978, 218, 247, 951, 1157
1979, 369, 446, 1107, 1186
1980, 436, 946, 411, 1213
1981, 196, 953, 169, 1083
1982, 703, 704, 747, 1028
1983, 753, 933, 695, 1108
1984, 569, 1081, 939, 1163
1985, 897, 1007, 958, 1215
1986, 975, 1016, 936, 1219
1987, 356, 1082, 378, 1138
1988, 440, 958, 335, 1140
1989, 744, 727, 1084, 1105
1990, 753, 695, 933, 1211
1991, 373, 1104, 997, 1200
1992, 165, 311, 181, 999
1993, 539, 976, 538, 1124
1994, 668, 1121, 748, 1155
1995, 922, 1119, 999, 1162
1996, 943, 1009, 951, 1091
1997, 794, 797, 798, 1050
1998, 902, 1100, 1058, 1101
1999, 902, 1094, 1048, 1100
2000, 299, 254, 265, 983
2001, 585, 934, 1121, 1155
2002, 580, 981, 520, 1051
2003, 162, 202, 198, 1023
2004, 626, 623, 625, 961
2005, 489, 370, 830, 1038
2006, 831, 969, 869, 1223
2007, 928, 1025, 973, 1207
2008, 548, 546, 544, 1024
2009, 931, 1043, 980, 1046
2010, 936, 1019, 927, 1170
2011, 266, 305, 255, 1002
2012, 509, 1081, 965, 1175
2013, 647, 634, 714, 952
2014, 378, 425, 464, 1163
2015, 942, 1098, 976, 1117
2016, 321, 432, 322, 949
2017, 355, 1079, 962, 1222
2018, 1016, 1106, 936, 1219
2019, 634, 952, 647, 1153
2020, 280, 702, 712, 987
2021, 357, 1021, 994, 1210
2022, 306, 454, 576, 1092
2023, 905, 973, 1151, 1198
2024, 887, 949, 1017, 1022
2025, 657, 705, 716, 1151
2026, 903, 979, 957, 1148
2027, 914, 950, 1034, 1055
2028, 442, 394, 414, 1015
2029, 504, 194, 167, 1175
2030, 172, 173, 1131, 1225
2031, 656, 736, 642, 1153
2032, 680, 162, 187, 1147
2033, 616, 617, 615, 1034
2034, 867, 847, 843, 1133
2035, 752, 683, 650, 1194
2036, 529, 995, 586, 1129
2037, 372, 404, 409, 960
2038, 194, 965, 508, 1195
2039, 244, 276, 1037, 1125
2040, 704, 774, 735, 973
2041, 905, 1033, 970, 1151
2042, 297, 272, 223, 945
2043, 355, 356, 353, 962
2044, 226, 606, 274, 977
2045, 561, 580, 496, 981
2046, 966, 995, 892, 1024
2047, 913, 944, 1120, 1160
2048, 457, 372, 960, 1104
2049, 923, 1053, 1013, 1221
2050, 385, 575, 399, 1048
2051, 870, 1084, 653, 1127
2052, 832, 982, 836, 1134
2053, 542, 541, 540, 1048
2054, 984, 917, 1071, 1159
2055, 491, 967, 452, 1206
2056, 1062, 1144, 919, 1181
2057, 307, 190, 397, 1052
2058, 455, 369, 480, 1186
2059, 664, 834, 1059, 1084
2060, 354, 1141, 937, 1212
2061, 603, 954, 740, 1184
2062, 725, 984, 631, 1103
2063, 494, 565, 967, 1206
2064, 353, 962, 356, 1138
2065, 931, 896, 1043, 1046
2066, 233, 232, 234, 1177
2067, 810, 809, 1037, 1068
2068, 1013, 1026, 908, 1216
2069, 543, 564, 541, 1132
2070, 404, 1021, 358, 1032
2071, 575, 540, 499, 1124
2072, 900, 1006, 963, 1031
2073, 474, 396, 1052, 1200
2074, 737, 524, 578, 971
2075, 353, 366, 1011, 1138
2076, 1029, 1120, 944, 1160
2077, 939, 1137, 895, 1138
2078, 874, 975, 846, 1016
2079, 432, 949, 1167, 1220
2080, 367, 964, 401, 1085
2081, 340, 990, 343, 1169
2082, 603, 290, 1180, 1184
2083, 813, 1134, 814, 1168
2084, 897, 958, 1055, 1215
2085, 965, 1082, 1081, 1163
2086, 1081, 1082, 939, 1163
2087, 987, 1108, 695, 1211
2088, 531, 530, 562, 1035
2089, 909, 1065, 1039, 1133
2090, 609, 1001, 826, 1127
2091, 576, 454, 496, 1092
2092, 1000, 1140, 915, 1183
2093, 943, 1122, 1009, 1193
2094, 164, 190, 307, 1052
2095, 596, 728, 684, 966
2096, 782, 242, 217, 1037
2097, 680, 594, 162, 1147
2098, 161, 597, 679, 1096
2099, 907, 1080, 960, 1104
2100, 468, 997, 373, 1104
2101, 337, 1140, 1183, 1212
2102, 895, 1025, 967, 1198
2103, 246, 1122, 245, 1173
2104, 210, 167, 194, 1175
2105, 882, 846, 874, 975
2106, 261, 283, 279, 1148
2107, 1069, 1197, 958, 1219
2108, 740, 1184, 954, 1188
2109, 936, 1197, 1047, 1219
2110, 406, 416, 410, 980
2111, 628, 630, 629, 1010
2112, 911, 1037, 943, 1122
2113, 835, 863, 880, 1060
2114, 949, 1022, 887, 1146
2115, 892, 974, 1073, 1179
2116, 385, 1048, 330, 1085
2117, 302, 733, 761, 1184
2118, 936, 927, 1047, 1170
2119, 190, 397, 1052, 1209
2120, 855, 856, 1100, 1101
2121, 242, 243, 1037, 1068
2122, 749, 1042, 792, 1168
2123, 892, 1024, 964, 1187
2124, 431, 346, 351, 944
2125, 983, 1064, 909, 1164
2126, 514, 515, 513, 1025
2127, 784, 821, 811, 1067
2128, 887, 1017, 947, 1022
2129, 304, 452, 565, 1206
2130, 237, 1143, 288, 1180
2131, 900, 1006, 971, 1192
2132, 188, 200, 164, 1052
2133, 728, 966, 1073, 1194
2134, 977, 1063, 1009, 1126
2135, 772, 870, 653, 1127
2136, 904, 997, 1104, 1200
2137, 1043, 1046, 896, 1221
2138, 663, 648, 728, 1073
2139, 412, 1002, 470, 1046
2140, 596, 684, 500, 1194
2141, 222, 426, 459, 1027
2142, 654, 1127, 942, 1155
2143, 507, 583, 448, 1158
2144, 357, 994, 359, 1210
2145, 302, 275, 227, 1184
2146, 685, 597, 168, 1096
2147, 665, 610, 1042, 1172
2148, 952, 1003, 921, 1153
2149, 697, 695, 987, 1108
2150, 688, 1143, 690, 1226
2151, 389, 386, 220, 1186
2152, 493, 586, 555, 1035
2153, 902, 1161, 964, 1187
2154, 846, 1016, 975, 1118
2155, 188, 396, 314, 997
2156, 992, 1026, 930, 1218
2157, 985, 1052, 904, 1200
2158, 1025, 1061, 967, 1198
2159, 633, 1072, 699, 1112
2160, 910, 1139, 1078, 1169
2161, 306, 963, 428, 1092
2162, 362, 1040, 1018, 1092
2163, 315, 873, 317, 1058
2164, 927, 1035, 995, 1129
2165, 807, 1037, 276, 1125
2166, 621, 619, 620, 1074
2167, 789, 814, 1134, 1185
2168, 342, 344, 345, 1136
2169, 692, 687, 655, 1201
2170, 1104, 1128, 960, 1178
2171, 258, 957, 257, 1148
2172, 906, 986, 1031, 1099
2173, 858, 1101, 959, 1223
2174, 827, 1016, 877, 1087
2175, 894, 938, 1029, 1066
2176, 356, 962, 355, 1162
2177, 569, 511, 532, 1081
2178, 952, 1077, 890, 1144
2179, 943, 1037, 244, 1122
2180, 257, 1070, 957, 1145
2181, 337, 1183, 338, 1212
2182, 639, 703, 1028, 1176
2183, 916, 1066, 1032, 1190
2184, 935, 1065, 1017, 1167
2185, 707, 762, 773, 986
2186, 335, 958, 440, 1106
2187, 824, 1014, 795, 1158
2188, 256, 257, 258, 957
2189, 969, 1118, 1022, 1150
2190, 909, 1065, 935, 1164
2191, 550, 575, 385, 1048
2192, 998, 1071, 917, 1159
2193, 342, 427, 992, 1136
2194, 517, 967, 519, 1061
2195, 840, 1091, 1009, 1193
2196, 261, 987, 282, 1109
2197, 981, 1018, 900, 1092
2198, 410, 411, 1046, 1213
2199, 1010, 1020, 899, 1112
2200, 708, 732, 724, 1152
2201, 473, 376, 398, 1162
2202, 247, 218, 951, 1186
2203, 344, 1078, 345, 1136
2204, 915, 1026, 990, 1141
2205, 252, 254, 983, 1164
2206, 603, 1180, 954, 1184
2207, 432, 949, 321, 1167
2208, 898, 1082, 999, 1162
2209, 343, 340, 415, 990
2210, 972, 1097, 1072, 1226
2211, 934, 1117, 853, 1127
2212, 728, 966, 596, 1156
2213, 1116, 1135, 833, 1185
2214, 590, 757, 681, 1147
2215, 890, 962, 1113, 1119
2216, 419, 310, 219, 1070
2217, 946, 896, 1046, 1221
2218, 593, 279, 212, 1005
2219, 440, 1140, 349, 1170
2220, 960, 1008, 916, 1115
2221, 580, 1051, 521, 1192
2222, 717, 614, 592, 969
2223, 343, 990, 415, 1213
2224, 170, 168, 597, 1096
2225, 289, 220, 386, 1186
2226, 605, 947, 604, 1150
2227, 405, 407, 1027, 1032
2228, 904, 1104, 994, 1200
2229, 999, 1082, 898, 1204
2230, 353, 420, 366, 1138
2231, 939, 1025, 895, 1137
2232, 977, 1063, 763, 1088
2233, 915, 1140, 989, 1212
2234, 692, 1180, 687, 1201
2235, 738, 977, 763, 1088
2236, 286, 263, 1089, 1164
2237, 913, 1011, 1030, 1113
2238, 310, 271, 219, 1070
2239, 393, 391, 392, 945
2240, 925, 1010, 991, 1176
2241, 999, 1086, 182, 1204
2242, 699, 689, 1072, 1097
2243, 437, 865, 381, 1050
2244, 735, 704, 973, 1207
2245, 900, 971, 1051, 1192
2246, 333, 332, 1007, 1106
2247, 554, 505, 570, 1105
2248, 218, 1157, 951, 1186
2249, 911, 982, 1193, 1208
2250, 836, 832, 837, 982
2251, 897, 1016, 975, 1219
2252, 911, 1068, 1037, 1122
2253, 176, 1062, 175, 1181
2254, 682, 668, 748, 1155
2255, 675, 599, 674, 1064
2256, 935, 1102, 988, 1107
2257, 763, 1063, 977, 1126
2258, 997, 907, 1104, 1202
2259, 325, 369, 446, 1107
2260, 963, 1006, 900, 1192
2261, 328, 461, 387, 1158
2262, 428, 963, 1040, 1092
2263, 353, 1138, 1011, 1222
2264, 831, 717, 969, 1223
2265, 966, 728, 1073, 1199
2266, 317, 955, 318, 1058
2267, 586, 529, 555, 995
2268, 847, 1065, 843, 1133
2269, 346, 351, 944, 1210
2270, 341, 342, 427, 992
2271, 717, 1142, 969, 1223
2272, 895, 1030, 1011, 1113
2273, 373, 997, 396, 1200
2274, 165, 395, 311, 999
2275, 1091, 1193, 835, 1224
2276, 361, 362, 354, 1018
2277, 688, 1097, 1143, 1226
2278, 908, 993, 961, 1216
2279, 802, 1123, 472, 1135
2280, 738, 274, 977, 1088
2281, 676, 746, 677, 1159
2282, 634, 647, 642, 1153
2283, 385, 330, 469, 1085
2284, 440, 379, 319, 936
2285, 904, 1104, 997, 1128
2286, 723, 618, 1034, 1075
2287, 675, 674, 676, 956
2288, 872, 1038, 885, 1098
2289, 901, 1043, 972, 1056
2290, 941, 1008, 954, 1180
2291, 999, 1149, 1082, 1204
2292, 520, 981, 561, 1206
2293, 484, 393, 463, 1012
2294, 436, 1183, 946, 1213
2295, 411, 946, 1046, 1213
2296, 333, 335, 440, 1106
2297, 853, 934, 1100, 1117
2298, 989, 1040, 363, 1214
2299, 887, 947, 1017, 1114
2300, 997, 1052, 904, 1225
2301, 812, 790, 788, 982
2302, 526, 531, 553, 1192
2303, 540, 541, 539, 1132
2304, 629, 1010, 634, 1112
2305, 600, 959, 601, 1142
2306, 318, 1058, 955, 1161
2307, 500, 966, 528, 1156
2308, 901, 933, 1045, 1226
2309, 904, 1052, 997, 1200
2310, 728, 684, 966, 1194
2311, 544, 542, 572, 1094
2312, 173, 1041, 1131, 1225
2313, 914, 1034, 950, 1075
2314, 566, 966, 500, 1194
2315, 900, 1051, 981, 1192
2316, 507, 536, 557, 1057
2317, 976, 1057, 538, 1124
2318, 408, 410, 411, 1046
2319, 184, 202, 207, 1086
2320, 951, 1154, 1165, 1186
2321, 901, 1045, 933, 1196
2322, 257, 957, 256, 1145
2323, 601, 600, 598, 959
2324, 932, 1014, 976, 1057
2325, 897, 1106, 1016, 1219
2326, 922, 1144, 1062, 1181
2327, 634, 642, 640, 1003
2328, 816, 1116, 815, 1182
2329, 232, 1080, 1008, 1177
2330, 927, 963, 1031, 1214
2331, 987, 1005, 903, 1148
2332, 525, 1006, 524, 1054
2333, 622, 706, 637, 1044
2334, 257, 219, 1070, 1145
2335, 412, 413, 1015, 1046
2336, 891, 1026, 992, 1218
2337, 248, 977, 274, 1088
2338, 545, 1094, 920, 1121
2339, 288, 1143, 591, 1180
2340, 315, 317, 318, 1058
2341, 694, 696, 719, 1108
2342, 897, 1022, 949, 1146
2343, 1078, 1139, 910, 1160
2344, 230, 1174, 1080, 1177
2345, 375, 1018, 981, 1092
2346, 321, 861, 876, 1167
2347, 1002, 1049, 896, 1109
2348, 530, 529, 586, 1129
2349, 337, 1140, 336, 1183
2350, 188, 997, 199, 1225
2351, 900, 981, 1092, 1192
2352, 494, 519, 517, 967
2353, 370, 381, 830, 1038
2354, 914, 1142, 974, 1179
2355, 421, 366, 420, 1138
2356, 613, 609, 748, 1127
2357, 815, 797, 996, 1116
2358, 888, 958, 1055, 1069
2359, 960, 1080, 1008, 1115
2360, 857, 959, 858, 1101
2361, 446, 386, 389, 1186
2362, 913, 1030, 1011, 1171
2363, 418, 428, 306, 963
2364, 580, 520, 521, 1051
2365, 343, 1169, 990, 1213
2366, 917, 1034, 969, 1150
2367, 961, 993, 908, 1205
2368, 944, 1078, 346, 1210
2369, 1004, 1080, 230, 1174
2370, 390, 446, 1102, 1107
2371, 925, 970, 1030, 1166
2372, 617, 631, 713, 984
2373, 899, 1120, 1029, 1160
2374, 962, 898, 1119, 1162
2375, 333, 332, 334, 1007
2376, 650, 1073, 920, 1194
2377, 936, 1179, 975, 1219
2378, 384, 878, 1050, 1135
2379, 480, 951, 369, 1154
2380, 599, 262, 672, 1064
2381, 198, 176, 175, 1181
2382, 984, 1103, 725, 1159
2383, 668, 613, 748, 1121
2384, 429, 1002, 414, 1145
2385, 1041, 1096, 171, 1131
2386, 902, 955, 1161, 1187
2387, 424, 989, 363, 1214
2388, 338, 415, 990, 1183
2389, 610, 777, 1042, 1172
2390, 902, 1101, 955, 1187
2391, 539, 547, 537, 1132
2392, 913, 1030, 1171, 1218
2393, 416, 410, 980, 1169
2394, 492, 552, 668, 1121
2395, 251, 1102, 988, 1164
2396, 972, 901, 1097, 1226
2397, 929, 1009, 977, 1063
2398, 489, 371, 370, 1038
2399, 862, 883, 829, 1133
2400, 688, 1143, 1097, 1201
2401, 1055, 1069, 958, 1219
2402, 333, 331, 332, 1106
2403, 239, 1045, 213, 1143
2404, 363, 424, 423, 989
2405, 210, 1175, 965, 1204
2406, 665, 745, 610, 1172
2407, 920, 1094, 1024, 1187
2408, 524, 523, 522, 971
2409, 923, 1036, 1013, 1074
2410, 538, 976, 536, 1057
2411, 839, 1009, 840, 1165
2412, 452, 491, 421, 967
2413, 593, 702, 279, 1005
2414, 407, 459, 1027, 1189
2415, 18, 180, 161, 590
2416, 1009, 1091, 943, 1193
2417, 509, 965, 1163, 1195
2418, 929, 1065, 988, 1165
2419, 993, 1095, 961, 1216
2420, 965, 1081, 953, 1175
2421, 392, 310, 393, 1070
2422, 910, 1032, 1066, 1190
2423, 909, 1114, 1017, 1133
2424, 377, 1082, 999, 1149
2425, 246, 247, 1157, 1173
2426, 341, 340, 342, 1141
2427, 1065, 1107, 842, 1167
2428, 375, 981, 454, 1092
2429, 514, 516, 515, 1061
2430, 807, 1037, 1125, 1208
2431, 340, 338, 415, 990
2432, 663, 765, 662, 974
2433, 925, 1020, 970, 1166
2434, 933, 1108, 987, 1211
2435, 400, 367, 401, 1085
2436, 708, 724, 661, 1111
2437, 565, 519, 494, 967
2438, 657, 716, 644, 1033
2439, 641, 1097, 938, 1201
2440, 994, 1077, 894, 1128
2441, 507, 448, 1057, 1158
2442, 223, 272, 271, 1070
2443, 248, 293, 977, 1173
2444, 509, 508, 965, 1195
2445, 549, 555, 548, 964
2446, 875, 826, 770, 1001
2447, 915, 1183, 1140, 1212
2448, 599, 216, 262, 1064
2449, 729, 1089, 1039, 1191
2450, 911, 1126, 1042, 1172
2451, 509, 510, 1081, 1175
2452, 864, 996, 833, 1116
2453, 969, 1142, 975, 1223
2454, 447, 291, 323, 1157
2455, 914, 1047, 974, 1075
2456, 953, 1081, 928, 1152
2457, 910, 1056, 980, 1190
2458, 704, 973, 1028, 1151
2459, 380, 1019, 379, 1170
2460, 725, 713, 631, 984
2461, 999, 1181, 922, 1209
2462, 736, 655, 1003, 1188
2463, 440, 379, 936, 1170
2464, 975, 1142, 914, 1179
2465, 782, 810, 809, 1037
2466, 903, 984, 1071, 1159
2467, 398, 985, 458, 1200
2468, 194, 183, 210, 965
2469, 362, 428, 1040, 1092
2470, 763, 606, 726, 977
2471, 305, 429, 255, 1002
2472, 851, 1098, 852, 1117
2473, 927, 1170, 989, 1197
2474, 268, 426, 222, 1027
2475, 964, 902, 1085, 1161
2476, 985, 1077, 904, 1144
2477, 898, 953, 1086, 1204
2478, 725, 713, 984, 1159
2479, 893, 972, 1043, 1056
2480, 1022, 1071, 887, 1146
2481, 259, 258, 257, 1148
2482, 561, 981, 451, 1206
2483, 250, 988, 220, 1186
2484, 904, 994, 1104, 1128
2485, 621, 1036, 719, 1074
2486, 917, 1071, 1022, 1146
2487, 377, 999, 1082, 1162
2488, 228, 447, 1125, 1157
2489, 454, 375, 451, 981
2490, 920, 1073, 959, 1187
2491, 273, 256, 260, 1109
2492, 888, 1055, 958, 1215
2493, 701, 743, 1054, 1199
2494, 890, 1077, 985, 1144
2495, 566, 1024, 966, 1194
2496, 577, 1024, 566, 1194
2497, 823, 1037, 807, 1208
2498, 678, 1023, 660, 1111
2499, 196, 953, 1083, 1175
2500, 963, 1040, 1031, 1214
2501, 419, 1070, 219, 1145
2502, 904, 997, 1041, 1128
2503, 487, 859, 1058, 1130
2504, 426, 308, 405, 1027
2505, 977, 1009, 911, 1126
2506, 183, 1149, 965, 1195
2507, 293, 1122, 977, 1173
2508, 675, 593, 47, 212
2509, 551, 571, 516, 1090
2510, 281, 265, 264, 956
2511, 701, 1054, 711, 1099
2512, 818, 583, 557, 1158
2513, 371, 481, 1038, 1124
2514, 305, 255, 62, 266
2515, 1078, 1139, 930, 1169
2516, 704, 774, 973, 1151
2517, 1017, 1114, 947, 1133
2518, 965, 898, 1082, 1204
2519, 961, 1020, 899, 1095
2520, 282, 987, 261, 1211
2521, 523, 521, 1051, 1192
2522, 573, 500, 528, 1156
2523, 856, 859, 854, 1130
2524, 526, 1006, 527, 1129
2525, 569, 533, 502, 1163
2526, 557, 1014, 806, 1158
2527, 310, 64, 419, 219
2528, 804, 750, 776, 1059
2529, 394, 1070, 419, 1145
2530, 935, 1102, 390, 1220
2531, 917, 1146, 1022, 1215
2532, 658, 711, 737, 971
2533, 365, 319, 379, 1019
2534, 444, 1038, 481, 1124
2535, 530, 586, 1035, 1129
2536, 339, 338, 340, 1141
2537, 723, 1034, 722, 1142
2538, 500, 566, 528, 966
2539, 216, 264, 265, 1064
2540, 902, 1058, 955, 1101
2541, 763, 977, 726, 1126
2542, 1030, 1113, 925, 1166
2543, 351, 359, 994, 1210
2544, 64, 310, 271, 219
2545, 220, 988, 251, 1102
2546, 592, 605, 604, 1150
2547, 988, 1102, 935, 1164
2548, 1097, 1143, 941, 1201
2549, 253, 983, 254, 1164
2550, 993, 1020, 961, 1095
2551, 560, 683, 552, 1121
2552, 472, 1123, 160, 1135
2553, 728, 1073, 650, 1194
2554, 944, 994, 985, 1077
2555, 886, 836, 837, 1042
2556, 561, 451, 304, 1206
2557, 900, 1031, 963, 1040
2558, 261, 279, 280, 987
2559, 540, 539, 499, 1124
2560, 506, 1083, 732, 1152
2561, 966, 1156, 728, 1199
2562, 375, 374, 471, 981
2563, 476, 583, 818, 1158
2564, 936, 958, 1197, 1219
2565, 862, 1039, 883, 1133
2566, 976, 1117, 940, 1132
2567, 942, 1117, 976, 1132
2568, 196, 210, 184, 1204
2569, 650, 601, 769, 1073
2570, 273, 1002, 255, 1145
2571, 963, 1031, 1006, 1129
2572, 695, 697, 987, 1211
2573, 367, 964, 1085, 1161
2574, 934, 1100, 1117, 1132
2575, 781, 811, 824, 1014
2576, 608, 652, 771, 1063
2577, 460, 418, 417, 1035
2578, 913, 1113, 1030, 1166
2579, 805, 1123, 802, 1135
2580, 231, 978, 1177, 1184
2581, 165, 395, 999, 1149
2582, 853, 826, 857, 1001
2583, 769, 613, 752, 1001
2584, 179, 229, 166, 1174
2585, 907, 1041, 997, 1128
2586, 183, 965, 194, 1195
2587, 968, 991, 919, 1203
2588, 985, 994, 904, 1077
2589, 159, 833, 1135, 1185
2590, 507, 557, 583, 1158
2591, 944, 910, 1078, 1210
2592, 523, 521, 522, 1051
2593, 162, 198, 187, 1147
2594, 201, 190, 1052, 1209
2595, 870, 852, 1084, 1127
2596, 787, 1123, 805, 1185
2597, 443, 1157, 1091, 1224
2598, 193, 978, 209, 1174
2599, 940, 1117, 1100, 1132
2600, 181, 165, 34, 311
2601, 1082, 441, 1163, 1195
2602, 935, 1065, 988, 1164
2603, 351, 357, 359, 1210
2604, 917, 1071, 1146, 1215
2605, 827, 877, 861, 1087
2606, 539, 537, 538, 976
2607, 813, 789, 814, 1134
2608, 966, 1073, 974, 1199
2609, 970, 891, 1030, 1166
2610, 515, 517, 519, 1061
2611, 905, 1061, 973, 1198
2612, 348, 436, 336, 1000
2613, 200, 188, 199, 1225
2614, 1011, 1030, 924, 1171
2615, 590, 187, 180, 1147
2616, 412, 413, 414, 1015
2617, 437, 381, 328, 1050
2618, 686, 1096, 1184, 1188
2619, 1007, 1087, 897, 1106
2620, 351, 359, 364, 994
2621, 802, 472, 779, 1135
2622, 359, 364, 994, 1200
2623, 930, 1026, 1095, 1218
2624, 743, 1156, 1054, 1199
2625, 763, 651, 1063, 1126
2626, 388, 1125, 462, 1224
2627, 672, 49, 262, 599
2628, 862, 718, 1039, 1133
2629, 168, 685, 16, 597
2630, 426, 407, 459, 1027
2631, 990, 1183, 415, 1213
2632, 241, 298, 282, 1049
2633, 47, 675, 212, 264
2634, 349, 1140, 989, 1170
2635, 808, 781, 134, 534
2636, 978, 1184, 1096, 1188
2637, 168, 178, 193, 978
2638, 336, 1000, 436, 1183
2639, 162, 20, 680, 187
2640, 874, 856, 882, 1101
2641, 744, 664, 611, 1059
2642, 304, 565, 494, 1206
2643, 1017, 1065, 909, 1133
2644, 983, 1064, 956, 1114
2645, 595, 495, 567, 1207
2646, 1006, 1031, 906, 1129
2647, 958, 1007, 897, 1106
2648, 370, 371, 481, 1038
2649, 1123, 1135, 805, 1185
2650, 687, 1143, 688, 1201
2651, 1011, 1138, 962, 1222
2652, 893, 1043, 972, 1221
2653, 984, 1053, 923, 1103
2654, 915, 958, 1069, 1140
2655, 183, 210, 965, 1204
2656, 252, 253, 254, 1164
2657, 229, 1004, 230, 1174
2658, 74, 782, 809, 242
2659, 908, 1036, 1013, 1216
2660, 739, 130, 554, 607
2661, 862, 608, 771, 1063
2662, 902, 955, 1058, 1161
2663, 868, 837, 839, 1009
2664, 861, 877, 844, 1087
2665, 909, 1064, 983, 1114
2666, 924, 1030, 1011, 1198
2667, 509, 1163, 558, 1195
2668, 942, 1117, 934, 1127
2669, 233, 1177, 954, 1184
2670, 934, 1117, 942, 1132
2671, 262, 672, 1064, 1089
2672, 904, 994, 985, 1200
2673, 900, 1031, 1040, 1217
2674, 170, 168, 16, 597
2675, 444, 1057, 1038, 1124
2676, 907, 997, 1104, 1128
2677, 256, 258, 260, 1109
2678, 697, 1103, 696, 1108
2679, 913, 962, 1079, 1222
2680, 893, 961, 1139, 1216
2681, 933, 695, 1108, 1211
2682, 431, 985, 458, 1079
2683, 350, 344, 416, 1078
2684, 396, 373, 468, 997
2685, 997, 1041, 199, 1225
2686, 225, 1174, 230, 1177
2687, 48, 216, 599, 675
2688, 701, 711, 773, 1099
2689, 1091, 1157, 943, 1224
2690, 32, 190, 307, 164
2691, 273, 260, 298, 1109
2692, 520, 561, 494, 1206
2693, 254, 253, 265, 983
2694, 907, 1104, 960, 1178
2695, 862, 829, 718, 1133
2696, 201, 1062, 1052, 1225
2697, 930, 1095, 1026, 1216
2698, 961, 1095, 899, 1139
2699, 32, 190, 397, 307
2700, 912, 1084, 942, 1105
2701, 846, 975, 882, 1223
2702, 744, 1067, 731, 1105
2703, 624, 622, 637, 1205
2704, 397, 398, 1052, 1209
2705, 907, 1174, 1004, 1202
2706, 903, 1005, 979, 1148
2707, 538, 537, 536, 976
2708, 480, 368, 1091, 1154
2709, 65, 310, 392, 223
2710, 163, 188, 30, 314
2711, 840, 1009, 839, 1193
2712, 216, 262, 49, 599
2713, 961, 908, 1036, 1205
2714, 568, 1057, 324, 1124
2715, 858, 959, 857, 1223
2716, 837, 982, 838, 1193
2717, 457, 453, 372, 1104
2718, 934, 1132, 942, 1155
2719, 691, 694, 693, 972
2720, 966, 906, 1156, 1199
2721, 274, 248, 293, 977
2722, 646, 773, 711, 1099
2723, 775, 785, 466, 1060
2724, 624, 625, 623, 1205
2725, 263, 251, 249, 1164
2726, 628, 710, 635, 1020
2727, 696, 725, 631, 1103
2728, 679, 18, 161, 590
2729, 267, 1002, 273, 1049
2730, 729, 1088, 1039, 1089
2731, 302, 227, 733, 1184
2732, 906, 1031, 1006, 1099
2733, 680, 187, 590, 1147
2734, 907, 1080, 1174, 1177
2735, 1011, 1030, 895, 1198
2736, 833, 864, 850, 996
2737, 942, 1127, 934, 1155
2738, 921, 1131, 948, 1153
2739, 918, 1007, 1012, 1146
2740, 1027, 1032, 931, 1190
2741, 566, 577, 546, 1024
2742, 440, 936, 439, 1106
2743, 930, 1139, 1095, 1216
2744, 787, 1060, 775, 1123
2745, 938, 1072, 1056, 1097
2746, 648, 602, 601, 1073
2747, 897, 1087, 1016, 1106
2748, 359, 372, 453, 1104
2749, 349, 989, 424, 1170
2750, 598, 875, 770, 1001
2751, 487, 859, 873, 1058
2752, 965, 1175, 953, 1204
2753, 773, 646, 707, 986
2754, 345, 344, 346, 1078
2755, 161, 170, 1096, 1131
2756, 163, 997, 314, 1202
2757, 883, 868, 847, 1039
2758, 416, 1078, 344, 1169
2759, 352, 1011, 366, 1171
2760, 172, 174, 173, 1225
2761, 872, 885, 849, 1098
2762, 891, 1095, 1026, 1218
2763, 935, 1017, 949, 1167
2764, 229, 179, 204, 1004
2765, 461, 1057, 448, 1158
2766, 932, 1038, 976, 1098
2767, 812, 1042, 1134, 1168
2768, 958, 936, 1106, 1219
2769, 185, 198, 1086, 1181
2770, 276, 807, 75, 782
2771, 466, 775, 1060, 1123
2772, 478, 204, 402, 1004
2773, 367, 445, 401, 964
2774, 935, 1107, 1065, 1167
2775, 1058, 1085, 902, 1161
2776, 913, 1120, 1113, 1166
2777, 966, 1024, 920, 1194
2778, 290, 214, 766, 1180
2779, 806, 557, 135, 781
2780, 179, 229, 13, 166
2781, 238, 239, 213, 1143
2782, 590, 19, 180, 187
2783, 673, 1064, 1089, 1191
2784, 691, 694, 972, 1108
2785, 908, 961, 1036, 1216
2786, 447, 228, 291, 1157
2787, 324, 568, 448, 1057
2788, 261, 282, 260, 1109
2789, 161, 170, 17, 597
2790, 953, 928, 1111, 1152
2791, 526, 525, 527, 1006
2792, 201, 1062, 176, 1181
2793, 777, 812, 792, 1042
2794, 907, 1128, 1104, 1178
2795, 65, 310, 223, 271
2796, 992, 1026, 937, 1141
2797, 812, 1134, 813, 1168
2798, 179, 1004, 229, 1174
2799, 391, 390, 1102, 1220
2800, 363, 362, 428, 1040
2801, 189, 162, 594, 1023
2802, 568, 324, 456, 1124
2803, 786, 775, 787, 1060
2804, 267, 1002, 1049, 1189
2805, 159, 1135, 1123, 1185
2806, 604, 718, 1133, 1191
2807, 48, 216, 675, 264
2808, 892, 1047, 974, 1179
2809, 406, 358, 416, 1032
2810, 417, 306, 94, 562
2811, 545, 544, 546, 1094
2812, 683, 668, 552, 1121
2813, 793, 1050, 798, 1135
2814, 862, 771, 828, 1063
2815, 535, 559, 1067, 1105
2816, 617, 616, 618, 1034
2817, 818, 557, 806, 1158
2818, 621, 698, 719, 1036
2819, 665, 721, 866, 1042
2820, 497, 550, 98, 1085
2821, 709, 1045, 690, 1143
2822, 421, 420, 464, 1138
2823, 348, 442, 413, 1015
2824, 673, 1064, 672, 1089
2825, 924, 1076, 1030, 1198
2826, 282, 298, 260, 1109
2827, 230, 1004, 277, 1080
2828, 166, 193, 209, 1174
2829, 943, 1091, 951, 1157
2830, 19, 590, 680, 187
2831, 959, 975, 1179, 1223
2832, 219, 257, 256, 1145
2833, 177, 195, 209, 1174
2834, 356, 377, 378, 1082
2835, 605, 615, 643, 1150
2836, 202, 185, 198, 1086
2837, 897, 1022, 1146, 1215
2838, 976, 1038, 932, 1057
2839, 372, 409, 457, 960
2840, 385, 550, 1048, 1085
2841, 880, 438, 1060, 1123
2842, 524, 522, 578, 971
2843, 361, 992, 427, 1171
2844, 797, 794, 796, 996
2845, 211, 669, 672, 1089
2846, 502, 533, 88, 425
2847, 20, 680, 594, 162
2848, 652, 763, 1063, 1088
2849, 825, 1154, 1107, 1165
2850, 412, 414, 429, 1002
2851, 495, 512, 567, 1207
2852, 1082, 1149, 441, 1195
2853, 550, 385, 98, 1085
2854, 714, 638, 741, 991
2855, 217, 242, 243, 1037
2856, 218, 246, 247, 1157
2857, 920, 1073, 966, 1194
2858, 850, 849, 996, 1098
2859, 708, 595, 567, 1207
2860, 652, 1063, 1039, 1088
2861, 201, 1052, 200, 1225
2862, 836, 886, 866, 1042
2863, 700, 1054, 743, 1156
2864, 739, 129, 682, 1155
2865, 814, 1116, 816, 1182
2866, 244, 246, 228, 1157
2867, 965, 1082, 1149, 1204
2868, 965, 1082, 1163, 1195
2869, 940, 1038, 976, 1124
2870, 430, 334, 332, 1007
2871, 951, 1165, 988, 1186
2872, 972, 1108, 933, 1226
2873, 358, 1021, 357, 1210
2874, 509, 965, 1081, 1163
2875, 291, 455, 323, 1157
2876, 897, 1055, 958, 1219
2877, 837, 839, 1009, 1193
2878, 856, 1058, 859, 1130
2879, 776, 1059, 750, 1182
2880, 856, 854, 855, 1100
2881, 395, 34, 165, 311
2882, 50, 672, 211, 669
2883, 815, 816, 797, 1116
2884, 702, 280, 45, 279
2885, 1009, 1165, 929, 1173
2886, 951, 1165, 1009, 1173
2887, 701, 743, 700, 1054
2888, 429, 255, 1002, 1145
2889, 1081, 1152, 953, 1175
2890, 217, 276, 75, 782
2891, 269, 221, 268, 1027
2892, 626, 699, 693, 1072
2893, 498, 135, 557, 781
2894, 388, 462, 327, 1224
2895, 898, 1086, 999, 1204
2896, 405, 404, 358, 1032
2897, 963, 900, 1040, 1092
2898, 968, 1028, 925, 1176
2899, 904, 1077, 994, 1128
2900, 1016, 1087, 434, 1106
2901, 838, 832, 863, 982
2902, 353, 1011, 366, 1222
2903, 604, 718, 829, 1133
2904, 509, 558, 508, 1195
2905, 652, 1039, 729, 1088
2906, 362, 1018, 375, 1092
2907, 604, 768, 718, 1191
2908, 494, 561, 304, 1206
2909, 165, 999, 182, 1149
2910, 204, 300, 229, 1004
2911, 907, 1080, 1004, 1174
2912, 197, 201, 176, 1181
2913, 408, 412, 470, 1046
2914, 405, 406, 407, 1032
2915, 787, 789, 788, 1134
2916, 1018, 1040, 937, 1217
2917, 292, 270, 235, 1115
2918, 1039, 1088, 929, 1089
2919, 752, 613, 668, 1121
2920, 201, 174, 1062, 1225
2921, 872, 851, 854, 1117
2922, 606, 52, 274, 738
2923, 753, 695, 691, 1108
2924, 660, 1023, 756, 1203
2925, 691, 972, 693, 1226
2926, 373, 396, 474, 1200
2927, 754, 587, 774, 1090
2928, 706, 620, 632, 1044
2929, 480, 1091, 443, 1157
2930, 497, 548, 572, 1085
2931, 999, 1162, 473, 1209
2932, 612, 22, 678, 169
2933, 279, 46, 593, 212
2934, 377, 999, 395, 1149
2935, 501, 527, 1054, 1156
2936, 256, 273, 255, 1145
2937, 262, 211, 672, 1089
2938, 626, 627, 699, 1072
2939, 402, 204, 191, 1004
2940, 349, 423, 989, 1212
2941, 1058, 1100, 902, 1130
2942, 980, 1043, 931, 1190
2943, 1004, 1174, 195, 1202
2944, 474, 396, 307, 1052
2945, 261, 987, 280, 1211
2946, 901, 1043, 1056, 1190
2947, 691, 1108, 972, 1226
2948, 974, 1047, 914, 1179
2949, 678, 660, 724, 1111
2950, 585, 1121, 492, 1155
2951, 628, 629, 627, 1112
2952, 764, 1084, 727, 1105
2953, 251, 252, 1102, 1164
2954, 295, 248, 274, 1088
2955, 804, 611, 750, 1059
2956, 836, 158, 1134, 1168
2957, 980, 1169, 410, 1213
2958, 931, 1032, 980, 1190
2959, 1048, 902, 1100, 1130
2960, 965, 1149, 1082, 1195
2961, 366, 1011, 352, 1222
2962, 349, 989, 1140, 1212
2963, 837, 832, 838, 982
2964, 672, 262, 50, 211
2965, 572, 1048, 550, 1085
2966, 1056, 1066, 901, 1190
2967, 600, 1142, 717, 1223
2968, 385, 400, 98, 1085
2969, 268, 221, 59, 426
2970, 197, 182, 181, 999
2971, 255, 305, 62, 429
2972, 673, 1089, 729, 1191
2973, 415, 1183, 436, 1213
2974, 987, 1109, 261, 1148
2975, 326, 489, 859, 1130
2976, 1113, 1120, 925, 1166
2977, 98, 400, 497, 1085
2978, 643, 767, 715, 998
2979, 352, 1011, 1171, 1222
2980, 280, 987, 712, 1211
2981, 295, 1088, 211, 1089
2982, 999, 182, 1149, 1204
2983, 846, 1118, 975, 1223
2984, 1193, 1208, 1060, 1224
2985, 290, 766, 603, 1180
2986, 951, 369, 1154, 1186
2987, 163, 199, 188, 997
2988, 850, 1084, 852, 1098
2989, 977, 1009, 929, 1173
2990, 608, 1039, 652, 1063
2991, 364, 458, 985, 1200
2992, 447, 291, 71, 323
2993, 903, 1053, 984, 1103
2994, 448, 324, 102, 568
2995, 1039, 1089, 909, 1191
2996, 319, 955, 317, 1016
2997, 883, 1039, 847, 1133
2998, 189, 678, 22, 169
2999, 83, 467, 780, 793
3000, 218, 455, 291, 1157
3001, 704, 1028, 649, 1151
3002, 227, 275, 231, 1184
3003, 775, 466, 80, 1123
3004, 181, 197, 999, 1209
3005, 647, 681, 757, 1153
3006, 786, 1060, 982, 1208
3007, 359, 453, 373, 1104
3008, 284, 742, 709, 1045
3009, 164, 201, 190, 1052
3010, 244, 245, 246, 1122
3011, 79, 466, 775, 785
3012, 308, 409, 404, 1115
3013, 797, 796, 815, 996
3014, 449, 1163, 441, 1195
3015, 634, 629, 714, 1010
3016, 290, 233, 214, 1180
3017, 509, 1081, 569, 1163
3018, 669, 1088, 729, 1089
3019, 510, 1152, 1081, 1175
3020, 348, 336, 334, 1000
3021, 850, 849, 833, 996
3022, 554, 129, 739, 1155
3023, 786, 982, 790, 1208
3024, 900, 1040, 1018, 1217
3025, 623, 1036, 621, 1205
3026, 627, 699, 1072, 1112
3027, 288, 766, 214, 1180
3028, 642, 736, 655, 1003
3029, 680, 756, 594, 1147
3030, 921, 1096, 1041, 1131
3031, 392, 316, 66, 285
3032, 425, 533, 88, 312
3033, 799, 798, 797, 1116
3034, 1060, 1193, 982, 1208
3035, 404, 372, 357, 1021
3036, 835, 880, 438, 1060
3037, 250, 249, 251, 988
3038, 441, 1082, 377, 1149
3039, 316, 391, 390, 1102
3040, 478, 300, 204, 1004
3041, 711, 701, 589, 1054
3042, 269, 1027, 287, 1093
3043, 679, 161, 17, 597
3044, 396, 30, 188, 314
3045, 175, 176, 174, 1062
3046, 375, 362, 374, 1018
3047, 897, 958, 1106, 1219
3048, 486, 1058, 318, 1161
3049, 1008, 1177, 1080, 1178
3050, 225, 166, 229, 1174
3051, 387, 84, 780, 803
3052, 223, 392, 66, 285
3053, 930, 1139, 1078, 1160
3054, 744, 727, 664, 1084
3055, 538, 1057, 568, 1124
3056, 911, 1009, 977, 1122
3057, 989, 1170, 927, 1214
3058, 862, 1039, 608, 1063
3059, 374, 362, 361, 1018
3060, 388, 78, 783, 785
3061, 220, 250, 251, 988
3062, 166, 12, 193, 225
3063, 878, 384, 160, 1135
3064, 594, 21, 162, 189
3065, 841, 842, 1065, 1107
3066, 189, 594, 678, 1023
3067, 731, 505, 607, 1105
3068, 466, 785, 327, 1060
3069, 170, 178, 168, 1096
3070, 877, 846, 844, 1118
3071, 478, 277, 300, 1004
3072, 288, 591, 766, 1180
3073, 907, 960, 1080, 1178
3074, 683, 752, 668, 1121
3075, 743, 728, 1156, 1199
3076, 743, 728, 596, 1156
3077, 399, 456, 371, 1124
3078, 823, 807, 801, 1208
3079, 835, 1060, 438, 1224
3080, 467, 82, 384, 793
3081, 935, 1167, 949, 1220
3082, 963, 900, 1092, 1192
3083, 470, 1002, 305, 1189
3084, 426, 60, 222, 459
3085, 731, 1067, 559, 1105
3086, 593, 676, 677, 1005
3087, 1008, 1080, 960, 1178
3088, 182, 165, 181, 999
3089, 445, 460, 313, 1035
3090, 692, 740, 603, 1180
3091, 910, 980, 1032, 1190
3092, 183, 965, 1149, 1204
3093, 862, 868, 1039, 1063
3094, 267, 266, 1002, 1189
3095, 715, 674, 768, 1191
3096, 502, 449, 558, 1163
3097, 824, 806, 1014, 1158
3098, 829, 860, 152, 604
3099, 746, 767, 643, 998
3100, 704, 703, 649, 1028
3101, 1038, 1057, 976, 1124
3102, 457, 403, 453, 1104
3103, 308, 221, 483, 1115
3104, 201, 200, 174, 1225
3105, 632, 765, 707, 1075
3106, 709, 213, 284, 1045
3107, 1125, 1208, 943, 1224
3108, 671, 144, 784, 804
3109, 880, 160, 383, 1123
3110, 568, 456, 499, 1124
3111, 313, 417, 95, 562
3112, 636, 1028, 703, 1176
3113, 788, 790, 786, 982
3114, 504, 26, 167, 194
3115, 270, 483, 221, 1115
3116, 862, 868, 883, 1039
3117, 703, 636, 649, 1028
3118, 907, 1174, 978, 1177
3119, 377, 473, 999, 1162
3120, 468, 373, 453, 1104
3121, 524, 525, 523, 1006
3122, 399, 385, 99, 575
3123, 804, 671, 144, 611
3124, 313, 417, 562, 1035
3125, 779, 805, 802, 1135
3126, 258, 261, 1109, 1148
3127, 793, 798, 779, 1135
3128, 621, 623, 698, 1036
3129, 493, 313, 95, 562
3130, 273, 267, 266, 1002
3131, 448, 568, 507, 1057
3132, 183, 186, 1149, 1195
3133, 244, 1037, 243, 1122
3134, 173, 1041, 171, 1131
3135, 562, 493, 313, 1035
3136, 267, 1049, 241, 1196
3137, 371, 489, 465, 1130
3138, 781, 498, 134, 534
3139, 782, 74, 217, 242
3140, 478, 450, 277, 1004
3141, 458, 431, 364, 985
3142, 919, 1119, 1086, 1181
3143, 347, 346, 431, 1079
3144, 403, 468, 453, 1104
3145, 171, 1096, 170, 1131
3146, 275, 193, 12, 225
3147, 702, 697, 712, 987
3148, 735, 551, 119, 574
3149, 904, 1041, 997, 1225
3150, 452, 565, 90, 304
3151, 597, 751, 679, 1096
3152, 1014, 1057, 932, 1158
3153, 482, 349, 424, 1170
3154, 877, 874, 846, 1016
3155, 385, 550, 99, 575
3156, 329, 35, 186, 1149
3157, 343, 410, 1169, 1213
3158, 593, 702, 46, 279
3159, 43, 215, 588, 742
3160, 337, 338, 339, 1212
3161, 978, 954, 1184, 1188
3162, 943, 1125, 1037, 1208
3163, 439, 440, 319, 936
3164, 213, 1045, 709, 1143
3165, 353, 356, 420, 1138
3166, 988, 1065, 935, 1107
3167, 827, 434, 1016, 1087
3168, 130, 505, 554, 607
3169, 440, 335, 349, 1140
3170, 505, 731, 559, 1105
3171, 343, 344, 342, 1169
3172, 1039, 1133, 718, 1191
3173, 812, 1042, 777, 1172
3174, 1047, 1170, 927, 1197
3175, 414, 394, 419, 1145
3176, 119, 587, 551, 735
3177, 828, 862, 154, 771
3178, 222, 287, 1027, 1189
3179, 862, 718, 608, 1039
3180, 861, 842, 876, 1167
3181, 602, 600, 601, 1142
3182, 262, 1064, 286, 1089
3183, 325, 488, 369, 1154
3184, 159, 160, 1123, 1135
3185, 260, 258, 261, 1109
3186, 361, 341, 427, 992
3187, 712, 280, 45, 702
3188, 799, 1116, 814, 1185
3189, 307, 397, 398, 1052
3190, 166, 229, 13, 225
3191, 306, 428, 454, 1092
3192, 655, 640, 1003, 1201
3193, 510, 1083, 1152, 1175
3194, 490, 363, 428, 1040
3195, 424, 1170, 989, 1214
3196, 424, 349, 423, 989
3197, 282, 261, 280, 1211
3198, 857, 858, 855, 1101
3199, 387, 818, 803, 1158
3200, 825, 1107, 841, 1165
3201, 595, 735, 574, 1207
3202, 194, 504, 26, 508
3203, 712, 987, 697, 1211
3204, 276, 244, 228, 1125
3205, 376, 356, 355, 1162
3206, 736, 740, 655, 1188
3207, 484, 360, 432, 1012
3208, 273, 266, 255, 1002
3209, 585, 552, 492, 1121
3210, 593, 677, 702, 1005
3211, 182, 1086, 184, 1204
3212, 780, 794, 793, 1050
3213, 792, 1042, 812, 1168
3214, 875, 857, 826, 1001
3215, 723, 616, 722, 1034
3216, 910, 1066, 1056, 1190
3217, 401, 313, 96, 493
3218, 25, 167, 192, 1175
3219, 743, 701, 762, 1199
3220, 245, 1122, 293, 1173
3221, 746, 998, 643, 1159
3222, 606, 226, 53, 730
3223, 131, 731, 505, 607
3224, 221, 308, 59, 426
3225, 806, 781, 824, 1014
3226, 209, 193, 178, 978
3227, 838, 835, 1091, 1193
3228, 881, 157, 667, 1182
3229, 765, 723, 662, 1075
3230, 628, 625, 710, 1020
3231, 101, 324, 456, 568
3232, 989, 1170, 1140, 1197
3233, 161, 171, 170, 1131
3234, 719, 631, 619, 1074
3235, 803, 795, 780, 1158
3236, 699, 641, 689, 1097
3237, 225, 229, 230, 1174
3238, 451, 981, 471, 1206
3239, 449, 558, 1163, 1195
3240, 226, 274, 293, 977
3241, 380, 365, 379, 1019
3242, 286, 253, 263, 1164
3243, 487, 326, 859, 1130
3244, 337, 336, 338, 1183
3245, 335, 336, 337, 1140
3246, 668, 492, 128, 552
3247, 306, 576, 94, 562
3248, 222, 268, 60, 426
3249, 387, 461, 448, 1158
3250, 793, 82, 384, 779
3251, 235, 236, 234, 1008
3252, 367, 1085, 469, 1161
3253, 226, 52, 274, 606
3254, 296, 1045, 239, 1196
3255, 345, 352, 1136, 1222
3256, 618, 616, 723, 1034
3257, 700, 563, 589, 1054
3258, 780, 328, 84, 387
3259, 224, 230, 277, 1080
3260, 688, 709, 690, 1143
3261, 43, 215, 742, 284
3262, 778, 813, 814, 1168
3263, 545, 543, 1094, 1121
3264, 196, 1083, 192, 1175
3265, 991, 1176, 638, 1203
3266, 507, 448, 102, 568
3267, 231, 225, 230, 1177
3268, 21, 594, 678, 189
3269, 739, 682, 654, 1155
3270, 802, 775, 80, 1123
3271, 1047, 936, 1170, 1197
3272, 682, 129, 492, 1155
3273, 556, 1083, 510, 1175
3274, 228, 291, 71, 447
3275, 1006, 1054, 906, 1099
3276, 479, 380, 482, 1170
3277, 664, 834, 720, 1059
3278, 416, 343, 410, 1169
3279, 687, 692, 591, 1180
3280, 78, 388, 327, 785
3281, 449, 502, 425, 1163
3282, 244, 276, 217, 1037
3283, 825, 841, 1154, 1165
3284, 627, 633, 699, 1112
3285, 161, 180, 172, 1131
3286, 287, 268, 222, 1027
3287, 352, 366, 433, 1171
3288, 179, 195, 1004, 1174
3289, 556, 25, 192, 1175
3290, 267, 273, 298, 1049
3291, 595, 117, 567, 495
3292, 328, 83, 467, 780
3293, 358, 357, 350, 1210
3294, 476, 818, 387, 1158
3295, 382, 1091, 835, 1224
3296, 670, 745, 1068, 1172
3297, 1142, 1179, 975, 1223
3298, 159, 833, 848, 1135
3299, 658, 657, 645, 1033
3300, 165, 186, 35, 1149
3301, 183, 194, 186, 1195
3302, 163, 199, 997, 1202
3303, 437, 878, 865, 1050
3304, 314, 997, 468, 1202
3305, 270, 57, 483, 224
3306, 931, 1049, 1002, 1189
3307, 860, 592, 152, 604
3308, 826, 870, 772, 1127
3309, 815, 1059, 776, 1182
3310, 364, 398, 458, 1200
3311, 729, 652, 608, 1039
3312, 350, 346, 1078, 1210
3313, 466, 79, 327, 785
3314, 277, 450, 56, 224
3315, 180, 187, 175, 1147
3316, 798, 805, 1135, 1185
3317, 234, 214, 233, 1180
3318, 389, 390, 446, 1102
3319, 869, 969, 1118, 1223
3320, 769, 598, 770, 1001
3321, 367, 318, 365, 1161
3322, 304, 491, 452, 1206
3323, 798, 799, 805, 1185
3324, 852, 853, 1117, 1127
3325, 473, 311, 999, 1209
3326, 753, 690, 1045, 1226
3327, 831, 600, 717, 1223
3328, 352, 1171, 1136, 1222
3329, 468, 314, 396, 997
3330, 470, 412, 305, 1002
3331, 207, 202, 189, 1023
3332, 368, 871, 382, 1091
3333, 323, 443, 447, 1157
3334, 1080, 1177, 907, 1178
3335, 139, 749, 777, 792
3336, 1095, 1139, 961, 1216
3337, 472, 160, 384, 1135
3338, 728, 650, 684, 1194
3339, 234, 232, 235, 1008
3340, 523, 1006, 526, 1192
3341, 823, 782, 807, 1037
3342, 456, 399, 100, 575
3343, 706, 622, 620, 1044
3344, 472, 384, 779, 1135
3345, 441, 377, 395, 1149
3346, 191, 1004, 195, 1202
3347, 339, 1141, 354, 1212
3348, 522, 571, 503, 1090
3349, 305, 1002, 266, 1189
3350, 837, 838, 839, 1193
3351, 466, 383, 80, 1123
3352, 211, 1088, 669, 1089
3353, 1007, 897, 1146, 1215
3354, 311, 181, 999, 1209
3355, 729, 1039, 718, 1191
3356, 697, 696, 695, 1108
3357, 182, 185, 184, 1086
3358, 683, 127, 560, 552
3359, 913, 1171, 1136, 1218
3360, 831, 858, 857, 1223
3361, 247, 250, 218, 1186
3362, 365, 380, 445, 1019
3363, 929, 1063, 977, 1088
3364, 183, 1149, 182, 1204
3365, 199, 1041, 173, 1225
3366, 499, 456, 100, 575
3367, 190, 201, 197, 1209
3368, 665, 610, 721, 1042
3369, 787, 805, 789, 1185
3370, 763, 726, 651, 1126
3371, 629, 634, 633, 1112
3372, 836, 157, 158, 1168
3373, 318, 317, 319, 955
3374, 484, 463, 360, 1012
3375, 128, 682, 492, 668
3376, 165, 182, 183, 1149
3377, 903, 1103, 984, 1159
3378, 913, 1171, 1011, 1222
3379, 871, 835, 382, 1091
3380, 841, 1107, 1065, 1165
3381, 323, 291, 70, 455
3382, 191, 179, 195, 1004
3383, 581, 808, 534, 1067
3384, 492, 129, 554, 1155
3385, 486, 367, 469, 1161
3386, 361, 427, 433, 1171
3387, 848, 1050, 878, 1135
3388, 535, 570, 505, 1105
3389, 975, 1118, 969, 1223
3390, 484, 1012, 432, 1220
3391, 547, 1132, 564, 1155
3392, 563, 525, 524, 1054
3393, 519, 532, 515, 1025
3394, 776, 804, 143, 750
3395, 451, 304, 91, 561
3396, 472, 383, 160, 1123
3397, 402, 1004, 191, 1202
3398, 226, 278, 53, 730
3399, 495, 513, 512, 1207
3400, 505, 559, 731, 131
3401, 357, 358, 404, 1021
3402, 841, 1065, 847, 1165
3403, 252, 297, 285, 1102
3404, 498, 536, 535, 1014
3405, 958, 1069, 1140, 1197
3406, 879, 866, 721, 1042
3407, 568, 456, 101, 499
3408, 311, 377, 473, 999
3409, 638, 659, 741, 991
3410, 231, 1177, 233, 1184
3411, 651, 828, 771, 1063
3412, 212, 283, 281, 1005
3413, 172, 173, 171, 1131
3414, 279, 283, 212, 1005
3415, 1136, 1171, 913, 1222
3416, 810, 791, 1068, 1172
3417, 581, 817, 808, 1067
3418, 827, 861, 434, 1087
3419, 355, 431, 458, 1079
3420, 1018, 1040, 900, 1092
3421, 403, 1004, 402, 1202
3422, 485, 432, 1167, 1220
3423, 407, 426, 405, 1027
3424, 906, 1054, 1156, 1199
3425, 493, 96, 401, 549
3426, 918, 1007, 1146, 1215
3427, 551, 587, 120, 1090
3428, 878, 848, 865, 1050
3429, 350, 346, 344, 1078
3430, 510, 509, 504, 1175
3431, 246, 245, 247, 1173
3432, 975, 1179, 914, 1219
3433, 535, 505, 559, 1105
3434, 660, 594, 756, 1023
3435, 521, 520, 518, 1051
3436, 545, 585, 543, 1121
3437, 471, 451, 375, 981
3438, 734, 120, 587, 1090
3439, 381, 370, 444, 1038
3440, 840, 839, 838, 1193
3441, 349, 337, 423, 1212
3442, 1078, 1136, 930, 1160
3443, 448, 476, 387, 1158
3444, 349, 1140, 337, 1212
3445, 569, 509, 511, 1081
3446, 855, 882, 856, 1101
3447, 427, 1136, 352, 1171
3448, 753, 690, 742, 1045
3449, 954, 1177, 1008, 1178
3450, 288, 213, 41, 1143
3451, 510, 1083, 506, 1152
3452, 127, 683, 668, 552
3453, 700, 501, 563, 1054
3454, 940, 1048, 1100, 1130
3455, 977, 1122, 1009, 1173
3456, 755, 667, 157, 1182
3457, 329, 395, 35, 1149
3458, 267, 241, 240, 1196
3459, 201, 164, 200, 1052
3460, 722, 969, 717, 1142
3461, 561, 92, 451, 496
3462, 455, 480, 323, 1157
3463, 153, 862, 829, 718
3464, 830, 859, 106, 489
3465, 41, 591, 288, 1143
3466, 899, 1160, 1095, 1166
3467, 845, 869, 884, 1118
3468, 527, 525, 501, 1054
3469, 214, 237, 288, 1180
3470, 599, 672, 673, 1064
3471, 591, 688, 687, 1143
3472, 187, 198, 175, 1147
3473, 496, 92, 451, 454
3474, 480, 369, 368, 1154
3475, 674, 1064, 673, 1191
3476, 107, 859, 873, 487
3477, 382, 835, 438, 1224
3478, 813, 792, 812, 1168
3479, 117, 708, 595, 567
3480, 688, 1097, 641, 1201
3481, 900, 1018, 1076, 1217
3482, 1039, 1063, 929, 1088
3483, 659, 991, 638, 1203
3484, 947, 1133, 1114, 1191
3485, 220, 251, 252, 1102
3486, 170, 171, 178, 1096
3487, 800, 814, 816, 1182
3488, 173, 199, 177, 1041
3489, 174, 176, 201, 1062
3490, 721, 1042, 749, 1168
3491, 497, 572, 550, 1085
3492, 723, 632, 618, 1075
3493, 381, 105, 830, 865
3494, 621, 719, 619, 1074
3495, 291, 218, 70, 455
3496, 658, 734, 754, 1090
3497, 234, 237, 214, 1180
3498, 229, 277, 230, 1004
3499, 642, 655, 640, 1003
3500, 51, 738, 669, 1088
3501, 479, 482, 424, 1214
3502, 748, 1127, 654, 1155
3503, 438, 466, 1060, 1123
3504, 575, 550, 540, 1048
3505, 217, 243, 244, 1037
3506, 729, 673, 672, 1089
3507, 304, 565, 90, 494
3508, 909, 1089, 1064, 1191
3509, 479, 1170, 482, 1214
3510, 419, 394, 310, 1070
3511, 271, 257, 219, 1070
3512, 315, 318, 486, 1058
3513, 992, 1136, 427, 1171
3514, 490, 363, 1040, 1214
3515, 377, 311, 395, 999
3516, 630, 714, 629, 1010
3517, 57, 320, 483, 224
3518, 359, 373, 364, 1200
3519, 652, 729, 669, 1088
3520, 511, 509, 510, 1081
3521, 218, 69, 455, 1186
3522, 876, 842, 1107, 1167
3523, 269, 287, 240, 1093
3524, 879, 1042, 721, 1168
3525, 909, 1133, 1039, 1191
3526, 843, 841, 842, 1065
3527, 384, 878, 437, 1050
3528, 506, 510, 556, 1083
3529, 1095, 1166, 1160, 1218
3530, 216, 286, 262, 1064
3531, 954, 1177, 978, 1184
3532, 798, 793, 794, 1050
3533, 744, 731, 727, 1105
3534, 1095, 1139, 930, 1160
3535, 559, 759, 581, 1067
3536, 380, 379, 482, 1170
3537, 584, 546, 548, 1024
3538, 671, 817, 759, 1067
3539, 561, 304, 91, 494
3540, 713, 746, 643, 1159
3541, 257, 271, 272, 1070
3542, 899, 1139, 1095, 1160
3543, 330, 487, 1058, 1130
3544, 686, 597, 685, 1096
3545, 589, 700, 123, 563
3546, 157, 666, 755, 1168
3547, 858, 846, 882, 1223
3548, 652, 738, 763, 1088
3549, 639, 636, 703, 1176
3550, 165, 35, 395, 1149
3551, 499, 539, 538, 1124
3552, 731, 759, 559, 1067
3553, 610, 749, 721, 1042
3554, 580, 561, 520, 981
3555, 671, 731, 744, 1067
3556, 612, 724, 732, 1083
3557, 802, 80, 383, 1123
3558, 542, 550, 572, 1048
3559, 248, 245, 293, 1173
3560, 799, 816, 814, 1116
3561, 764, 653, 727, 1084
3562, 742, 709, 42, 284
3563, 482, 1170, 424, 1214
3564, 859, 856, 873, 1058
3565, 274, 738, 51, 1088
3566, 551, 120, 503, 1090
3567, 610, 139, 749, 777
3568, 899, 1095, 1020, 1166
3569, 662, 723, 602, 1142
3570, 740, 686, 1184, 1188
3571, 839, 841, 847, 1165
3572, 482, 440, 349, 1170
3573, 670, 758, 819, 1068
3574, 722, 614, 717, 969
3575, 530, 527, 529, 1129
3576, 697, 725, 696, 1103
3577, 735, 595, 704, 1207
3578, 599, 673, 674, 1064
3579, 301, 758, 278, 1068
3580, 657, 644, 645, 1033
3581, 638, 1176, 639, 1203
3582, 802, 805, 787, 1123
3583, 386, 455, 69, 1186
3584, 321, 861, 110, 876
3585, 734, 503, 120, 1090
3586, 305, 61, 459, 1189
3587, 558, 502, 87, 449
3588, 556, 192, 1083, 1175
3589, 126, 683, 560, 1194
3590, 305, 266, 61, 1189
3591, 474, 1052, 398, 1200
3592, 812, 777, 822, 1172
3593, 290, 38, 227, 1184
3594, 730, 278, 758, 1068
3595, 143, 804, 611, 750
3596, 709, 41, 213, 1143
3597, 909, 1114, 1133, 1191
3598, 370, 481, 444, 1038
3599, 289, 250, 220, 1186
3600, 437, 467, 384, 1050
3601, 163, 208, 199, 1202
3602, 295, 211, 263, 1089
3603, 448, 461, 444, 1057
3604, 515, 532, 513, 1025
3605, 243, 242, 278, 1068
3606, 745, 730, 670, 1068
3607, 192, 196, 169, 1083
3608, 485, 432, 321, 1167
3609, 840, 838, 1091, 1193
3610, 660, 1111, 1023, 1203
3611, 305, 412, 429, 1002
3612, 41, 709, 591, 1143
3613, 475, 303, 228, 1125
3614, 309, 322, 331, 1087
3615, 402, 403, 450, 1004
3616, 230, 1080, 232, 1177
3617, 695, 712, 697, 1211
3618, 495, 514, 513, 1207
3619, 824, 795, 806, 1158
3620, 534, 535, 559, 1067
3621, 522, 521, 518, 1051
3622, 58, 483, 308, 221
3623, 612, 760, 203, 1083
3624, 753, 588, 695, 1211
3625, 483, 58, 270, 221
3626, 309, 434, 861, 1087
3627, 810, 791, 809, 1068
3628, 308, 483, 409, 1115
3629, 592, 614, 605, 1150
3630, 574, 495, 595, 1207
3631, 671, 784, 817, 1067
3632, 560, 552, 545, 1121
3633, 838, 835, 840, 1091
3634, 808, 784, 811, 1067
3635, 506, 732, 116, 567
3636, 415, 338, 436, 1183
3637, 913, 1160, 1120, 1166
3638, 930, 1136, 992, 1218
3639, 480, 368, 443, 1091
3640, 63, 219, 255, 1145
3641, 449, 502, 87, 425
3642, 436, 411, 415, 1213
3643, 67, 316, 389, 1102
3644, 355, 347, 1079, 1222
3645, 345, 347, 352, 1222
3646, 1065, 1107, 988, 1165
3647, 946, 1183, 990, 1213
3648, 450, 320, 56, 224
3649, 574, 514, 495, 1207
3650, 439, 1016, 434, 1106
3651, 943, 1208, 1193, 1224
3652, 218, 289, 69, 1186
3653, 670, 819, 791, 1068
3654, 582, 556, 192, 1083
3655, 547, 564, 554, 1155
3656, 403, 314, 468, 1202
3657, 394, 393, 310, 1070
3658, 612, 203, 169, 1083
3659, 450, 478, 402, 1004
3660, 816, 815, 776, 1182
3661, 353, 366, 352, 1222
3662, 689, 1097, 688, 1226
3663, 959, 1179, 1142, 1223
3664, 828, 1063, 651, 1126
3665, 286, 216, 265, 1064
3666, 665, 726, 745, 1126
3667, 203, 582, 192, 1083
3668, 400, 469, 367, 1085
3669, 812, 788, 813, 1134
3670, 855, 854, 853, 1100
3671, 686, 685, 733, 1184
3672, 869, 1118, 846, 1223
3673, 672, 669, 729, 1089
3674, 690, 689, 688, 1226
3675, 858, 882, 855, 1101
3676, 213, 42, 709, 284
3677, 557, 536, 498, 1014
3678, 449, 425, 441, 1163
3679, 613, 769, 770, 1001
3680, 467, 437, 328, 1050
3681, 853, 1100, 854, 1117
3682, 177, 171, 173, 1041
3683, 691, 693, 689, 1226
3684, 863, 159, 160, 1123
3685, 836, 1134, 1042, 1168
3686, 428, 362, 375, 1092
3687, 189, 202, 162, 1023
3688, 804, 815, 821, 1059
3689, 472, 802, 383, 1123
3690, 427, 345, 352, 1136
3691, 329, 1149, 186, 1195
3692, 167, 25, 504, 1175
3693, 913, 1160, 1166, 1218
3694, 266, 222, 61, 1189
3695, 420, 356, 378, 1138
3696, 222, 459, 61, 1189
3697, 1030, 1166, 891, 1218
3698, 615, 605, 614, 1150
3699, 383, 880, 8, 160
3700, 879, 836, 866, 1042
3701, 51, 669, 211, 1088
3702, 834, 852, 850, 1084
3703, 704, 705, 774, 1151
3704, 918, 1146, 1071, 1215
3705, 343, 415, 410, 1213
3706, 922, 1162, 999, 1209
3707, 296, 282, 215, 1211
3708, 204, 179, 191, 1004
3709, 339, 341, 354, 1141
3710, 329, 441, 1149, 1195
3711, 782, 823, 810, 1037
3712, 420, 378, 464, 1138
3713, 220, 67, 389, 1102
3714, 544, 543, 542, 1094
3715, 742, 690, 709, 1045
3716, 386, 446, 369, 1186
3717, 228, 447, 475, 1125
3718, 309, 861, 110, 321
3719, 732, 582, 760, 1083
3720, 841, 825, 842, 1107
3721, 525, 526, 523, 1006
3722, 639, 1111, 660, 1203
3723, 398, 397, 473, 1209
3724, 1095, 1160, 930, 1218
3725, 499, 538, 568, 1124
3726, 355, 353, 347, 1222
3727, 913, 1166, 1030, 1218
3728, 488, 368, 369, 1154
3729, 288, 766, 40, 214
3730, 820, 276, 303, 1125
3731, 700, 123, 563, 501
3732, 556, 504, 25, 1175
3733, 343, 416, 344, 1169
3734, 440, 482, 379, 1170
3735, 386, 69, 289, 1186
3736, 832, 1134, 158, 1185
3737, 292, 232, 230, 1080
3738, 581, 759, 817, 1067
3739, 851, 872, 849, 1098
3740, 342, 345, 427, 1136
3741, 815, 804, 776, 1059
3742, 992, 1136, 1171, 1218
3743, 638, 630, 636, 1176
3744, 720, 750, 1059, 1182
3745, 526, 530, 531, 1129
3746, 206, 194, 508, 1195
3747, 508, 579, 206, 1195
3748, 830, 105, 381, 370
3749, 313, 460, 417, 1035
3750, 239, 284, 213, 1045
3751, 708, 116, 732, 567
3752, 603, 38, 290, 1184
3753, 325, 1107, 825, 1154
3754, 1052, 1062, 904, 1225
3755, 229, 300, 277, 1004
3756, 448, 583, 103, 476
3757, 584, 566, 546, 1024
3758, 718, 153, 862, 608
3759, 259, 283, 258, 1148
3760, 842, 825, 876, 1107
3761, 326, 465, 489, 1130
3762, 63, 419, 219, 1145
3763, 518, 517, 516, 1061
3764, 211, 274, 51, 1088
3765, 748, 654, 682, 1155
3766, 666, 157, 879, 1168
3767, 826, 148, 772, 870
3768, 819, 758, 301, 1068
3769, 487, 873, 315, 1058
3770, 276, 820, 807, 1125
3771, 681, 680, 590, 1147
3772, 126, 684, 683, 1194
3773, 687, 688, 641, 1201
3774, 158, 1116, 833, 1185
3775, 239, 296, 284, 1045
3776, 562, 530, 586, 1035
3777, 733, 227, 38, 1184
3778, 670, 1068, 791, 1172
3779, 184, 185, 202, 1086
3780, 836, 1042, 879, 1168
3781, 487, 107, 859, 326
3782, 367, 486, 318, 1161
3783, 402, 191, 29, 1202
3784, 413, 442, 414, 1015
3785, 124, 700, 596, 1156
3786, 650, 728, 648, 1073
3787, 878, 384, 8, 160
3788, 67, 285, 316, 1102
3789, 766, 40, 591, 288
3790, 33, 181, 311, 1209
3791, 506, 582, 732, 1083
3792, 500, 126, 560, 1194
3793, 801, 786, 790, 1208
3794, 610, 138, 777, 1172
3795, 474, 307, 398, 1052
3796, 652, 763, 651, 1063
3797, 501, 1054, 700, 1156
3798, 402, 29, 314, 1202
3799, 650, 648, 601, 1073
3800, 523, 526, 553, 1192
3801, 875, 149, 770, 826
3802, 155, 866, 828, 1126
3803, 826, 852, 870, 1127
3804, 111, 435, 876, 825
3805, 866, 886, 828, 1126
3806, 567, 512, 506, 1152
3807, 751, 1096, 686, 1188
3808, 851, 850, 852, 1098
3809, 909, 1064, 1114, 1191
3810, 451, 471, 304, 1206
3811, 659, 638, 639, 1203
3812, 717, 592, 151, 860
3813, 168, 761, 15, 685
3814, 747, 704, 595, 1207
3815, 876, 1107, 435, 1167
3816, 538, 536, 507, 1057
3817, 820, 388, 783, 1125
3818, 479, 490, 418, 1214
3819, 412, 411, 413, 1046
3820, 228, 72, 303, 475
3821, 876, 825, 435, 1107
3822, 237, 238, 213, 1143
3823, 810, 822, 791, 1172
3824, 208, 191, 195, 1202
3825, 516, 517, 515, 1061
3826, 899, 1120, 1160, 1166
3827, 447, 462, 388, 1125
3828, 329, 186, 206, 1195
3829, 181, 33, 190, 1209
3830, 667, 881, 10, 157
3831, 109, 861, 434, 827
3832, 186, 206, 36, 329
3833, 151, 831, 717, 860
3834, 771, 652, 651, 1063
3835, 755, 800, 667, 1182
3836, 891, 1166, 1095, 1218
3837, 880, 383, 438, 1123
3838, 238, 236, 269, 1093
3839, 124, 596, 573, 1156
3840, 438, 383, 466, 1123
3841, 242, 809, 73, 301
3842, 852, 826, 853, 1127
3843, 684, 650, 683, 1194
3844, 872, 830, 885, 1038
3845, 220, 285, 67, 1102
3846, 670, 138, 610, 1172
3847, 324, 448, 444, 1057
3848, 14, 204, 229, 179
3849, 870, 834, 147, 1084
3850, 874, 877, 827, 1016
3851, 488, 112, 871, 1154
3852, 231, 233, 227, 1184
3853, 583, 448, 103, 507
3854, 192, 582, 24, 556
3855, 290, 39, 766, 214
3856, 287, 269, 268, 1027
3857, 155, 828, 651, 1126
3858, 540, 550, 542, 1048
3859, 700, 124, 501, 1156
3860, 879, 157, 836, 1168
3861, 819, 73, 809, 301
3862, 222, 267, 287, 1189
3863, 490, 424, 363, 1214
3864, 24, 203, 582, 192
3865, 776, 750, 142, 1182
3866, 358, 406, 405, 1032
3867, 666, 778, 755, 1168
3868, 603, 733, 38, 1184
3869, 475, 388, 820, 1125
3870, 649, 716, 705, 1151
3871, 761, 168, 15, 205
3872, 777, 138, 791, 1172
3873, 407, 470, 459, 1189
3874, 228, 246, 291, 1157
3875, 89, 533, 565, 312
3876, 913, 1136, 1160, 1218
3877, 581, 534, 808, 133
3878, 791, 138, 670, 1172
3879, 692, 603, 766, 1180
3880, 477, 579, 558, 1195
3881, 968, 1176, 991, 1203
3882, 501, 528, 527, 1156
3883, 185, 176, 198, 1181
3884, 309, 109, 861, 434
3885, 953, 1152, 1083, 1175
3886, 930, 1160, 1136, 1218
3887, 206, 477, 329, 1195
3888, 255, 429, 63, 1145
3889, 423, 339, 354, 1212
3890, 486, 330, 487, 1058
3891, 651, 828, 154, 771
3892, 312, 565, 89, 452
3893, 329, 206, 36, 477
3894, 237, 213, 288, 1143
3895, 475, 228, 72, 447
3896, 867, 883, 847, 1133
3897, 545, 543, 544, 1094
3898, 775, 786, 785, 1060
3899, 249, 247, 248, 1173
3900, 489, 859, 106, 326
3901, 808, 581, 133, 817
3902, 595, 708, 747, 1207
3903, 481, 456, 324, 1124
3904, 841, 840, 1154, 1165
3905, 500, 684, 126, 1194
3906, 881, 864, 157, 1182
3907, 29, 163, 314, 1202
3908, 238, 1093, 240, 1196
3909, 384, 472, 8, 160
3910, 472, 383, 8, 160
3911, 729, 608, 718, 1039
3912, 325, 825, 488, 1154
3913, 140, 749, 792, 1168
3914, 159, 158, 833, 1185
3915, 443, 1091, 382, 1224
3916, 686, 751, 597, 1096
3917, 655, 687, 640, 1201
3918, 609, 826, 772, 1127
3919, 524, 122, 737, 578
3920, 428, 375, 454, 1092
3921, 558, 449, 477, 1195
3922, 488, 871, 368, 1154
3923, 568, 538, 507, 1057
3924, 204, 300, 14, 229
3925, 725, 677, 746, 1159
3926, 435, 111, 325, 825
3927, 400, 385, 469, 1085
3928, 142, 667, 800, 1182
3929, 33, 311, 397, 1209
3930, 433, 427, 352, 1171
3931, 495, 595, 118, 574
3932, 33, 397, 190, 1209
3933, 871, 840, 835, 1091
3934, 553, 580, 521, 1192
3935, 799, 814, 789, 1185
3936, 283, 261, 258, 1148
3937, 603, 740, 686, 1184
3938, 245, 244, 243, 1122
3939, 140, 778, 666, 1168
3940, 871, 1091, 368, 1154
3941, 29, 191, 163, 1202
3942, 196, 192, 167, 1175
3943, 325, 435, 825, 1107
3944, 594, 660, 678, 1023
3945, 680, 681, 756, 1147
3946, 167, 210, 196, 1175
3947, 378, 377, 441, 1082
3948, 673, 729, 718, 1191
3949, 262, 286, 263, 1089
3950, 664, 720, 611, 1059
3951, 368, 382, 443, 1091
3952, 665, 866, 155, 1126
3953, 700, 589, 701, 1054
3954, 292, 230, 224, 1080
3955, 595, 735, 118, 574
3956, 734, 578, 737, 121
3957, 862, 828, 868, 1063
3958, 488, 825, 112, 1154
3959, 408, 411, 412, 1046
3960, 608, 154, 862, 771
3961, 660, 639, 661, 1111
3962, 368, 382, 871, 113
3963, 329, 449, 441, 1195
3964, 847, 841, 843, 1065
3965, 623, 621, 622, 1205
3966, 727, 607, 764, 1105
3967, 480, 443, 323, 1157
3968, 802, 787, 775, 1123
3969, 403, 402, 314, 1202
3970, 820, 77, 783, 388
3971, 670, 610, 745, 1172
3972, 803, 387, 85, 818
3973, 853, 854, 851, 1117
3974, 573, 501, 124, 1156
3975, 330, 326, 487, 1130
3976, 370, 830, 106, 489
3977, 750, 667, 142, 1182
3978, 356, 376, 377, 1162
3979, 255, 219, 256, 1145
3980, 731, 607, 727, 1105
3981, 692, 766, 591, 1180
3982, 835, 871, 382, 113
3983, 509, 502, 558, 1163
3984, 294, 235, 270, 1115
3985, 346, 350, 351, 1210
3986, 296, 239, 241, 1196
3987, 227, 233, 290, 1184
3988, 579, 558, 86, 477
3989, 587, 754, 734, 1090
3990, 267, 298, 241, 1049
3991, 319, 317, 439, 1016
3992, 720, 881, 667, 1182
3993, 203, 760, 582, 1083
3994, 562, 586, 493, 1035
3995, 852, 834, 870, 1084
3996, 339, 340, 341, 1141
3997, 596, 700, 743, 1156
3998, 656, 642, 647, 1153
3999, 158, 832, 836, 1134
4000, 386, 369, 455, 1186
4001, 858, 869, 846, 1223
4002, 671, 759, 731, 1067
4003, 525, 563, 501, 1054
4004, 434, 317, 827, 1016
4005, 603, 39, 766, 290
4006, 28, 402, 204, 191
4007, 478, 28, 402, 204
4008, 215, 44, 588, 1211
4009, 486, 487, 315, 1058
4010, 251, 263, 253, 1164
4011, 577, 566, 500, 1194
4012, 834, 664, 147, 1084
4013, 832, 158, 159, 1185
4014, 725, 746, 713, 1159
4015, 169, 612, 23, 203
4016, 852, 853, 851, 1117
4017, 317, 434, 439, 1016
4018, 419, 63, 429, 1145
4019, 387, 476, 85, 818
4020, 649, 705, 704, 1151
4021, 755, 667, 10, 157
4022, 666, 755, 10, 157
4023, 612, 760, 23, 203
4024, 77, 820, 475, 388
4025, 477, 558, 86, 449
4026, 530, 526, 527, 1129
4027, 633, 627, 629, 1112
4028, 435, 446, 390, 1107
4029, 197, 176, 185, 1181
4030, 140, 666, 749, 1168
4031, 389, 316, 390, 1102
4032, 55, 478, 277, 300
4033, 541, 547, 539, 1132
4034, 27, 194, 508, 206
4035, 820, 276, 76, 303
4036, 11, 302, 205, 275
4037, 583, 136, 818, 557
4038, 579, 27, 508, 206
4039, 142, 800, 776, 1182
4040, 509, 569, 502, 1163
4041, 115, 760, 732, 582
4042, 503, 571, 551, 1090
4043, 730, 758, 670, 1068
4044, 743, 663, 728, 1199
4045, 246, 218, 291, 1157
4046, 653, 664, 727, 1084
4047, 755, 141, 800, 778
4048, 472, 81, 802, 779
4049, 155, 651, 665, 1126
4050, 846, 845, 844, 1118
4051, 818, 806, 803, 1158
4052, 335, 337, 349, 1140
4053, 215, 280, 44, 1211
4054, 245, 243, 293, 1122
4055, 140, 792, 778, 1168
4056, 165, 183, 186, 1149
4057, 327, 438, 1060, 1224
4058, 238, 240, 239, 1196
4059, 545, 552, 585, 1121
4060, 338, 336, 436, 1183
4061, 76, 807, 276, 820
4062, 193, 11, 205, 275
4063, 801, 790, 823, 1208
4064, 799, 797, 816, 1116
4065, 475, 820, 303, 1125
4066, 557, 136, 818, 806
4067, 347, 431, 355, 1079
4068, 798, 805, 779, 1135
4069, 817, 784, 808, 1067
4070, 723, 722, 602, 1142
4071, 943, 1193, 1091, 1224
4072, 819, 809, 791, 1068
4073, 441, 395, 329, 1149
4074, 55, 478, 450, 277
4075, 840, 825, 841, 1154
4076, 734, 503, 578, 121
4077, 295, 274, 211, 1088
4078, 765, 632, 723, 1075
4079, 788, 789, 813, 1134
4080, 221, 294, 270, 1115
4081, 179, 166, 195, 1174
4082, 200, 199, 173, 1225
4083, 582, 732, 115, 506
4084, 534, 559, 581, 1067
4085, 231, 230, 232, 1177
4086, 364, 474, 398, 1200
4087, 157, 10, 666, 879
4088, 377, 376, 473, 1162
4089, 738, 652, 669, 1088
4090, 267, 222, 266, 1189
4091, 242, 301, 278, 1068
4092, 263, 211, 262, 1089
4093, 181, 190, 197, 1209
4094, 481, 371, 456, 1124
4095, 841, 839, 840, 1165
4096, 759, 731, 559, 132
4097, 661, 724, 660, 1111
4098, 730, 278, 54, 758
4099, 761, 37, 733, 302
4100, 848, 160, 159, 1135
4101, 454, 576, 93, 306
4102, 825, 325, 488, 112
4103, 609, 770, 149, 826
4104, 722, 600, 602, 1142
4105, 161, 172, 171, 1131
4106, 665, 651, 726, 1126
4107, 846, 869, 845, 1118
4108, 512, 510, 506, 1152
4109, 559, 581, 759, 132
4110, 459, 470, 305, 1189
4111, 612, 732, 760, 1083
4112, 689, 641, 688, 1097
4113, 278, 301, 54, 758
4114, 691, 695, 694, 1108
4115, 819, 670, 137, 758
4116, 709, 688, 591, 1143
4117, 759, 817, 671, 145
4118, 806, 795, 803, 1158
4119, 269, 240, 238, 1093
4120, 227, 733, 37, 302
4121, 768, 674, 673, 1191
4122, 309, 331, 434, 1087
4123, 670, 791, 819, 137
4124, 712, 44, 280, 1211
4125, 880, 863, 160, 1123
4126, 611, 720, 750, 1059
4127, 817, 784, 671, 145
4128, 485, 390, 391, 1220
4129, 722, 717, 600, 1142
4130, 753, 691, 690, 1226
4131, 849, 850, 851, 1098
4132, 496, 576, 93, 454
4133, 659, 660, 756, 1203
4134, 654, 748, 772, 1127
4135, 220, 252, 285, 1102
4136, 508, 558, 579, 1195
4137, 248, 247, 245, 1173
4138, 410, 415, 411, 1213
4139, 623, 622, 624, 1205
4140, 104, 437, 878, 865
4141, 712, 588, 44, 1211
4142, 160, 848, 878, 1135
4143, 547, 541, 564, 1132
4144, 883, 867, 829, 1133
4145, 492, 564, 585, 1155
4146, 687, 641, 640, 1201
4147, 667, 142, 800, 755
4148, 82, 472, 384, 779
4149, 666, 140, 755, 778
4150, 383, 80, 802, 472
4151, 233, 231, 232, 1177
4152, 228, 303, 276, 1125
4153, 326, 330, 465, 1130
4154, 148, 653, 772, 870
4155, 36, 35, 186, 329
4156, 762, 663, 743, 1199
4157, 685, 16, 15, 168
4158, 772, 609, 148, 826
4159, 46, 47, 593, 212
4160, 695, 696, 694, 1108
4161, 477, 206, 579, 1195
4162, 712, 695, 588, 1211
4163, 17, 18, 161, 679
4164, 188, 31, 30, 396
4165, 556, 510, 504, 1175
4166, 488, 368, 871, 112
4167, 609, 772, 748, 1127
4168, 564, 492, 554, 1155
4169, 419, 64, 63, 219
4170, 550, 99, 98, 385
4171, 229, 13, 14, 179
4172, 165, 35, 34, 395
4173, 183, 182, 184, 1204
4174, 638, 636, 639, 1176
4175, 733, 603, 686, 1184
4176, 251, 253, 252, 1164
4177, 871, 112, 825, 1154
4178, 523, 553, 521, 1192
4179, 720, 881, 834, 146
4180, 328, 84, 83, 780
4181, 169, 203, 192, 1083
4182, 331, 333, 439, 1106
4183, 102, 103, 448, 507
4184, 228, 71, 72, 447
4185, 835, 438, 880, 114
4186, 357, 351, 350, 1210
4187, 327, 79, 78, 785
4188, 183, 184, 210, 1204
4189, 612, 23, 22, 169
4190, 799, 789, 805, 1185
4191, 402, 28, 29, 191
4192, 876, 435, 321, 1167
4193, 500, 560, 577, 1194
4194, 313, 95, 96, 493
4195, 666, 879, 721, 1168
4196, 216, 49, 48, 599
4197, 423, 337, 339, 1212
4198, 34, 33, 181, 311
4199, 647, 757, 656, 1153
4200, 266, 61, 62, 305
4201, 659, 639, 660, 1203
4202, 174, 200, 173, 1225
4203, 840, 1091, 871, 1154
4204, 502, 88, 87, 425
4205, 282, 280, 215, 1211
4206, 833, 158, 864, 1116
4207, 506, 556, 582, 1083
4208, 20, 19, 680, 187
4209, 150, 831, 875, 600
4210, 250, 289, 218, 1186
4211, 827, 317, 108, 873
4212, 73, 74, 809, 242
4213, 675, 47, 48, 264
4214, 327, 382, 438, 1224
4215, 718, 829, 152, 604
4216, 389, 68, 67, 220
4217, 26, 27, 194, 508
4218, 611, 144, 804, 143
4219, 429, 414, 419, 1145
4220, 310, 65, 64, 271
4221, 534, 134, 808, 133
4222, 21, 20, 594, 162
4223, 610, 139, 777, 138
4224, 720, 667, 750, 1182
4225, 778, 792, 813, 1168
4226, 327, 462, 382, 1224
4227, 153, 829, 152, 718
4228, 262, 50, 49, 672
4229, 327, 438, 466, 1060
4230, 33, 32, 190, 397
4231, 462, 443, 382, 1224
4232, 315, 107, 873, 487
4233, 700, 123, 501, 124
4234, 18, 19, 180, 590
4235, 554, 130, 739, 129
4236, 783, 807, 820, 1125
4237, 437, 104, 105, 865
4238, 60, 61, 222, 459
4239, 141, 755, 140, 778
4240, 141, 800, 142, 755
4241, 82, 81, 472, 779
4242, 80, 81, 802, 472
4243, 132, 731, 559, 131
4244, 392, 66, 65, 223
4245, 54, 53, 278, 730
4246, 307, 31, 32, 164
4247, 22, 21, 678, 189
4248, 75, 76, 807, 276
4249, 193, 12, 11, 275
4250, 806, 557, 136, 135
4251, 434, 108, 109, 827
4252, 347, 353, 352, 1222
4253, 62, 63, 255, 429
4254, 156, 155, 721, 866
4255, 107, 106, 859, 326
4256, 817, 581, 9, 759
4257, 2, 478, 300, 204
4258, 206, 579, 4, 477
4259, 456, 100, 101, 499
4260, 301, 819, 5, 758
4261, 471, 422, 491, 1206
4262, 818, 476, 7, 583
4263, 302, 761, 1, 205
4264, 203, 760, 3, 582
4265, 192, 24, 25, 556
4266, 6, 820, 303, 475
4267, 751, 686, 736, 1188
4268, 673, 718, 768, 1191
4269, 440, 439, 333, 1106
4270, 447, 388, 475, 1125
4271, 215, 44, 43, 588
4272, 391, 484, 432, 1220
4273, 800, 816, 776, 1182
4274, 702, 45, 46, 279
4275, 154, 862, 153, 608
4276, 209, 195, 166, 1174
4277, 52, 51, 274, 738
4278, 206, 186, 194, 1195
4279, 150, 875, 598, 600
4280, 69, 70, 218, 455
4281, 128, 127, 668, 552
4282, 690, 691, 689, 1226
4283, 709, 41, 42, 213
4284, 325, 446, 435, 1107
4285, 13, 12, 166, 225
4286, 217, 75, 74, 782
4287, 25, 26, 167, 504
4288, 498, 134, 135, 781
4289, 733, 37, 38, 227
4290, 56, 55, 450, 277
4291, 473, 397, 311, 1209
4292, 866, 721, 156, 879
4293, 417, 94, 95, 562
4294, 381, 437, 105, 865
4295, 16, 17, 170, 597
4296, 96, 97, 401, 549
4297, 770, 598, 149, 875
4298, 53, 52, 226, 606
4299, 721, 749, 666, 1168
4300, 120, 587, 551, 119
4301, 89, 88, 533, 312
4302, 156, 666, 10, 879
4303, 822, 777, 791, 1172
4304, 90, 91, 304, 494
4305, 155, 665, 721, 866
4306, 130, 131, 505, 607
4307, 125, 126, 500, 684
4308, 268, 59, 60, 426
4309, 717, 150, 831, 151
4310, 858, 831, 869, 1223
4311, 671, 784, 144, 145
4312, 528, 501, 573, 1156
4313, 791, 670, 138, 137
4314, 391, 432, 485, 1220
4315, 384, 8, 104, 878
4316, 85, 84, 387, 803
4317, 783, 77, 78, 388
4318, 834, 147, 720, 146
4319, 239, 240, 241, 1196
4320, 438, 835, 113, 114
4321, 424, 490, 479, 1214
4322, 497, 98, 97, 400
4323, 280, 45, 44, 712
4324, 93, 92, 496, 454
4325, 111, 325, 825, 112
4326, 316, 67, 66, 285
4327, 740, 736, 686, 1188
4328, 191, 208, 163, 1202
4329, 163, 30, 29, 314
4330, 51, 50, 211, 669
4331, 834, 147, 664, 720
4332, 110, 111, 435, 876
4333, 382, 438, 835, 113
4334, 59, 58, 308, 221
4335, 708, 117, 116, 567
4336, 437, 384, 104, 878
4337, 474, 364, 373, 1200
4338, 117, 595, 118, 495
4339, 579, 86, 4, 477
4340, 478, 55, 2, 300
4341, 114, 880, 8, 383
4342, 320, 57, 56, 224
4343, 206, 4, 36, 477
4344, 761, 15, 1, 205
4345, 300, 14, 2, 204
4346, 476, 7, 85, 818
4347, 133, 581, 9, 817
4348, 491, 304, 471, 1206
4349, 820, 6, 77, 475
4350, 435, 321, 110, 876
4351, 121, 734, 503, 120
4352, 819, 5, 73, 301
4353, 329, 477, 449, 1195
4354, 116, 115, 732, 506
4355, 881, 10, 146, 667
4356, 558, 87, 86, 449
4357, 148, 609, 149, 826
4358, 438, 880, 114, 383
4359, 146, 720, 881, 667
4360, 203, 3, 24, 582
4361, 742, 42, 43, 284
4362, 573, 124, 125, 596
4363, 828, 154, 155, 651
4364, 94, 93, 576, 306
4365, 123, 122, 589, 563
4366, 873, 317, 108, 315
4367, 483, 58, 57, 270
4368, 871, 825, 840, 1154
4369, 127, 126, 683, 560
4370, 101, 102, 324, 568
4371, 749, 139, 140, 792
4372, 466, 80, 79, 775
4373, 750, 143, 776, 142
4374, 467, 83, 82, 793
4375, 119, 118, 735, 574
4376, 39, 40, 766, 214
4377, 759, 581, 9, 132
4378, 301, 5, 54, 758
4379, 40, 41, 591, 288
4380, 70, 71, 291, 323
4381, 129, 682, 492, 128
4382, 476, 103, 7, 583
4383, 1, 37, 761, 302
4384, 303, 72, 6, 475
4385, 760, 115, 3, 582
4386, 106, 105, 830, 370
4387, 579, 4, 27, 206
4388, 478, 2, 28, 204
4389, 68, 69, 289, 386
4390, 5, 819, 137, 758
4391, 485, 321, 435, 1167
4392, 759, 9, 817, 145
4393, 760, 3, 23, 203
4394, 302, 1, 11, 205
4395, 451, 91, 92, 561
4396, 136, 818, 7, 583
4397, 820, 76, 6, 303
4398, 152, 151, 592, 860
4399, 108, 434, 317, 827
4400, 666, 156, 721, 879
4401, 90, 89, 565, 452
4402, 399, 99, 100, 575
4403, 578, 122, 737, 121
4404, 38, 39, 603, 290
4405, 600, 150, 831, 717
4406, 861, 110, 109, 309
4407, 148, 147, 653, 870
4408, 112, 368, 871, 113
4409, 598, 149, 875, 150
4410, 108, 107, 873, 315
4411, 1182, 778, 755, 800
4412, 1182, 755, 778, 1168
4413, 1068, 606, 726, 730
4414, 1068, 726, 606, 977
4415, 967, 1198, 1206, 924
4416, 967, 1206, 1198, 1061
4417, 981, 1206, 1198, 924
4418, 981, 1198, 1206, 1061
4419, 1110, 950, 889, 1069
4420, 1110, 889, 950, 1044
4421, 618, 1074, 620, 619
4422, 620, 1074, 618, 950
4423, 996, 795, 1014, 932
4424, 996, 1014, 795, 796
4425, 737, 1054, 711, 589
4426, 711, 1054, 737, 971
4427, 1184, 193, 168, 205
4428, 1184, 168, 193, 978
4429, 1017, 1118, 949, 844
4430, 949, 1118, 1017, 1022
4431, 1035, 380, 445, 460
4432, 1035, 445, 380, 1019
4433, 169, 1023, 207, 189
4434, 207, 1023, 169, 953
4435, 1202, 177, 997, 1041
4436, 199, 997, 177, 1041
4437, 1217, 1076, 971, 926
4438, 971, 1076, 1217, 900
4439, 971, 1099, 1217, 926
4440, 1217, 1099, 971, 900
4441, 1090, 518, 522, 571
4442, 1090, 522, 518, 1051
4443, 656, 921, 1131, 751
4444, 656, 1131, 921, 1153
4445, 1205, 620, 1074, 621
4446, 1205, 1074, 620, 1044
4447, 693, 1036, 694, 698
4448, 694, 1036, 693, 972
4449, 957, 1070, 1148, 979
4450, 957, 1148, 1070, 257
4451, 259, 1148, 1070, 979
4452, 259, 1070, 1148, 257
4453, 1222, 345, 1079, 1136
4454, 1222, 1079, 345, 347
4455, 346, 1079, 345, 1136
4456, 346, 345, 1079, 347
4457, 1036, 1221, 972, 923
4458, 972, 1221, 1036, 893
4459, 1001, 1094, 1121, 920
4460, 1121, 1094, 1001, 934
4461, 992, 1076, 1217, 891
4462, 1217, 1076, 992, 1018
4463, 1145, 896, 1109, 1002
4464, 1145, 1109, 896, 957
4465, 942, 570, 1132, 976
4466, 537, 570, 1132, 547
4467, 537, 1132, 570, 976
4468, 1208, 810, 911, 790
4469, 1208, 911, 810, 1037
4470, 1172, 911, 810, 790
4471, 1172, 810, 911, 1037
4472, 330, 1130, 385, 465
4473, 330, 385, 1130, 1048
4474, 399, 385, 1130, 465
4475, 399, 1130, 385, 1048
4476, 1225, 948, 172, 1062
4477, 1225, 172, 948, 1131
4478, 1214, 380, 460, 479
4479, 1214, 460, 380, 927
4480, 635, 1176, 1028, 636
4481, 1028, 1176, 635, 925
4482, 1024, 555, 548, 584
4483, 1024, 548, 555, 964
4484, 1111, 703, 928, 1028
4485, 1111, 928, 703, 661
4486, 747, 928, 703, 1028
4487, 747, 703, 928, 661
4488, 1196, 1190, 1049, 901
4489, 1196, 1049, 1190, 931
4490, 1043, 1049, 1190, 901
4491, 1043, 1190, 1049, 931
4492, 1115, 236, 1093, 294
4493, 1093, 269, 1115, 294
4494, 1067, 498, 535, 1014
4495, 1067, 535, 498, 534
4496, 1205, 926, 908, 1044
4497, 1205, 908, 926, 993
4498, 1213, 1221, 1043, 980
4499, 1043, 1046, 1213, 980
4500, 1077, 1120, 952, 890
4501, 952, 1120, 1077, 1029
4502, 1046, 1221, 1213, 946
4503, 1213, 1221, 1046, 1043
4504, 1044, 707, 646, 986
4505, 1044, 646, 707, 706
4506, 1203, 681, 756, 659
4507, 1203, 756, 681, 1147
4508, 754, 1151, 774, 705
4509, 774, 1151, 754, 1090
4510, 1166, 993, 970, 891
4511, 1166, 970, 993, 1020
4512, 1151, 925, 1030, 1028
4513, 1151, 1030, 925, 970
4514, 1075, 620, 618, 950
4515, 1075, 618, 620, 632
4516, 1188, 1153, 656, 921
4517, 1188, 656, 1153, 736
4518, 578, 1090, 522, 503
4519, 522, 1090, 578, 971
4520, 1173, 295, 1088, 248
4521, 1173, 1088, 295, 929
4522, 1147, 1203, 1023, 919
4523, 1023, 1203, 1147, 756
4524, 1093, 287, 1196, 1027
4525, 1093, 1196, 287, 240
4526, 450, 1080, 403, 320
4527, 403, 1080, 450, 1004
4528, 1130, 872, 1038, 859
4529, 1130, 1038, 872, 940
4530, 1182, 158, 864, 157
4531, 1182, 864, 158, 1116
4532, 277, 1080, 450, 224
4533, 450, 1080, 277, 1004
4534, 1085, 549, 548, 964
4535, 1085, 548, 549, 497
4536, 1224, 1157, 462, 443
4537, 1224, 462, 1157, 943
4538, 447, 462, 1157, 443
4539, 447, 1157, 462, 943
4540, 1084, 1117, 1127, 852
4541, 1127, 1117, 1084, 942
4542, 235, 1080, 232, 292
4543, 232, 1080, 235, 1008
4544, 1163, 464, 312, 425
4545, 1163, 312, 464, 939
4546, 1182, 834, 720, 881
4547, 1182, 720, 834, 1059
4548, 1175, 508, 509, 504
4549, 1175, 509, 508, 965
4550, 1167, 390, 435, 485
4551, 1167, 435, 390, 1107
4552, 1191, 604, 715, 947
4553, 1191, 715, 604, 768
4554, 1202, 199, 177, 208
4555, 1202, 177, 199, 997
4556, 1219, 1047, 1179, 914
4557, 1219, 1179, 1047, 936
4558, 549, 400, 97, 401
4559, 97, 400, 549, 497
4560, 1155, 668, 492, 682
4561, 1155, 492, 668, 1121
4562, 1137, 1082, 1081, 898
4563, 1137, 1081, 1082, 939
4564, 164, 396, 31, 188
4565, 31, 396, 164, 307
4566, 161, 590, 1131, 679
4567, 1131, 590, 161, 180
4568, 1143, 1226, 901, 1045
4569, 901, 1226, 1143, 1097
4570, 456, 575, 1124, 399
4571, 1124, 575, 456, 499
4572, 1208, 783, 807, 801
4573, 1208, 807, 783, 1125
4574, 220, 386, 68, 289
4575, 68, 386, 220, 389
4576, 1185, 798, 1116, 1135
4577, 1185, 1116, 798, 799
4578, 601, 1142, 1073, 602
4579, 1073, 1142, 601, 959
4580, 378, 1163, 441, 425
4581, 441, 1163, 378, 1082
4582, 1111, 678, 953, 724
4583, 1111, 953, 678, 1023
4584, 1126, 868, 828, 1063
4585, 1126, 828, 868, 886
4586, 1179, 1187, 1073, 892
4587, 1073, 1187, 1179, 959
4588, 1124, 444, 324, 481
4589, 1124, 324, 444, 1057
4590, 1172, 812, 790, 822
4591, 1172, 790, 812, 1042
4592, 1115, 1080, 224, 320
4593, 1115, 483, 224, 270
4594, 224, 483, 1115, 320
4595, 276, 782, 1037, 807
4596, 1037, 782, 276, 217
4597, 524, 589, 122, 563
4598, 524, 122, 589, 737
4599, 1081, 512, 510, 511
4600, 1081, 510, 512, 1152
4601, 781, 557, 1014, 806
4602, 781, 1014, 557, 498
4603, 1208, 785, 786, 1060
4604, 1208, 786, 785, 801
4605, 1177, 225, 978, 231
4606, 1177, 978, 225, 1174
4607, 275, 978, 225, 231
4608, 596, 500, 125, 573
4609, 596, 125, 500, 684
4610, 434, 1106, 331, 439
4611, 331, 1106, 434, 1087
4612, 301, 809, 1068, 242
4613, 301, 1068, 809, 819
4614, 147, 1084, 653, 870
4615, 653, 1084, 147, 664
4616, 1172, 1126, 1068, 911
4617, 1172, 1068, 1126, 745
4618, 554, 570, 1155, 942
4619, 554, 1155, 570, 547
4620, 1132, 1155, 570, 942
4621, 1132, 570, 1155, 547
4622, 1093, 1115, 1008, 236
4623, 1008, 1115, 1093, 916
4624, 1115, 1093, 1027, 269
4625, 1027, 1093, 1115, 916
4626, 224, 1115, 292, 1080
4627, 292, 1115, 224, 270
4628, 978, 225, 193, 275
4629, 978, 193, 225, 1174

*NSET, NSET=CONSTRAINT_1
1, 2, 3, 4, 11, 12, 13, 14, 15, 16, 17, 18, 19, 20, 21, 22
23, 24, 25, 26, 27, 28, 29, 30, 31, 32, 33, 34, 35, 36, 161, 162
163, 164, 165, 166, 167, 168, 169, 170, 171, 172, 173, 174, 175, 176, 177, 178
179, 180, 181, 182, 183, 184, 185, 186, 187, 188, 189, 190, 191, 192, 193, 194
195, 196, 197, 198, 199, 200, 201, 202, 203, 204, 205, 206, 207, 208, 209, 210

*NSET, NSET=DLOAD_1
8, 104, 105, 106, 107, 108, 109, 110, 111, 112, 113, 114, 315, 321, 437, 438

*MATERIAL, NAME=STRUCTURAL_STEEL
*ELASTIC
200000.000000, 0.300000

*SOLID SECTION, ELSET=ALL_ELEMENTS, MATERIAL=STRUCTURAL_STEEL

*BOUNDARY
CONSTRAINT_1, 1, 3

*STEP, NLGEOM=NO
*STATIC
0.1, 1.0

*CLOAD
DLOAD_1, 3, -5000.000000

*NODE FILE
U, RF
*EL FILE
S, E

*END STEP
