*HEADING
Dual-bolt bracket STEP geometry under shear-out loading: both bolt holes loaded in +y direction (along bracket length) rather than the usual -z. Fixed at wall end. Tests shear-out failure mode.

*NODE, NSET=ALL_NODES
1, 0.000000, 0.000000, 0.000000
2, 0.000000, 0.000000, 24.242399
3, 90.909103, 0.000000, 24.242399
4, 90.909103, 0.000000, 0.000000
5, 90.909103, 48.484798, 24.242399
6, 90.909103, 48.484798, 0.000000
7, 0.000000, 48.484798, 24.242399
8, 0.000000, 48.484798, 0.000000
9, 0.000000, 0.000000, 4.848480
10, 0.000000, 0.000000, 9.696960
11, 0.000000, 0.000000, 14.545440
12, 0.000000, 0.000000, 19.393921
13, 4.784689, 0.000000, 24.242399
14, 9.569379, 0.000000, 24.242399
15, 14.354069, 0.000000, 24.242399
16, 19.138758, 0.000000, 24.242399
17, 23.923447, 0.000000, 24.242399
18, 28.708138, 0.000000, 24.242399
19, 33.492825, 0.000000, 24.242399
20, 38.277515, 0.000000, 24.242399
21, 43.062206, 0.000000, 24.242399
22, 47.846893, 0.000000, 24.242399
23, 52.631584, 0.000000, 24.242399
24, 57.416275, 0.000000, 24.242399
25, 62.200962, 0.000000, 24.242399
26, 66.985649, 0.000000, 24.242399
27, 71.770340, 0.000000, 24.242399
28, 76.555031, 0.000000, 24.242399
29, 81.339722, 0.000000, 24.242399
30, 86.124413, 0.000000, 24.242399
31, 90.909103, 0.000000, 4.848480
32, 90.909103, 0.000000, 9.696960
33, 90.909103, 0.000000, 14.545440
34, 90.909103, 0.000000, 19.393921
35, 4.784689, 0.000000, 0.000000
36, 9.569379, 0.000000, 0.000000
37, 14.354069, 0.000000, 0.000000
38, 19.138758, 0.000000, 0.000000
39, 23.923447, 0.000000, 0.000000
40, 28.708138, 0.000000, 0.000000
41, 33.492825, 0.000000, 0.000000
42, 38.277515, 0.000000, 0.000000
43, 43.062206, 0.000000, 0.000000
44, 47.846893, 0.000000, 0.000000
45, 52.631584, 0.000000, 0.000000
46, 57.416275, 0.000000, 0.000000
47, 62.200962, 0.000000, 0.000000
48, 66.985649, 0.000000, 0.000000
49, 71.770340, 0.000000, 0.000000
50, 76.555031, 0.000000, 0.000000
51, 81.339722, 0.000000, 0.000000
52, 86.124413, 0.000000, 0.000000
53, 90.909103, 4.848480, 24.242399
54, 90.909103, 9.696960, 24.242399
55, 90.909103, 14.545440, 24.242399
56, 90.909103, 19.393921, 24.242399
57, 90.909103, 24.242399, 24.242399
58, 90.909103, 29.090879, 24.242399
59, 90.909103, 33.939362, 24.242399
60, 90.909103, 38.787842, 24.242399
61, 90.909103, 43.636318, 24.242399
62, 90.909103, 48.484798, 4.848480
63, 90.909103, 48.484798, 9.696960
64, 90.909103, 48.484798, 14.545440
65, 90.909103, 48.484798, 19.393921
66, 90.909103, 4.848480, 0.000000
67, 90.909103, 9.696960, 0.000000
68, 90.909103, 14.545440, 0.000000
69, 90.909103, 19.393921, 0.000000
70, 90.909103, 24.242399, 0.000000
71, 90.909103, 29.090879, 0.000000
72, 90.909103, 33.939362, 0.000000
73, 90.909103, 38.787842, 0.000000
74, 90.909103, 43.636318, 0.000000
75, 86.124413, 48.484798, 24.242399
76, 81.339722, 48.484798, 24.242399
77, 76.555031, 48.484798, 24.242399
78, 71.770340, 48.484798, 24.242399
79, 66.985649, 48.484798, 24.242399
80, 62.200962, 48.484798, 24.242399
81, 57.416275, 48.484798, 24.242399
82, 52.631584, 48.484798, 24.242399
83, 47.846893, 48.484798, 24.242399
84, 43.062206, 48.484798, 24.242399
85, 38.277515, 48.484798, 24.242399
86, 33.492825, 48.484798, 24.242399
87, 28.708138, 48.484798, 24.242399
88, 23.923447, 48.484798, 24.242399
89, 19.138758, 48.484798, 24.242399
90, 14.354069, 48.484798, 24.242399
91, 9.569379, 48.484798, 24.242399
92, 4.784689, 48.484798, 24.242399
93, 0.000000, 48.484798, 4.848480
94, 0.000000, 48.484798, 9.696960
95, 0.000000, 48.484798, 14.545440
96, 0.000000, 48.484798, 19.393921
97, 86.124413, 48.484798, 0.000000
98, 81.339722, 48.484798, 0.000000
99, 76.555031, 48.484798, 0.000000
100, 71.770340, 48.484798, 0.000000
101, 66.985649, 48.484798, 0.000000
102, 62.200962, 48.484798, 0.000000
103, 57.416275, 48.484798, 0.000000
104, 52.631584, 48.484798, 0.000000
105, 47.846893, 48.484798, 0.000000
106, 43.062206, 48.484798, 0.000000
107, 38.277515, 48.484798, 0.000000
108, 33.492825, 48.484798, 0.000000
109, 28.708138, 48.484798, 0.000000
110, 23.923447, 48.484798, 0.000000
111, 19.138758, 48.484798, 0.000000
112, 14.354069, 48.484798, 0.000000
113, 9.569379, 48.484798, 0.000000
114, 4.784689, 48.484798, 0.000000
115, 0.000000, 43.636318, 24.242399
116, 0.000000, 38.787842, 24.242399
117, 0.000000, 33.939362, 24.242399
118, 0.000000, 29.090879, 24.242399
119, 0.000000, 24.242399, 24.242399
120, 0.000000, 19.393921, 24.242399
121, 0.000000, 14.545440, 24.242399
122, 0.000000, 9.696960, 24.242399
123, 0.000000, 4.848480, 24.242399
124, 0.000000, 43.636318, 0.000000
125, 0.000000, 38.787842, 0.000000
126, 0.000000, 33.939362, 0.000000
127, 0.000000, 29.090879, 0.000000
128, 0.000000, 24.242399, 0.000000
129, 0.000000, 19.393921, 0.000000
130, 0.000000, 14.545440, 0.000000
131, 0.000000, 9.696960, 0.000000
132, 0.000000, 4.848480, 0.000000
133, 69.114845, 0.000000, 3.907835
134, 49.872768, 0.000000, 19.854330
135, 25.822899, 0.000000, 4.557464
136, 16.732988, 0.000000, 19.948088
137, 36.126205, 0.000000, 19.805996
138, 59.819584, 0.000000, 20.155695
139, 86.739159, 0.000000, 12.075616
140, 74.173691, 0.000000, 19.952749
141, 55.057297, 0.000000, 3.855327
142, 45.454552, 0.000000, 4.043901
143, 11.559867, 0.000000, 4.450684
144, 25.623299, 0.000000, 19.778685
145, 35.932098, 0.000000, 4.090718
146, 4.167960, 0.000000, 12.076199
147, 79.335991, 0.000000, 4.321354
148, 7.641459, 0.000000, 19.854599
149, 83.266769, 0.000000, 19.856606
150, 4.051528, 0.000000, 7.299040
151, 8.724698, 0.000000, 8.933691
152, 8.344382, 0.000000, 14.486323
153, 12.540392, 0.000000, 12.103306
154, 12.319238, 0.000000, 16.971609
155, 16.694479, 0.000000, 14.497765
156, 16.762325, 0.000000, 9.832726
157, 20.829670, 0.000000, 12.126648
158, 21.102707, 0.000000, 7.405084
159, 25.154472, 0.000000, 9.882762
160, 29.616035, 0.000000, 8.161127
161, 28.822348, 0.000000, 12.660354
162, 33.331951, 0.000000, 11.219375
163, 21.013613, 0.000000, 17.023214
164, 32.490429, 0.000000, 15.780615
165, 37.139011, 0.000000, 14.553497
166, 41.054157, 0.000000, 17.718670
167, 41.783901, 0.000000, 13.131314
168, 45.282688, 0.000000, 16.532103
169, 46.239685, 0.000000, 11.998861
170, 37.912224, 0.000000, 8.922520
171, 86.854759, 0.000000, 7.294626
172, 82.178101, 0.000000, 8.915498
173, 82.551186, 0.000000, 14.498343
174, 78.360512, 0.000000, 12.107504
175, 78.583687, 0.000000, 16.977785
176, 74.197823, 0.000000, 14.742881
177, 69.659752, 0.000000, 17.233795
178, 69.946457, 0.000000, 12.537935
179, 65.682076, 0.000000, 14.999243
180, 65.941940, 0.000000, 10.599241
181, 61.649998, 0.000000, 12.759335
182, 61.972744, 0.000000, 7.965036
183, 57.440063, 0.000000, 10.759595
184, 74.173187, 0.000000, 9.846021
185, 57.427910, 0.000000, 15.853748
186, 53.265594, 0.000000, 13.066352
187, 16.710102, 0.000000, 4.867089
188, 40.616798, 0.000000, 4.204323
189, 54.966618, 0.000000, 20.248724
190, 65.128265, 0.000000, 19.833813
191, 64.499657, 0.000000, 3.765460
192, 50.244801, 0.000000, 3.998973
193, 53.084320, 0.000000, 8.213234
194, 74.161690, 0.000000, 4.914397
195, 31.031134, 0.000000, 20.174971
196, 43.238495, 0.000000, 8.299206
197, 24.906580, 0.000000, 14.686605
198, 3.940897, 0.000000, 16.848310
199, 86.965469, 0.000000, 16.850552
200, 7.213180, 0.000000, 4.030026
201, 83.764885, 0.000000, 4.015447
202, 59.793903, 0.000000, 3.745426
203, 31.152344, 0.000000, 3.912156
204, 49.504211, 0.000000, 15.033155
205, 47.846893, 0.000000, 7.807284
206, 45.034592, 0.000000, 20.723751
207, 70.261963, 0.000000, 8.254040
208, 12.123426, 0.000000, 21.051819
209, 21.339582, 0.000000, 3.365927
210, 78.783783, 0.000000, 21.054388
211, 28.574757, 0.000000, 16.616245
212, 13.259478, 0.000000, 8.037499
213, 77.641899, 0.000000, 8.020954
214, 62.171833, 0.000000, 16.825930
215, 21.286421, 0.000000, 21.046957
216, 69.543541, 0.000000, 21.101032
217, 33.588932, 0.000000, 7.261179
218, 52.823338, 0.000000, 16.974125
219, 49.988140, 0.000000, 11.223777
220, 57.616474, 0.000000, 6.886735
221, 3.547158, 0.000000, 3.563860
222, 87.365898, 0.000000, 3.559955
223, 3.491584, 0.000000, 20.733383
224, 87.417519, 0.000000, 20.733383
225, 40.669861, 0.000000, 21.487862
226, 66.712181, 0.000000, 6.902978
227, 90.909103, 16.925064, 19.934317
228, 90.909103, 31.515120, 20.043493
229, 90.909103, 11.729966, 4.343918
230, 90.909103, 22.017056, 3.855340
231, 90.909103, 36.272919, 3.697453
232, 90.909103, 4.176028, 12.081573
233, 90.909103, 44.685139, 12.114622
234, 90.909103, 7.717935, 19.851145
235, 90.909103, 41.171814, 20.317064
236, 90.909103, 4.104168, 7.290858
237, 90.909103, 8.824943, 8.935804
238, 90.909103, 8.397814, 14.545440
239, 90.909103, 12.596721, 12.121200
240, 90.909103, 12.474582, 16.990395
241, 90.909103, 16.868258, 14.694712
242, 90.909103, 21.450930, 17.129465
243, 90.909103, 21.135258, 12.392385
244, 90.909103, 25.473066, 14.743657
245, 90.909103, 25.126135, 10.316823
246, 90.909103, 29.530127, 12.382457
247, 90.909103, 29.177294, 7.650549
248, 90.909103, 33.792305, 10.313449
249, 90.909103, 33.860283, 15.493818
250, 90.909103, 37.942966, 12.481298
251, 90.909103, 16.990555, 9.757864
252, 90.909103, 16.965418, 4.891687
253, 90.909103, 43.940033, 7.541913
254, 90.909103, 26.099464, 19.722855
255, 90.909103, 36.343708, 20.157476
256, 90.909103, 26.708061, 3.633030
257, 90.909103, 43.964504, 16.803183
258, 90.909103, 3.998695, 16.817522
259, 90.909103, 7.235596, 4.031886
260, 90.909103, 41.059628, 3.803808
261, 90.909103, 38.267719, 7.827477
262, 90.909103, 31.470701, 3.574539
263, 90.909103, 29.105688, 16.580107
264, 90.909103, 38.787842, 16.605684
265, 90.909103, 20.821568, 8.178682
266, 90.909103, 13.259422, 8.106005
267, 90.909103, 12.271996, 21.052132
268, 90.909103, 21.622356, 21.054287
269, 90.909103, 3.549334, 3.549334
270, 90.909103, 44.935467, 3.549334
271, 90.909103, 3.549334, 20.693066
272, 90.909103, 44.935467, 20.693066
273, 90.909103, 41.322193, 13.698600
274, 90.909103, 33.635689, 6.466203
275, 90.909103, 41.231609, 10.732782
276, 90.909103, 24.770023, 6.726885
277, 21.685862, 48.484798, 20.188087
278, 40.669861, 48.484798, 20.253695
279, 74.175636, 48.484798, 19.948732
280, 65.078339, 48.484798, 19.785763
281, 55.070843, 48.484798, 20.443501
282, 31.100481, 48.484798, 20.226515
283, 4.168893, 48.484798, 12.165689
284, 16.735407, 48.484798, 4.290536
285, 35.881447, 48.484798, 3.873298
286, 25.833387, 48.484798, 4.450364
287, 45.454548, 48.484798, 4.143668
288, 79.339333, 48.484798, 4.321611
289, 69.223839, 48.484798, 4.054659
290, 59.808617, 48.484798, 4.014892
291, 86.741142, 48.484798, 12.076199
292, 11.571854, 48.484798, 19.920799
293, 83.267525, 48.484798, 19.854893
294, 7.642356, 48.484798, 4.386120
295, 86.857574, 48.484798, 7.299040
296, 82.182961, 48.484798, 8.915250
297, 82.553947, 48.484798, 14.494543
298, 78.368706, 48.484798, 12.103306
299, 78.587479, 48.484798, 16.973297
300, 74.211685, 48.484798, 14.497760
301, 74.218513, 48.484798, 9.703878
302, 70.145821, 48.484798, 12.077256
303, 69.816490, 48.484798, 17.016394
304, 65.909477, 48.484798, 14.658309
305, 61.296528, 48.484798, 16.236168
306, 62.119625, 48.484798, 11.647553
307, 57.599041, 48.484798, 13.258515
308, 4.052083, 48.484798, 16.943771
309, 8.729361, 48.484798, 15.326237
310, 8.357581, 48.484798, 9.744462
311, 12.547454, 48.484798, 12.136624
312, 12.325116, 48.484798, 7.265862
313, 16.706177, 48.484798, 9.738726
314, 16.688107, 48.484798, 14.516397
315, 20.772303, 48.484798, 12.158504
316, 21.097727, 48.484798, 7.219300
317, 25.007982, 48.484798, 9.571492
318, 29.616837, 48.484798, 7.997144
319, 28.795280, 48.484798, 12.584137
320, 33.315777, 48.484798, 10.973176
321, 50.239239, 48.484798, 4.143667
322, 47.846893, 48.484798, 8.287348
323, 43.062187, 48.484798, 8.287346
324, 45.497524, 48.484798, 12.406232
325, 40.836521, 48.484798, 12.328756
326, 50.080845, 48.484798, 12.279596
327, 47.913696, 48.484798, 16.338797
328, 74.269127, 48.484798, 4.843445
329, 64.567612, 48.484798, 3.978595
330, 66.589035, 48.484798, 8.662130
331, 26.341585, 48.484798, 20.262703
332, 24.322868, 48.484798, 15.576740
333, 35.842186, 48.484798, 20.170677
334, 33.306484, 48.484798, 15.705742
335, 40.669235, 48.484798, 4.098603
336, 55.023930, 48.484798, 4.122203
337, 57.525604, 48.484798, 8.483478
338, 37.725403, 48.484798, 8.450901
339, 52.457783, 48.484798, 8.195588
340, 16.641827, 48.484798, 19.396114
341, 86.966385, 48.484798, 16.849730
342, 3.943402, 48.484798, 7.391788
343, 83.766914, 48.484798, 4.017126
344, 7.142959, 48.484798, 20.225336
345, 43.065296, 48.484798, 16.306711
346, 50.258255, 48.484798, 20.323425
347, 38.427086, 48.484798, 16.204569
348, 53.198902, 48.484798, 15.943477
349, 45.469368, 48.484798, 20.284571
350, 59.778915, 48.484798, 20.449211
351, 31.134514, 48.484798, 3.794657
352, 28.773340, 48.484798, 16.871168
353, 62.122101, 48.484798, 7.357330
354, 78.785080, 48.484798, 21.052345
355, 12.125265, 48.484798, 3.188504
356, 77.931465, 48.484798, 8.070662
357, 12.986829, 48.484798, 16.171549
358, 69.446251, 48.484798, 21.100149
359, 21.463552, 48.484798, 3.137470
360, 70.856812, 48.484798, 7.783230
361, 20.050869, 48.484798, 16.445984
362, 57.388847, 48.484798, 17.266174
363, 33.534794, 48.484798, 7.017835
364, 54.030178, 48.484798, 11.857238
365, 36.810955, 48.484798, 12.532325
366, 87.361938, 48.484798, 3.563860
367, 3.546745, 48.484798, 20.678947
368, 87.417519, 48.484798, 20.733383
369, 3.491584, 48.484798, 3.509017
370, 0.000000, 31.450603, 4.082405
371, 0.000000, 16.969681, 20.043493
372, 0.000000, 36.363602, 20.043493
373, 0.000000, 26.731155, 20.159994
374, 0.000000, 21.818159, 4.198907
375, 0.000000, 12.121200, 4.198907
376, 0.000000, 44.539223, 11.886827
377, 0.000000, 3.945576, 12.355574
378, 0.000000, 40.875473, 4.652166
379, 0.000000, 7.609328, 19.590233
380, 0.000000, 41.191536, 20.136843
381, 0.000000, 38.874142, 16.256485
382, 0.000000, 34.018261, 15.950484
383, 0.000000, 36.756058, 11.745398
384, 0.000000, 31.555201, 11.865341
385, 0.000000, 31.603539, 20.117807
386, 0.000000, 36.086456, 4.043923
387, 0.000000, 16.969681, 4.198907
388, 0.000000, 19.393921, 8.397814
389, 0.000000, 24.177885, 8.360565
390, 0.000000, 21.818159, 12.596721
391, 0.000000, 16.969681, 12.596721
392, 0.000000, 26.663731, 12.335388
393, 0.000000, 14.545440, 8.397814
394, 0.000000, 11.752343, 12.570974
395, 0.000000, 9.545756, 7.997181
396, 0.000000, 7.280835, 4.114847
397, 0.000000, 21.822079, 20.108334
398, 0.000000, 26.580620, 4.136034
399, 0.000000, 12.387592, 20.179060
400, 0.000000, 3.855537, 16.853477
401, 0.000000, 43.924797, 16.578424
402, 0.000000, 44.629265, 7.388922
403, 0.000000, 4.548957, 7.666912
404, 0.000000, 40.881618, 9.402730
405, 0.000000, 7.607114, 14.851998
406, 0.000000, 28.959105, 8.133382
407, 0.000000, 29.233503, 16.108631
408, 0.000000, 33.722252, 7.912854
409, 0.000000, 24.277092, 16.271530
410, 0.000000, 19.400354, 16.322817
411, 0.000000, 14.739726, 16.391464
412, 0.000000, 44.935467, 3.549334
413, 0.000000, 3.549334, 20.693066
414, 0.000000, 44.935467, 20.693066
415, 0.000000, 3.549334, 3.549334
416, 0.000000, 37.526096, 7.606677
417, 0.000000, 10.922395, 16.656815
418, 0.000000, 40.963600, 13.136394
419, 0.000000, 7.521199, 11.106007
420, 26.015310, 3.556992, 0.000000
421, 45.594872, 44.456673, 0.000000
422, 65.040451, 44.151222, 0.000000
423, 54.901985, 4.378960, 0.000000
424, 40.774048, 4.477939, 0.000000
425, 31.795252, 43.883728, 0.000000
426, 86.711502, 21.825363, 0.000000
427, 4.088414, 26.738510, 0.000000
428, 69.003601, 4.331433, 0.000000
429, 16.383568, 43.895069, 0.000000
430, 86.714233, 31.521933, 0.000000
431, 4.116235, 16.964735, 0.000000
432, 74.155106, 44.202511, 0.000000
433, 55.023930, 44.341137, 0.000000
434, 16.607071, 4.449177, 0.000000
435, 86.712173, 12.126035, 0.000000
436, 4.059389, 36.356880, 0.000000
437, 79.331512, 4.325650, 0.000000
438, 86.825005, 41.020489, 0.000000
439, 4.084230, 7.464227, 0.000000
440, 7.435058, 44.190044, 0.000000
441, 86.734978, 36.333984, 0.000000
442, 82.529785, 33.942249, 0.000000
443, 82.520767, 29.112488, 0.000000
444, 78.343460, 31.534664, 0.000000
445, 78.331131, 26.714376, 0.000000
446, 74.164871, 29.131506, 0.000000
447, 74.152328, 24.319456, 0.000000
448, 70.047440, 26.639067, 0.000000
449, 69.994781, 21.890081, 0.000000
450, 65.893082, 24.222498, 0.000000
451, 65.836998, 19.456385, 0.000000
452, 61.685974, 21.879713, 0.000000
453, 61.935650, 26.546124, 0.000000
454, 57.527416, 24.245192, 0.000000
455, 57.510635, 19.496225, 0.000000
456, 53.361969, 21.965857, 0.000000
457, 52.927578, 27.073799, 0.000000
458, 49.217693, 24.370018, 0.000000
459, 49.207687, 19.579687, 0.000000
460, 45.064926, 21.983049, 0.000000
461, 44.968479, 26.589733, 0.000000
462, 40.904453, 24.354830, 0.000000
463, 40.888195, 29.101116, 0.000000
464, 36.766350, 26.772648, 0.000000
465, 36.765007, 21.991146, 0.000000
466, 32.617947, 24.399773, 0.000000
467, 32.611866, 19.606163, 0.000000
468, 28.462473, 22.012001, 0.000000
469, 28.470314, 26.811918, 0.000000
470, 24.309071, 24.420465, 0.000000
471, 24.300190, 19.618116, 0.000000
472, 24.320234, 29.221977, 0.000000
473, 20.143063, 22.028904, 0.000000
474, 74.161140, 19.433628, 0.000000
475, 36.753838, 31.534124, 0.000000
476, 70.069389, 31.588278, 0.000000
477, 45.055588, 17.193960, 0.000000
478, 20.132929, 17.221968, 0.000000
479, 45.621567, 31.653034, 0.000000
480, 49.196964, 14.790762, 0.000000
481, 15.993147, 19.670635, 0.000000
482, 15.987309, 24.449181, 0.000000
483, 16.029825, 14.843063, 0.000000
484, 24.291607, 14.817548, 0.000000
485, 28.480757, 31.612219, 0.000000
486, 24.332602, 34.022423, 0.000000
487, 36.758595, 17.204542, 0.000000
488, 32.605457, 14.814270, 0.000000
489, 20.169836, 31.633478, 0.000000
490, 45.044918, 12.403945, 0.000000
491, 11.953500, 22.050293, 0.000000
492, 36.749954, 12.413480, 0.000000
493, 11.880049, 26.866842, 0.000000
494, 78.348503, 36.360909, 0.000000
495, 32.629898, 10.078334, 0.000000
496, 20.115715, 36.323257, 0.000000
497, 16.005468, 34.028622, 0.000000
498, 24.185923, 39.534309, 0.000000
499, 49.144226, 10.076159, 0.000000
500, 53.293663, 12.432980, 0.000000
501, 16.005844, 38.756260, 0.000000
502, 11.887863, 36.452568, 0.000000
503, 11.868477, 41.266201, 0.000000
504, 45.035675, 7.618798, 0.000000
505, 49.717949, 4.796435, 0.000000
506, 36.742485, 7.622102, 0.000000
507, 32.917156, 5.426774, 0.000000
508, 82.518715, 24.269167, 0.000000
509, 4.160110, 12.149173, 0.000000
510, 8.273923, 9.734958, 0.000000
511, 7.841069, 4.478548, 0.000000
512, 12.272589, 7.357155, 0.000000
513, 8.081043, 14.634714, 0.000000
514, 82.550896, 38.742630, 0.000000
515, 78.343719, 41.182770, 0.000000
516, 74.138329, 38.988861, 0.000000
517, 69.710632, 41.457886, 0.000000
518, 69.987503, 36.638260, 0.000000
519, 65.676155, 38.975456, 0.000000
520, 61.268253, 40.567314, 0.000000
521, 62.047432, 36.082142, 0.000000
522, 57.706367, 37.474686, 0.000000
523, 58.031570, 33.180519, 0.000000
524, 53.873180, 34.599190, 0.000000
525, 53.077557, 39.805351, 0.000000
526, 49.180923, 35.747250, 0.000000
527, 50.471752, 31.342340, 0.000000
528, 44.533680, 36.791843, 0.000000
529, 62.248558, 31.338106, 0.000000
530, 83.052948, 44.001446, 0.000000
531, 86.715012, 16.970932, 0.000000
532, 82.526863, 14.546984, 0.000000
533, 82.146469, 8.931398, 0.000000
534, 78.343521, 12.131158, 0.000000
535, 78.340126, 16.990866, 0.000000
536, 74.169968, 14.570292, 0.000000
537, 74.171295, 9.857763, 0.000000
538, 70.077339, 12.300256, 0.000000
539, 70.007248, 17.022533, 0.000000
540, 65.853622, 14.586801, 0.000000
541, 66.225266, 8.973099, 0.000000
542, 61.742756, 12.061205, 0.000000
543, 61.920620, 7.726590, 0.000000
544, 57.380619, 9.035320, 0.000000
545, 61.686211, 16.940304, 0.000000
546, 86.859917, 7.225168, 0.000000
547, 4.045516, 31.580666, 0.000000
548, 82.520332, 19.417326, 0.000000
549, 4.033476, 21.866657, 0.000000
550, 86.713905, 26.677038, 0.000000
551, 20.156374, 12.456719, 0.000000
552, 24.210602, 10.294054, 0.000000
553, 20.364719, 7.913772, 0.000000
554, 74.175346, 34.040413, 0.000000
555, 28.472038, 12.530272, 0.000000
556, 28.494022, 36.410606, 0.000000
557, 32.633438, 33.991203, 0.000000
558, 32.570763, 38.773800, 0.000000
559, 36.669769, 36.331619, 0.000000
560, 36.567806, 41.196224, 0.000000
561, 53.344753, 17.174168, 0.000000
562, 26.315792, 44.341137, 0.000000
563, 50.336956, 44.326447, 0.000000
564, 40.534355, 43.895401, 0.000000
565, 78.329437, 21.869806, 0.000000
566, 28.457272, 17.233063, 0.000000
567, 40.908890, 19.589264, 0.000000
568, 21.598360, 44.253170, 0.000000
569, 40.901329, 14.802375, 0.000000
570, 40.874733, 9.889773, 0.000000
571, 74.167419, 4.953956, 0.000000
572, 32.620441, 29.186981, 0.000000
573, 20.156179, 26.833305, 0.000000
574, 16.009007, 29.245750, 0.000000
575, 11.902359, 31.661478, 0.000000
576, 57.493107, 14.523367, 0.000000
577, 47.846893, 40.385925, 0.000000
578, 16.167831, 10.039592, 0.000000
579, 11.970083, 17.281395, 0.000000
580, 64.268906, 4.144675, 0.000000
581, 3.839150, 41.136135, 0.000000
582, 40.813087, 33.885738, 0.000000
583, 83.760612, 4.011409, 0.000000
584, 7.857798, 38.910618, 0.000000
585, 28.219776, 7.386464, 0.000000
586, 7.970228, 34.043114, 0.000000
587, 7.992633, 29.226212, 0.000000
588, 7.979174, 24.357038, 0.000000
589, 57.482502, 28.796579, 0.000000
590, 7.975585, 19.461109, 0.000000
591, 12.117983, 12.257616, 0.000000
592, 40.448784, 38.777115, 0.000000
593, 52.941128, 8.114049, 0.000000
594, 28.698822, 40.696049, 0.000000
595, 66.044838, 34.058243, 0.000000
596, 21.531103, 3.562165, 0.000000
597, 59.767899, 44.760792, 0.000000
598, 59.483574, 4.029443, 0.000000
599, 66.098602, 28.826078, 0.000000
600, 45.287354, 3.378635, 0.000000
601, 19.657883, 40.552414, 0.000000
602, 35.885170, 45.165974, 0.000000
603, 36.440807, 3.505363, 0.000000
604, 70.728989, 8.083302, 0.000000
605, 77.632042, 8.039985, 0.000000
606, 78.689301, 45.271267, 0.000000
607, 11.922110, 45.264183, 0.000000
608, 12.114667, 3.270347, 0.000000
609, 43.791718, 40.861393, 0.000000
610, 69.377998, 45.396332, 0.000000
611, 54.271000, 30.846052, 0.000000
612, 57.368801, 41.389858, 0.000000
613, 87.354279, 3.571424, 0.000000
614, 48.591038, 28.063324, 0.000000
615, 87.365898, 44.924847, 0.000000
616, 3.543201, 3.559955, 0.000000
617, 3.491584, 44.975784, 0.000000
618, 24.068302, 6.542689, 0.000000
619, 29.819139, 3.289902, 0.000000
620, 26.015310, 3.556992, 24.242399
621, 45.594872, 44.456673, 24.242399
622, 65.040451, 44.151222, 24.242399
623, 54.901985, 4.378960, 24.242399
624, 40.774048, 4.477939, 24.242399
625, 31.795252, 43.883728, 24.242399
626, 86.711502, 21.825363, 24.242399
627, 4.088414, 26.738510, 24.242399
628, 69.003601, 4.331433, 24.242399
629, 16.383568, 43.895069, 24.242399
630, 86.714233, 31.521933, 24.242399
631, 4.116235, 16.964735, 24.242399
632, 74.155106, 44.202511, 24.242399
633, 55.023930, 44.341137, 24.242399
634, 16.607071, 4.449177, 24.242399
635, 86.712173, 12.126035, 24.242399
636, 4.059389, 36.356880, 24.242399
637, 79.331512, 4.325650, 24.242399
638, 4.084230, 7.464227, 24.242399
639, 86.825005, 41.020489, 24.242399
640, 7.435058, 44.190044, 24.242399
641, 86.734978, 36.333984, 24.242399
642, 82.529785, 33.942249, 24.242399
643, 82.520767, 29.112488, 24.242399
644, 78.343460, 31.534664, 24.242399
645, 78.331131, 26.714376, 24.242399
646, 74.164871, 29.131506, 24.242399
647, 74.152328, 24.319456, 24.242399
648, 70.047440, 26.639067, 24.242399
649, 69.994781, 21.890081, 24.242399
650, 65.893082, 24.222498, 24.242399
651, 65.836998, 19.456385, 24.242399
652, 61.685974, 21.879713, 24.242399
653, 61.935650, 26.546124, 24.242399
654, 57.527416, 24.245192, 24.242399
655, 57.510635, 19.496225, 24.242399
656, 53.361969, 21.965857, 24.242399
657, 52.927578, 27.073799, 24.242399
658, 49.217693, 24.370018, 24.242399
659, 49.207687, 19.579687, 24.242399
660, 45.064926, 21.983049, 24.242399
661, 44.968479, 26.589733, 24.242399
662, 40.904453, 24.354830, 24.242399
663, 40.888195, 29.101116, 24.242399
664, 36.766350, 26.772648, 24.242399
665, 36.765007, 21.991146, 24.242399
666, 32.617947, 24.399773, 24.242399
667, 32.611866, 19.606163, 24.242399
668, 28.462473, 22.012001, 24.242399
669, 28.470314, 26.811918, 24.242399
670, 24.309071, 24.420465, 24.242399
671, 24.300190, 19.618116, 24.242399
672, 24.320234, 29.221977, 24.242399
673, 20.143063, 22.028904, 24.242399
674, 74.161140, 19.433628, 24.242399
675, 36.753838, 31.534124, 24.242399
676, 70.069389, 31.588278, 24.242399
677, 45.055588, 17.193960, 24.242399
678, 20.132929, 17.221968, 24.242399
679, 45.621567, 31.653034, 24.242399
680, 49.196964, 14.790762, 24.242399
681, 15.993147, 19.670635, 24.242399
682, 15.987309, 24.449181, 24.242399
683, 16.029825, 14.843063, 24.242399
684, 24.291607, 14.817548, 24.242399
685, 28.480757, 31.612219, 24.242399
686, 24.332602, 34.022423, 24.242399
687, 36.758595, 17.204542, 24.242399
688, 32.605457, 14.814270, 24.242399
689, 20.169836, 31.633478, 24.242399
690, 45.044918, 12.403945, 24.242399
691, 11.953500, 22.050293, 24.242399
692, 36.749954, 12.413480, 24.242399
693, 11.880049, 26.866842, 24.242399
694, 78.348503, 36.360909, 24.242399
695, 32.629898, 10.078334, 24.242399
696, 20.115715, 36.323257, 24.242399
697, 16.005468, 34.028622, 24.242399
698, 24.185923, 39.534309, 24.242399
699, 49.144226, 10.076159, 24.242399
700, 53.293663, 12.432980, 24.242399
701, 16.005844, 38.756260, 24.242399
702, 11.887863, 36.452568, 24.242399
703, 11.868477, 41.266201, 24.242399
704, 45.035675, 7.618798, 24.242399
705, 49.717949, 4.796435, 24.242399
706, 36.742485, 7.622102, 24.242399
707, 32.917156, 5.426774, 24.242399
708, 82.518715, 24.269167, 24.242399
709, 4.160110, 12.149173, 24.242399
710, 8.273923, 9.734958, 24.242399
711, 7.841069, 4.478548, 24.242399
712, 12.272589, 7.357155, 24.242399
713, 8.081043, 14.634714, 24.242399
714, 82.550896, 38.742630, 24.242399
715, 78.343719, 41.182770, 24.242399
716, 74.138329, 38.988861, 24.242399
717, 69.710632, 41.457886, 24.242399
718, 69.987503, 36.638260, 24.242399
719, 65.676155, 38.975456, 24.242399
720, 61.268253, 40.567314, 24.242399
721, 62.047432, 36.082142, 24.242399
722, 57.706367, 37.474686, 24.242399
723, 58.031570, 33.180519, 24.242399
724, 53.873180, 34.599190, 24.242399
725, 53.077557, 39.805351, 24.242399
726, 49.180923, 35.747250, 24.242399
727, 50.471752, 31.342340, 24.242399
728, 44.533680, 36.791843, 24.242399
729, 62.248558, 31.338106, 24.242399
730, 83.052948, 44.001446, 24.242399
731, 86.715012, 16.970932, 24.242399
732, 82.526863, 14.546984, 24.242399
733, 82.146469, 8.931398, 24.242399
734, 78.343521, 12.131158, 24.242399
735, 78.340126, 16.990866, 24.242399
736, 74.169968, 14.570292, 24.242399
737, 74.171295, 9.857763, 24.242399
738, 70.077339, 12.300256, 24.242399
739, 70.007248, 17.022533, 24.242399
740, 65.853622, 14.586801, 24.242399
741, 66.225266, 8.973099, 24.242399
742, 61.742756, 12.061205, 24.242399
743, 61.920620, 7.726590, 24.242399
744, 57.380619, 9.035320, 24.242399
745, 61.686211, 16.940304, 24.242399
746, 86.859917, 7.225168, 24.242399
747, 4.045516, 31.580666, 24.242399
748, 82.520332, 19.417326, 24.242399
749, 4.033476, 21.866657, 24.242399
750, 86.713905, 26.677038, 24.242399
751, 20.156374, 12.456719, 24.242399
752, 24.210602, 10.294054, 24.242399
753, 20.364719, 7.913772, 24.242399
754, 74.175346, 34.040413, 24.242399
755, 28.472038, 12.530272, 24.242399
756, 28.494022, 36.410606, 24.242399
757, 32.633438, 33.991203, 24.242399
758, 32.570763, 38.773800, 24.242399
759, 36.669769, 36.331619, 24.242399
760, 36.567806, 41.196224, 24.242399
761, 53.344753, 17.174168, 24.242399
762, 26.315792, 44.341137, 24.242399
763, 50.336956, 44.326447, 24.242399
764, 40.534355, 43.895401, 24.242399
765, 78.329437, 21.869806, 24.242399
766, 28.457272, 17.233063, 24.242399
767, 40.908890, 19.589264, 24.242399
768, 21.598360, 44.253170, 24.242399
769, 40.901329, 14.802375, 24.242399
770, 40.874733, 9.889773, 24.242399
771, 74.167419, 4.953956, 24.242399
772, 32.620441, 29.186981, 24.242399
773, 20.156179, 26.833305, 24.242399
774, 16.009007, 29.245750, 24.242399
775, 11.902359, 31.661478, 24.242399
776, 57.493107, 14.523367, 24.242399
777, 47.846893, 40.385925, 24.242399
778, 16.167831, 10.039592, 24.242399
779, 11.970083, 17.281395, 24.242399
780, 64.268906, 4.144675, 24.242399
781, 3.839150, 41.136135, 24.242399
782, 40.813087, 33.885738, 24.242399
783, 83.760612, 4.011409, 24.242399
784, 7.857798, 38.910618, 24.242399
785, 28.219776, 7.386464, 24.242399
786, 7.970228, 34.043114, 24.242399
787, 7.992633, 29.226212, 24.242399
788, 7.979174, 24.357038, 24.242399
789, 57.482502, 28.796579, 24.242399
790, 7.975585, 19.461109, 24.242399
791, 12.117983, 12.257616, 24.242399
792, 40.448784, 38.777115, 24.242399
793, 52.941128, 8.114049, 24.242399
794, 28.698822, 40.696049, 24.242399
795, 66.044838, 34.058243, 24.242399
796, 21.531103, 3.562165, 24.242399
797, 59.767899, 44.760792, 24.242399
798, 59.483574, 4.029443, 24.242399
799, 66.098602, 28.826078, 24.242399
800, 45.287354, 3.378635, 24.242399
801, 19.657883, 40.552414, 24.242399
802, 35.885170, 45.165974, 24.242399
803, 36.440807, 3.505363, 24.242399
804, 70.728989, 8.083302, 24.242399
805, 77.632042, 8.039985, 24.242399
806, 78.689301, 45.271267, 24.242399
807, 11.922110, 45.264183, 24.242399
808, 12.114667, 3.270347, 24.242399
809, 43.791718, 40.861393, 24.242399
810, 69.377998, 45.396332, 24.242399
811, 54.271000, 30.846052, 24.242399
812, 57.368801, 41.389858, 24.242399
813, 87.354279, 3.571424, 24.242399
814, 48.591038, 28.063324, 24.242399
815, 87.365898, 44.924847, 24.242399
816, 3.543201, 3.559955, 24.242399
817, 3.491584, 44.975784, 24.242399
818, 24.068302, 6.542689, 24.242399
819, 29.819139, 3.289902, 24.242399
820, 52.563202, 32.562683, 12.121200
821, 21.533739, 14.846177, 12.121200
822, 47.820278, 17.188318, 12.121200
823, 35.376949, 19.599699, 12.121200
824, 14.651326, 31.636185, 12.121200
825, 27.091061, 29.215080, 12.121200
826, 39.290852, 31.350235, 12.121200
827, 67.242760, 21.823231, 12.121200
828, 77.268967, 29.127253, 12.121200
829, 75.047379, 12.214275, 12.121200
830, 64.465866, 35.899204, 12.121200
831, 59.231735, 12.381063, 12.121200
832, 11.455869, 20.520737, 11.471654
833, 30.846428, 10.259624, 13.869149
834, 12.221871, 10.337805, 13.919026
835, 56.108158, 22.717506, 13.651950
836, 21.500792, 38.678791, 14.485518
837, 31.764580, 38.432636, 13.007469
838, 81.058266, 20.027117, 14.276999
839, 44.823246, 38.997204, 14.694345
840, 40.157017, 10.955017, 10.017706
841, 76.673149, 38.869392, 10.247122
842, 19.739727, 23.799158, 14.878585
843, 9.174976, 38.766224, 9.322326
844, 51.137115, 9.113952, 15.214166
845, 56.986179, 39.683174, 15.409593
846, 46.468967, 26.023960, 14.992222
847, 27.186113, 20.919191, 8.783412
848, 61.933880, 28.087799, 8.744008
849, 67.098976, 8.449754, 12.875252
850, 25.052841, 8.383724, 8.114384
851, 75.012718, 21.690912, 8.311586
852, 69.294754, 29.539944, 15.749588
853, 42.414688, 22.605162, 8.255946
854, 8.343669, 27.192564, 15.901772
855, 82.346634, 35.189598, 15.667804
856, 23.312841, 7.923229, 16.176395
857, 38.978172, 39.075089, 8.433287
858, 33.801743, 26.792759, 16.376158
859, 33.801743, 26.792759, 7.866243
860, 51.100338, 25.407667, 8.070020
861, 82.909943, 24.923975, 8.077987
862, 50.151302, 40.295383, 8.189503
863, 21.496424, 33.638092, 7.920345
864, 28.559505, 17.724407, 16.129925
865, 68.486618, 14.859494, 7.836403
866, 7.851439, 26.822876, 7.780559
867, 71.151131, 33.049618, 8.102775
868, 13.402198, 38.578018, 16.410580
869, 82.959435, 13.185409, 10.156075
870, 59.523643, 30.631062, 16.340096
871, 18.449270, 20.681566, 7.664462
872, 83.035278, 32.965988, 7.968256
873, 60.908375, 19.078032, 7.813133
874, 17.358215, 40.617382, 7.782139
875, 70.937637, 39.110607, 16.318054
876, 8.058118, 14.030568, 8.059010
877, 69.283737, 40.738163, 8.124465
878, 41.366276, 17.195091, 16.708641
879, 73.397888, 18.848547, 16.292156
880, 58.923294, 39.551746, 7.639077
881, 54.123272, 7.916431, 7.900055
882, 83.319328, 27.135948, 16.695652
883, 16.949696, 7.863229, 7.790318
884, 15.926207, 17.256201, 16.885778
885, 45.784355, 33.518238, 7.849216
886, 25.833916, 40.484543, 7.878494
887, 31.539219, 14.685830, 7.616589
888, 7.669319, 16.054083, 16.600060
889, 54.087093, 16.161068, 16.583328
890, 78.735268, 7.484224, 7.481579
891, 21.082895, 31.233976, 16.565594
892, 62.079899, 18.027786, 16.636419
893, 53.926811, 15.736118, 7.586515
894, 83.688873, 41.564243, 12.206915
895, 80.835785, 7.910946, 16.149616
896, 32.344059, 7.317480, 7.221013
897, 30.766026, 33.653286, 7.281667
898, 43.568665, 9.736536, 16.902031
899, 37.975941, 36.950161, 16.903070
900, 47.291431, 11.279538, 7.310987
901, 22.838694, 26.464365, 6.857119
902, 61.153858, 7.249032, 16.976625
903, 7.350781, 34.497196, 15.103991
904, 62.151154, 7.412576, 7.424207
905, 14.963772, 26.900560, 6.717767
906, 71.552063, 8.255980, 7.181697
907, 26.990126, 24.571409, 17.589325
908, 73.025719, 7.153190, 17.209883
909, 63.992542, 41.617172, 16.792744
910, 30.435661, 33.013687, 17.496967
911, 27.231201, 41.611362, 17.393768
912, 63.712189, 24.958750, 17.480631
913, 34.801182, 14.781910, 17.548586
914, 7.154016, 7.042153, 9.870346
915, 6.764550, 41.342247, 17.479685
916, 32.653030, 41.560333, 6.827658
917, 75.548767, 33.759281, 17.255758
918, 6.833293, 6.670768, 17.111589
919, 15.065669, 14.593083, 9.007146
920, 68.627403, 26.506680, 6.960590
921, 76.755043, 24.855072, 17.663099
922, 47.528122, 32.806614, 17.338408
923, 78.256973, 41.035851, 16.988499
924, 56.426769, 31.569511, 6.503741
925, 40.168854, 24.057343, 17.296848
926, 36.724281, 6.984045, 16.892946
927, 38.756592, 16.896381, 6.664623
928, 68.086792, 14.042115, 17.372665
929, 78.624268, 14.446598, 17.672886
930, 14.906098, 27.705381, 17.689812
931, 80.842644, 18.594463, 6.567142
932, 52.965252, 27.681692, 17.207689
933, 50.610035, 41.955544, 17.554739
934, 10.868263, 32.784290, 6.609211
935, 6.390644, 20.370296, 6.488490
936, 25.040161, 14.781526, 6.544774
937, 22.293476, 18.587978, 18.033875
938, 49.238266, 20.591959, 17.663294
939, 44.920116, 6.479096, 11.260405
940, 75.117455, 15.426418, 6.419149
941, 10.890141, 21.549438, 17.857157
942, 84.695175, 6.611069, 10.679338
943, 16.676672, 6.534697, 17.629896
944, 48.004208, 20.020674, 6.325146
945, 44.230228, 42.355480, 6.346326
946, 37.172554, 33.217960, 6.265404
947, 62.444248, 34.071072, 6.193719
948, 76.064751, 27.607077, 5.970991
949, 48.068111, 14.250711, 17.911802
950, 33.193699, 20.672400, 6.243827
951, 28.974556, 6.071860, 18.152327
952, 77.074562, 33.938915, 5.809260
953, 81.918991, 39.171810, 6.442310
954, 36.843983, 42.211300, 13.528313
955, 41.682384, 28.762173, 6.821712
956, 34.596184, 20.959301, 18.472832
957, 84.842171, 15.092925, 16.036179
958, 84.406311, 40.513416, 18.411118
959, 26.275654, 35.497833, 11.776479
960, 20.065023, 12.824955, 18.075052
961, 69.874298, 23.739792, 18.197905
962, 38.645981, 5.969477, 6.046235
963, 41.270580, 31.581362, 18.245602
964, 57.257347, 24.244417, 6.463070
965, 18.791019, 42.694714, 18.434893
966, 5.997636, 21.770342, 14.087440
967, 54.573715, 34.334290, 17.908731
968, 64.914986, 33.551708, 18.009403
969, 66.896721, 20.600025, 6.026983
970, 58.337101, 34.863914, 11.700054
971, 56.147903, 5.698605, 13.454448
972, 41.180813, 42.827404, 17.863403
973, 72.550255, 25.174641, 12.800554
974, 59.088531, 12.935527, 18.284307
975, 63.888458, 42.767723, 6.061418
976, 12.796175, 19.668745, 5.567605
977, 59.472019, 13.239682, 5.863879
978, 26.127352, 12.733211, 18.627535
979, 33.308796, 40.942806, 18.472006
980, 38.078503, 24.977764, 11.713726
981, 33.206699, 31.318737, 12.347444
982, 5.723812, 42.720398, 6.064394
983, 11.258620, 9.244031, 5.801789
984, 12.177375, 33.025436, 18.385988
985, 28.413832, 28.357862, 5.781907
986, 30.606256, 22.958311, 13.176324
987, 5.625443, 32.172577, 9.633517
988, 13.245483, 42.487923, 11.800735
989, 5.491727, 42.538322, 11.901851
990, 19.712803, 28.619463, 11.417653
991, 74.734131, 5.724127, 11.618669
992, 14.686366, 25.322752, 12.347736
993, 85.376198, 19.933420, 10.182599
994, 67.018074, 5.793696, 18.515690
995, 54.950783, 42.722122, 10.722967
996, 64.744545, 14.622275, 12.470721
997, 27.246925, 5.562550, 12.658710
998, 84.801804, 20.297810, 18.852942
999, 16.206280, 35.177090, 5.790576
1000, 77.168205, 42.916386, 5.720607
1001, 18.635679, 9.865252, 13.216528
1002, 56.751884, 28.404160, 11.600027
1003, 25.193241, 35.968689, 18.520956
1004, 36.145622, 11.549150, 5.774098
1005, 51.336422, 34.854908, 5.655334
1006, 19.609684, 12.701256, 5.828544
1007, 46.961861, 5.529284, 5.727806
1008, 35.422554, 13.790600, 11.851972
1009, 27.221256, 14.196480, 11.814011
1010, 47.110939, 5.311624, 18.864832
1011, 5.199255, 9.789255, 5.174204
1012, 17.836510, 35.577328, 18.863480
1013, 36.062263, 5.229756, 11.298711
1014, 72.993134, 43.170944, 12.099078
1015, 50.397530, 37.809486, 13.459113
1016, 5.563071, 36.274052, 5.572355
1017, 52.424385, 20.403254, 10.680172
1018, 38.144646, 24.381510, 4.962003
1019, 14.413979, 12.091250, 18.955723
1020, 85.505531, 5.399807, 18.766340
1021, 5.766428, 11.320808, 13.665578
1022, 85.176140, 9.862560, 5.495148
1023, 42.239056, 17.676138, 11.102084
1024, 55.370403, 7.564983, 18.946449
1025, 44.249310, 15.777491, 5.490377
1026, 12.103263, 42.698215, 5.984697
1027, 66.620918, 30.729164, 10.792135
1028, 47.791210, 43.280514, 12.416159
1029, 47.182404, 28.569269, 5.466586
1030, 58.109272, 25.537237, 18.567417
1031, 14.622364, 5.345468, 12.399059
1032, 85.210274, 28.958035, 11.535690
1033, 60.610512, 42.869957, 12.131382
1034, 59.906063, 36.203285, 18.918289
1035, 73.378746, 12.582068, 18.947384
1036, 24.608311, 21.302694, 13.729491
1037, 16.286816, 22.400129, 19.048332
1038, 42.156666, 42.983932, 11.617006
1039, 56.965088, 43.476269, 19.267176
1040, 21.601246, 43.009232, 10.763759
1041, 79.925598, 12.615787, 5.412361
1042, 50.347874, 5.503769, 11.118353
1043, 16.666960, 36.945538, 12.059468
1044, 21.847975, 5.395073, 11.483905
1045, 85.236069, 43.008743, 6.358194
1046, 72.418892, 17.437120, 10.931535
1047, 5.085742, 23.990452, 19.157896
1048, 85.182404, 28.867641, 4.879075
1049, 25.988974, 29.919506, 18.936838
1050, 35.688953, 31.510025, 18.740574
1051, 54.545284, 42.072605, 5.138176
1052, 67.561127, 36.257206, 5.109310
1053, 44.863152, 30.928141, 12.755759
1054, 57.192459, 17.602188, 11.758302
1055, 80.223656, 31.204601, 18.978777
1056, 5.390789, 30.879025, 18.872690
1057, 21.289436, 5.256093, 5.352270
1058, 71.370583, 34.256638, 13.564197
1059, 61.771721, 23.040487, 11.826671
1060, 77.990280, 16.782610, 10.974647
1061, 46.828320, 11.748734, 12.848850
1062, 11.641697, 5.074119, 19.120878
1063, 23.207603, 21.321041, 5.068910
1064, 67.013443, 5.431522, 5.220385
1065, 39.474388, 12.480552, 19.423382
1066, 78.401001, 19.779951, 19.121746
1067, 70.326851, 34.337921, 19.160583
1068, 62.620697, 24.003830, 5.044748
1069, 21.600063, 38.623306, 4.821154
1070, 22.048344, 26.181343, 19.186756
1071, 85.444397, 15.522843, 5.331613
1072, 73.661850, 38.374607, 5.548479
1073, 58.137691, 19.970884, 19.326254
1074, 85.673531, 36.441349, 11.402201
1075, 64.849365, 11.691566, 4.810331
1076, 51.963448, 13.621593, 12.231240
1077, 66.939819, 19.173100, 18.889984
1078, 44.770672, 20.835606, 14.659117
1079, 78.775688, 23.993826, 11.418474
1080, 13.386086, 43.245193, 19.332899
1081, 5.774282, 11.615629, 19.086506
1082, 53.322754, 20.652035, 5.309042
1083, 28.811485, 10.784874, 5.088156
1084, 71.472183, 43.621502, 19.453770
1085, 19.108484, 29.839283, 4.956821
1086, 28.546930, 42.918297, 12.118837
1087, 38.222740, 43.532261, 5.103703
1088, 79.088280, 34.181973, 11.465721
1089, 25.991774, 35.573406, 5.622911
1090, 12.052064, 15.659074, 13.584767
1091, 42.228790, 35.786610, 11.217112
1092, 18.535124, 19.145058, 12.709223
1093, 36.363560, 35.865376, 11.879379
1094, 47.428593, 37.887871, 19.384418
1095, 27.889563, 5.027308, 4.897542
1096, 73.611908, 29.029070, 18.901979
1097, 5.357255, 16.910847, 11.772754
1098, 41.770264, 35.879036, 4.994579
1099, 85.660736, 31.792269, 18.438082
1100, 85.188599, 21.221575, 5.042723
1101, 67.848412, 42.079243, 13.105942
1102, 31.222477, 11.112460, 19.160925
1103, 84.261253, 10.761594, 19.452251
1104, 57.823322, 5.118566, 5.062413
1105, 86.090042, 23.110704, 14.458213
1106, 78.919014, 23.266975, 5.052458
1107, 46.725395, 37.864296, 4.894414
1108, 71.877190, 19.286398, 4.779930
1109, 42.478249, 9.770746, 5.218740
1110, 77.525299, 4.909446, 19.184917
1111, 47.121681, 23.034283, 10.522173
1112, 62.836876, 5.223694, 12.287992
1113, 52.161076, 29.484295, 4.500236
1114, 54.396038, 37.317055, 9.184459
1115, 13.889202, 4.754440, 4.773152
1116, 64.044762, 11.100828, 19.441565
1117, 66.615494, 30.997501, 4.861862
1118, 69.848473, 12.926093, 12.539327
1119, 83.135323, 4.956199, 5.862635
1120, 11.019314, 24.444881, 4.474012
1121, 6.171752, 30.659395, 4.672396
1122, 44.966335, 23.361851, 19.215485
1123, 9.809102, 29.769337, 11.611715
1124, 30.536642, 18.080160, 11.418727
1125, 79.097839, 43.516338, 10.567512
1126, 5.091549, 36.747753, 19.183449
1127, 85.928429, 36.175304, 5.113255
1128, 41.496548, 5.008735, 15.212362
1129, 12.059587, 14.549931, 4.713421
1130, 79.891090, 5.005284, 11.922556
1131, 51.220108, 24.779854, 13.243917
1132, 45.346119, 28.552784, 19.404715
1133, 18.732944, 24.485069, 4.289361
1134, 86.205147, 10.767540, 13.452066
1135, 11.757917, 37.652813, 5.007310
1136, 29.163393, 23.423826, 4.829935
1137, 16.965120, 16.888639, 4.584393
1138, 22.745668, 43.767303, 5.129919
1139, 28.996897, 18.155813, 4.948012
1140, 5.090529, 26.365873, 12.052640
1141, 33.881008, 36.953957, 4.709886
1142, 49.502808, 15.301944, 5.072202
1143, 4.683809, 18.925489, 19.571259
1144, 69.794510, 4.740819, 10.518220
1145, 8.763578, 4.710671, 5.531800
1146, 80.251839, 30.151018, 4.530214
1147, 42.437893, 36.476318, 19.507130
1148, 11.619017, 35.708939, 12.590717
1149, 77.589439, 9.916883, 19.582760
1150, 63.190964, 28.306135, 13.675964
1151, 46.049831, 43.518539, 19.242435
1152, 22.671593, 19.059500, 9.734383
1153, 33.762184, 36.073696, 19.771269
1154, 75.507530, 10.284616, 4.829649
1155, 48.986923, 29.554649, 10.117095
1156, 63.988289, 16.699955, 4.532679
1157, 4.638761, 24.674688, 4.556927
1158, 21.054342, 4.744928, 19.367828
1159, 71.690025, 29.630733, 4.397262
1160, 66.851753, 38.144962, 19.298750
1161, 4.526211, 14.752071, 4.521561
1162, 45.491497, 23.959236, 4.564810
1163, 72.146645, 43.206745, 4.632403
1164, 26.711077, 20.241726, 19.967220
1165, 24.167292, 30.816305, 4.751220
1166, 42.891083, 26.468496, 11.464245
1167, 32.000675, 5.400762, 14.220821
1168, 30.507793, 28.065123, 19.880409
1169, 72.531181, 24.261133, 4.748177
1170, 31.385799, 17.211851, 20.123625
1171, 23.673479, 25.684273, 11.658679
1172, 53.366737, 23.064980, 19.284534
1173, 79.149925, 36.640450, 19.278481
1174, 52.511677, 12.039714, 19.192001
1175, 22.883055, 43.374622, 15.605075
1176, 69.291473, 9.963446, 19.898806
1177, 21.413359, 38.799889, 19.970306
1178, 51.490528, 10.643336, 4.490561
1179, 79.502769, 9.982053, 11.806094
1180, 28.460522, 43.141773, 4.441981
1181, 38.502403, 11.111845, 14.723509
1182, 45.207996, 18.462296, 19.497740
1183, 9.985684, 37.253849, 19.741335
1184, 23.950830, 10.658213, 12.238384
1185, 4.983764, 37.521416, 11.835485
1186, 17.665567, 43.688904, 13.706598
1187, 11.763446, 16.261051, 19.392689
1188, 48.802853, 43.704147, 4.747860
1189, 56.467815, 36.272205, 4.723104
1190, 55.436348, 11.586002, 15.212699
1191, 74.963310, 5.273414, 4.969131
1192, 52.669502, 4.412281, 4.545430
1193, 57.431671, 17.588625, 4.588791
1194, 45.626324, 39.102589, 9.809129
1195, 81.147324, 23.811460, 19.562700
1196, 34.411240, 16.479900, 4.164886
1197, 51.717537, 4.747406, 17.331974
1198, 33.433186, 30.483168, 4.658645
1199, 10.391703, 28.796804, 20.022444

*ELEMENT, TYPE=C3D4, ELSET=ALL_ELEMENTS
1, 879, 928, 827, 1046
2, 894, 1045, 275, 1074
3, 939, 962, 196, 1013
4, 928, 827, 1046, 1118
5, 825, 847, 985, 986
6, 928, 996, 827, 1118
7, 863, 891, 836, 1043
8, 920, 948, 867, 973
9, 823, 925, 878, 1023
10, 867, 973, 828, 1058
11, 858, 925, 826, 963
12, 932, 1122, 658, 1132
13, 932, 658, 1122, 1172
14, 823, 980, 925, 1023
15, 664, 963, 925, 1050
16, 774, 689, 891, 1012
17, 730, 806, 354, 923
18, 879, 827, 928, 1077
19, 828, 867, 948, 973
20, 767, 925, 878, 956
21, 863, 874, 836, 1069
22, 624, 926, 898, 1128
23, 863, 836, 886, 1069
24, 152, 914, 918, 1031
25, 641, 642, 958, 1099
26, 818, 856, 752, 951
27, 774, 891, 930, 1012
28, 687, 767, 878, 956
29, 832, 1123, 866, 1140
30, 832, 854, 1123, 1140
31, 729, 912, 870, 968
32, 874, 1040, 836, 1069
33, 836, 1040, 886, 1069
34, 830, 947, 975, 1052
35, 836, 891, 863, 959
36, 975, 1033, 830, 1101
37, 674, 921, 879, 961
38, 774, 930, 891, 1070
39, 852, 973, 867, 1058
40, 668, 907, 666, 956
41, 799, 852, 912, 968
42, 352, 979, 911, 1086
43, 918, 1062, 1019, 1081
44, 774, 891, 689, 1070
45, 826, 858, 963, 1050
46, 832, 854, 992, 1123
47, 574, 934, 905, 1085
48, 647, 921, 674, 961
49, 830, 947, 880, 975
50, 985, 986, 847, 1136
51, 907, 956, 668, 1164
52, 848, 964, 589, 1068
53, 875, 917, 841, 923
54, 880, 975, 597, 1051
55, 845, 933, 725, 1039
56, 789, 932, 811, 967
57, 716, 875, 923, 1173
58, 848, 924, 589, 964
59, 841, 1014, 877, 1058
60, 832, 992, 866, 1123
61, 863, 990, 891, 1043
62, 290, 597, 975, 1051
63, 1023, 1061, 878, 1181
64, 725, 722, 845, 1039
65, 407, 384, 1056, 1140
66, 891, 959, 825, 990
67, 823, 853, 927, 1018
68, 918, 1019, 834, 1081
69, 716, 917, 875, 1173
70, 464, 475, 946, 955
71, 453, 848, 589, 1068
72, 464, 946, 475, 1198
73, 474, 940, 535, 1106
74, 529, 924, 848, 947
75, 538, 865, 906, 1154
76, 832, 884, 992, 1037
77, 710, 1019, 1062, 1081
78, 863, 959, 891, 990
79, 725, 933, 845, 967
80, 845, 995, 933, 1039
81, 834, 918, 914, 1031
82, 841, 877, 867, 1058
83, 867, 877, 841, 1072
84, 799, 912, 852, 961
85, 574, 999, 934, 1085
86, 589, 848, 529, 924
87, 859, 986, 985, 1136
88, 538, 940, 865, 1154
89, 264, 958, 855, 1099
90, 666, 956, 907, 1168
91, 832, 992, 884, 1092
92, 867, 948, 920, 1159
93, 535, 940, 931, 1106
94, 879, 921, 674, 1066
95, 825, 985, 859, 986
96, 852, 867, 973, 1027
97, 992, 1037, 884, 1092
98, 377, 914, 405, 918
99, 925, 963, 858, 1050
100, 814, 932, 658, 1132
101, 863, 825, 959, 990
102, 687, 878, 913, 956
103, 904, 996, 849, 1075
104, 877, 975, 830, 1101
105, 853, 1025, 567, 1162
106, 843, 915, 868, 988
107, 836, 874, 863, 1043
108, 664, 925, 858, 1050
109, 464, 955, 946, 1198
110, 884, 919, 821, 1001
111, 858, 826, 925, 980
112, 840, 1061, 1023, 1181
113, 474, 940, 1106, 1108
114, 624, 898, 1010, 1128
115, 830, 975, 877, 1052
116, 279, 354, 806, 923
117, 877, 1014, 875, 1058
118, 925, 1023, 980, 1078
119, 918, 834, 1019, 1062
120, 774, 689, 773, 1070
121, 770, 898, 624, 926
122, 882, 998, 750, 1195
123, 722, 1034, 845, 1039
124, 823, 980, 853, 1018
125, 589, 453, 529, 848
126, 729, 653, 870, 912
127, 464, 1018, 955, 1198
128, 837, 897, 886, 916
129, 869, 957, 251, 993
130, 333, 972, 802, 979
131, 575, 934, 574, 999
132, 722, 967, 845, 1034
133, 831, 996, 904, 1075
134, 971, 1104, 904, 1112
135, 837, 911, 910, 979
136, 539, 865, 940, 1108
137, 729, 799, 912, 968
138, 567, 853, 927, 1025
139, 858, 925, 664, 956
140, 257, 341, 894, 958
141, 830, 867, 877, 1058
142, 878, 1023, 925, 1078
143, 575, 905, 574, 934
144, 849, 865, 906, 1075
145, 843, 868, 915, 1148
146, 419, 405, 377, 914
147, 906, 1064, 849, 1075
148, 880, 830, 975, 1033
149, 910, 979, 911, 1153
150, 828, 872, 861, 1146
151, 825, 985, 847, 1171
152, 823, 927, 950, 1018
153, 954, 972, 347, 979
154, 832, 941, 884, 1037
155, 876, 395, 1011, 1021
156, 257, 233, 273, 894
157, 750, 882, 254, 998
158, 878, 1061, 898, 1181
159, 827, 852, 973, 1027
160, 836, 863, 886, 959
161, 919, 1001, 884, 1090
162, 832, 992, 941, 1037
163, 251, 869, 239, 957
164, 831, 881, 904, 971
165, 195, 951, 926, 1167
166, 920, 973, 867, 1027
167, 663, 925, 664, 963
168, 478, 936, 1063, 1137
169, 649, 674, 739, 879
170, 849, 831, 902, 996
171, 167, 939, 1013, 1128
172, 827, 996, 928, 1077
173, 933, 995, 348, 1039
174, 850, 833, 896, 1083
175, 341, 233, 257, 894
176, 377, 146, 914, 918
177, 152, 1031, 918, 1062
178, 393, 395, 876, 1021
179, 725, 845, 722, 967
180, 309, 915, 988, 1080
181, 910, 911, 1003, 1153
182, 789, 870, 932, 967
183, 837, 979, 910, 1153
184, 354, 293, 730, 923
185, 831, 849, 904, 996
186, 831, 977, 996, 1075
187, 916, 954, 320, 1086
188, 649, 879, 739, 1077
189, 195, 707, 926, 951
190, 846, 1122, 932, 1132
191, 716, 923, 875, 1084
192, 841, 917, 875, 1058
193, 849, 996, 902, 1116
194, 389, 390, 935, 966
195, 845, 830, 909, 1034
196, 334, 979, 352, 1086
197, 827, 852, 1027, 1150
198, 850, 1009, 833, 1083
199, 261, 275, 1045, 1074
200, 239, 957, 869, 1134
201, 752, 951, 856, 978
202, 170, 196, 962, 1013
203, 594, 556, 1141, 1180
204, 167, 939, 196, 1013
205, 855, 894, 841, 923
206, 493, 905, 934, 1120
207, 852, 828, 973, 1058
208, 770, 898, 926, 1065
209, 879, 1060, 851, 1079
210, 225, 1010, 166, 1128
211, 538, 539, 865, 940
212, 389, 966, 935, 1140
213, 875, 917, 716, 1067
214, 861, 872, 828, 1032
215, 393, 876, 395, 1011
216, 831, 904, 977, 1075
217, 183, 1104, 971, 1112
218, 225, 624, 1010, 1128
219, 830, 1058, 877, 1101
220, 612, 880, 597, 1051
221, 767, 665, 925, 956
222, 690, 949, 1065, 1182
223, 225, 926, 624, 1128
224, 846, 932, 1122, 1172
225, 915, 988, 843, 989
226, 841, 875, 1014, 1058
227, 799, 852, 648, 961
228, 674, 736, 879, 1066
229, 493, 905, 575, 934
230, 567, 927, 853, 1018
231, 727, 932, 922, 967
232, 736, 1035, 879, 1066
233, 333, 347, 972, 979
234, 832, 866, 992, 1120
235, 761, 938, 889, 949
236, 736, 739, 674, 879
237, 653, 870, 912, 1030
238, 902, 996, 831, 1116
239, 204, 939, 169, 1010
240, 904, 849, 1064, 1075
241, 338, 954, 916, 1087
242, 400, 198, 377, 918
243, 827, 973, 920, 1027
244, 916, 1141, 1089, 1180
245, 865, 849, 996, 1075
246, 885, 1053, 1015, 1091
247, 273, 257, 894, 958
248, 264, 255, 958, 1099
249, 273, 894, 264, 958
250, 850, 1006, 552, 1057
251, 814, 727, 932, 1132
252, 264, 894, 273, 1074
253, 739, 928, 879, 1035
254, 739, 879, 736, 1035
255, 821, 919, 884, 1092
256, 793, 1010, 1174, 1197
257, 334, 954, 979, 1086
258, 873, 969, 827, 996
259, 293, 730, 923, 958
260, 841, 923, 917, 1088
261, 930, 984, 774, 1012
262, 905, 976, 871, 992
263, 846, 1122, 938, 1172
264, 885, 1091, 1015, 1194
265, 830, 845, 909, 1033
266, 898, 949, 699, 1010
267, 166, 926, 225, 1128
268, 552, 850, 936, 1006
269, 152, 153, 914, 1031
270, 204, 939, 1010, 1042
271, 297, 923, 894, 958
272, 453, 848, 1068, 1117
273, 225, 206, 166, 1010
274, 307, 995, 845, 1039
275, 338, 320, 916, 954
276, 854, 832, 966, 1140
277, 820, 1015, 885, 1053
278, 848, 830, 970, 1150
279, 852, 968, 799, 1067
280, 818, 951, 620, 1158
281, 851, 827, 969, 1046
282, 706, 692, 1065, 1102
283, 910, 911, 837, 1003
284, 830, 877, 867, 1052
285, 886, 897, 837, 959
286, 832, 871, 976, 992
287, 851, 973, 879, 1079
288, 922, 1091, 1053, 1147
289, 739, 879, 928, 1077
290, 847, 986, 825, 1171
291, 1089, 1141, 556, 1180
292, 891, 990, 824, 1043
293, 1053, 1091, 963, 1147
294, 824, 930, 891, 1012
295, 538, 906, 865, 1075
296, 922, 1053, 963, 1147
297, 864, 913, 833, 1124
298, 842, 990, 871, 992
299, 864, 937, 821, 978
300, 706, 1065, 926, 1102
301, 774, 773, 930, 1070
302, 341, 291, 233, 894
303, 844, 949, 1010, 1174
304, 818, 752, 785, 951
305, 460, 567, 1025, 1162
306, 212, 1031, 1115, 1145
307, 396, 1011, 403, 1145
308, 699, 1010, 949, 1174
309, 297, 293, 923, 958
310, 843, 1148, 915, 1185
311, 922, 932, 727, 1132
312, 839, 1091, 922, 1147
313, 842, 871, 990, 1171
314, 871, 990, 905, 992
315, 933, 967, 725, 1094
316, 855, 841, 894, 1088
317, 442, 952, 872, 953
318, 905, 992, 866, 1120
319, 649, 961, 879, 1077
320, 823, 878, 925, 956
321, 641, 958, 255, 1099
322, 922, 932, 846, 1155
323, 811, 932, 727, 967
324, 826, 963, 925, 1166
325, 309, 988, 915, 989
326, 825, 959, 891, 1049
327, 647, 674, 921, 1066
328, 641, 642, 714, 958
329, 838, 1060, 879, 1079
330, 1001, 1019, 884, 1090
331, 905, 990, 871, 1133
332, 859, 981, 825, 986
333, 1004, 1008, 896, 1013
334, 824, 984, 930, 1012
335, 850, 896, 833, 997
336, 519, 520, 521, 975
337, 827, 1027, 920, 1150
338, 664, 666, 858, 956
339, 464, 463, 475, 955
340, 478, 1006, 936, 1137
341, 851, 1106, 940, 1108
342, 1063, 1137, 936, 1152
343, 880, 975, 337, 1033
344, 953, 1000, 494, 1072
345, 942, 1020, 895, 1130
346, 833, 896, 1008, 1013
347, 821, 864, 978, 1009
348, 697, 774, 984, 1012
349, 353, 337, 290, 975
350, 169, 939, 204, 1042
351, 887, 896, 833, 1083
352, 529, 848, 453, 1117
353, 690, 949, 898, 1065
354, 676, 648, 852, 1096
355, 959, 1003, 891, 1049
356, 818, 856, 951, 1158
357, 396, 403, 415, 1145
358, 849, 831, 904, 1112
359, 177, 994, 908, 1144
360, 689, 1003, 891, 1012
361, 604, 1064, 906, 1075
362, 983, 1031, 914, 1145
363, 887, 833, 1009, 1083
364, 388, 935, 390, 966
365, 789, 932, 870, 1030
366, 538, 536, 539, 940
367, 687, 913, 878, 1065
368, 353, 337, 975, 1033
369, 264, 855, 958, 1074
370, 897, 825, 1089, 1165
371, 674, 879, 649, 961
372, 676, 852, 799, 1067
373, 903, 854, 1056, 1140
374, 389, 390, 388, 935
375, 834, 1019, 1001, 1090
376, 848, 830, 947, 970
377, 665, 664, 925, 956
378, 840, 962, 939, 1013
379, 642, 714, 958, 1173
380, 913, 1008, 833, 1124
381, 768, 1175, 911, 1177
382, 899, 954, 839, 1091
383, 520, 597, 612, 880
384, 820, 932, 922, 1155
385, 604, 906, 538, 1075
386, 663, 963, 664, 1050
387, 861, 1032, 276, 1048
388, 851, 1046, 969, 1108
389, 212, 151, 1031, 1145
390, 729, 799, 653, 912
391, 840, 1008, 1004, 1013
392, 835, 889, 938, 1017
393, 959, 1089, 825, 1165
394, 736, 929, 1035, 1066
395, 892, 996, 873, 1059
396, 390, 966, 389, 1140
397, 802, 972, 760, 979
398, 954, 1038, 839, 1091
399, 848, 1027, 830, 1150
400, 834, 918, 1031, 1062
401, 886, 916, 897, 1089
402, 879, 921, 838, 1079
403, 676, 648, 799, 852
404, 901, 871, 990, 1133
405, 731, 957, 227, 1103
406, 827, 873, 996, 1059
407, 348, 995, 307, 1039
408, 652, 912, 892, 1073
409, 845, 970, 830, 1034
410, 823, 950, 980, 1018
411, 983, 1115, 1031, 1145
412, 917, 1088, 923, 1173
413, 245, 276, 861, 1032
414, 846, 925, 963, 1166
415, 227, 957, 267, 1103
416, 554, 1052, 867, 1072
417, 827, 912, 852, 1150
418, 831, 971, 904, 1112
419, 825, 959, 897, 1089
420, 831, 904, 881, 977
421, 363, 338, 320, 916
422, 678, 937, 884, 1037
423, 916, 1089, 886, 1180
424, 964, 1082, 860, 1113
425, 867, 1052, 554, 1159
426, 849, 902, 831, 1112
427, 914, 1031, 151, 1145
428, 195, 707, 137, 926
429, 474, 535, 565, 1106
430, 567, 1018, 853, 1162
431, 195, 926, 164, 1167
432, 405, 918, 914, 1021
433, 865, 969, 873, 996
434, 580, 191, 904, 1104
435, 897, 985, 825, 1165
436, 160, 896, 997, 1167
437, 699, 898, 690, 949
438, 666, 907, 668, 1168
439, 892, 912, 652, 1077
440, 865, 827, 969, 996
441, 1045, 1074, 953, 1127
442, 878, 925, 767, 1182
443, 827, 996, 892, 1059
444, 849, 908, 991, 1118
445, 297, 894, 341, 958
446, 845, 830, 970, 1033
447, 590, 1129, 935, 1161
448, 699, 793, 1010, 1174
449, 693, 941, 930, 1037
450, 901, 990, 871, 1171
451, 828, 867, 1058, 1088
452, 616, 439, 396, 1011
453, 831, 893, 881, 1076
454, 831, 881, 893, 977
455, 917, 923, 875, 1173
456, 897, 1089, 916, 1141
457, 952, 953, 494, 1072
458, 953, 1045, 894, 1074
459, 879, 973, 921, 1079
460, 137, 803, 624, 926
461, 845, 1033, 307, 1039
462, 442, 953, 872, 1127
463, 249, 1074, 1032, 1099
464, 850, 1006, 883, 1184
465, 843, 989, 988, 1026
466, 789, 811, 723, 967
467, 867, 841, 1058, 1088
468, 752, 856, 753, 960
469, 828, 1058, 852, 1096
470, 953, 1045, 1000, 1125
471, 904, 971, 881, 1104
472, 820, 1005, 885, 1015
473, 624, 898, 704, 1010
474, 920, 1027, 848, 1150
475, 835, 938, 889, 1172
476, 580, 202, 191, 1104
477, 881, 977, 544, 1178
478, 348, 995, 933, 1028
479, 827, 852, 912, 961
480, 300, 1014, 923, 1084
481, 829, 906, 865, 940
482, 309, 988, 357, 1080
483, 825, 910, 959, 1049
484, 904, 1104, 182, 1112
485, 877, 1058, 875, 1101
486, 915, 1148, 903, 1185
487, 326, 995, 348, 1028
488, 828, 861, 948, 1146
489, 405, 914, 419, 1021
490, 868, 988, 915, 1080
491, 909, 1084, 622, 1160
492, 497, 575, 574, 999
493, 839, 1015, 1091, 1194
494, 829, 1149, 908, 1179
495, 600, 188, 142, 1007
496, 878, 1065, 949, 1182
497, 879, 1046, 851, 1060
498, 908, 1149, 895, 1179
499, 439, 1011, 616, 1145
500, 529, 947, 848, 1117
501, 833, 896, 887, 1008
502, 415, 150, 221, 1145
503, 834, 919, 883, 983
504, 554, 518, 1052, 1072
505, 350, 909, 797, 1039
506, 144, 951, 856, 1158
507, 465, 927, 950, 1196
508, 678, 884, 681, 1037
509, 465, 950, 927, 1018
510, 539, 940, 536, 1108
511, 863, 959, 825, 1165
512, 910, 1003, 959, 1049
513, 552, 936, 850, 1083
514, 769, 690, 1065, 1182
515, 296, 1000, 1045, 1125
516, 914, 983, 834, 1031
517, 693, 930, 941, 1199
518, 590, 513, 1129, 1161
519, 476, 554, 1052, 1159
520, 384, 903, 382, 1056
521, 935, 966, 388, 1097
522, 196, 962, 939, 1007
523, 818, 752, 856, 1158
524, 834, 876, 919, 983
525, 282, 911, 352, 979
526, 494, 952, 442, 953
527, 761, 949, 889, 1174
528, 618, 850, 552, 1057
529, 828, 917, 1058, 1096
530, 864, 956, 907, 1164
531, 254, 998, 882, 1105
532, 846, 963, 925, 1132
533, 907, 956, 864, 986
534, 720, 909, 1034, 1039
535, 852, 867, 1027, 1058
536, 931, 940, 851, 1106
537, 988, 989, 310, 1026
538, 484, 478, 936, 1063
539, 687, 665, 767, 956
540, 362, 348, 307, 1039
541, 799, 650, 912, 961
542, 789, 723, 870, 967
543, 1032, 1074, 855, 1099
544, 825, 907, 858, 1168
545, 750, 254, 626, 998
546, 829, 991, 908, 1118
547, 885, 1005, 862, 1015
548, 849, 994, 179, 1144
549, 710, 1062, 918, 1081
550, 840, 1013, 939, 1128
551, 597, 880, 520, 975
552, 276, 245, 861, 993
553, 996, 1075, 977, 1156
554, 900, 1042, 881, 1076
555, 844, 949, 898, 1010
556, 855, 923, 841, 1088
557, 170, 167, 196, 1013
558, 400, 377, 405, 918
559, 823, 913, 878, 956
560, 258, 139, 199, 1020
561, 1023, 1025, 822, 1061
562, 823, 878, 1008, 1023
563, 936, 1137, 1006, 1152
564, 968, 1058, 830, 1160
565, 761, 889, 938, 1172
566, 911, 959, 837, 1003
567, 859, 946, 826, 955
568, 284, 874, 429, 1138
569, 653, 789, 870, 1030
570, 758, 794, 979, 1153
571, 875, 830, 1058, 1160
572, 883, 919, 1006, 1129
573, 687, 767, 769, 878
574, 407, 384, 382, 1056
575, 831, 996, 974, 1116
576, 429, 874, 601, 1138
577, 683, 884, 678, 960
578, 830, 848, 947, 1027
579, 567, 462, 1018, 1162
580, 911, 959, 836, 1086
581, 820, 1053, 885, 1155
582, 331, 911, 762, 1175
583, 865, 940, 906, 1154
584, 300, 923, 1014, 1125
585, 145, 603, 507, 962
586, 828, 952, 867, 1088
587, 841, 953, 894, 1088
588, 150, 415, 403, 1145
589, 843, 988, 868, 1148
590, 484, 471, 478, 1063
591, 137, 624, 225, 926
592, 820, 922, 1015, 1053
593, 567, 465, 927, 1018
594, 377, 198, 146, 918
595, 837, 954, 916, 1086
596, 476, 554, 518, 1052
597, 633, 933, 281, 1039
598, 354, 299, 293, 923
599, 858, 825, 981, 986
600, 837, 979, 954, 1086
601, 855, 923, 1088, 1173
602, 272, 368, 341, 958
603, 552, 850, 618, 1095
604, 879, 1035, 929, 1066
605, 863, 824, 990, 1043
606, 825, 863, 901, 990
607, 825, 858, 910, 1168
608, 745, 974, 892, 1116
609, 622, 909, 280, 1084
610, 849, 991, 906, 1118
611, 926, 951, 707, 1102
612, 929, 957, 869, 1060
613, 648, 961, 852, 1096
614, 264, 958, 894, 1074
615, 910, 837, 959, 1003
616, 937, 1070, 673, 1164
617, 827, 1059, 920, 1068
618, 821, 960, 884, 1001
619, 854, 903, 1123, 1140
620, 827, 920, 969, 1068
621, 906, 991, 849, 1144
622, 910, 1050, 1093, 1153
623, 393, 1021, 876, 1097
624, 854, 941, 832, 992
625, 177, 908, 178, 1144
626, 678, 884, 937, 960
627, 927, 1004, 569, 1109
628, 628, 908, 216, 994
629, 544, 977, 881, 1104
630, 693, 691, 941, 1037
631, 873, 969, 865, 1156
632, 883, 1006, 1001, 1184
633, 843, 874, 1043, 1135
634, 934, 1120, 866, 1121
635, 845, 970, 967, 1015
636, 820, 967, 970, 1015
637, 876, 834, 914, 983
638, 753, 960, 856, 1158
639, 821, 937, 864, 1036
640, 924, 1113, 1002, 1155
641, 873, 996, 892, 1054
642, 307, 845, 995, 1033
643, 883, 983, 919, 1129
644, 320, 954, 334, 1086
645, 826, 925, 980, 1166
646, 878, 913, 823, 1008
647, 886, 836, 959, 1086
648, 987, 1123, 903, 1140
649, 873, 996, 977, 1156
650, 953, 1074, 894, 1088
651, 863, 990, 824, 1085
652, 153, 151, 914, 1031
653, 1002, 1113, 860, 1155
654, 925, 1122, 767, 1182
655, 458, 944, 860, 1162
656, 858, 907, 825, 986
657, 863, 824, 999, 1085
658, 877, 975, 517, 1052
659, 144, 197, 856, 951
660, 875, 923, 841, 1014
661, 864, 913, 823, 956
662, 493, 574, 575, 905
663, 330, 1033, 975, 1101
664, 915, 989, 843, 1185
665, 740, 892, 1077, 1116
666, 251, 957, 241, 993
667, 544, 904, 543, 977
668, 907, 956, 858, 1168
669, 891, 1049, 1070, 1171
670, 858, 981, 859, 986
671, 847, 985, 901, 1171
672, 740, 745, 892, 1116
673, 403, 1011, 914, 1145
674, 732, 748, 998, 1066
675, 183, 182, 1104, 1112
676, 867, 952, 841, 1088
677, 910, 1050, 981, 1093
678, 762, 911, 768, 1175
679, 824, 1012, 891, 1043
680, 828, 948, 867, 952
681, 885, 1015, 862, 1194
682, 774, 697, 689, 1012
683, 850, 883, 1044, 1184
684, 204, 169, 168, 1010
685, 163, 1044, 943, 1158
686, 670, 673, 1070, 1164
687, 276, 993, 861, 1100
688, 725, 812, 722, 1039
689, 902, 831, 974, 1116
690, 191, 580, 904, 1064
691, 843, 982, 989, 1026
692, 907, 1070, 1049, 1171
693, 138, 902, 185, 1024
694, 853, 823, 927, 1023
695, 830, 875, 1058, 1101
696, 827, 969, 1059, 1068
697, 980, 1023, 853, 1078
698, 900, 822, 1025, 1061
699, 760, 972, 899, 979
700, 914, 1011, 395, 1021
701, 752, 785, 951, 978
702, 388, 966, 390, 1097
703, 797, 350, 622, 909
704, 710, 1019, 712, 1062
705, 916, 954, 857, 1087
706, 241, 251, 239, 957
707, 870, 830, 970, 1034
708, 761, 680, 949, 1174
709, 360, 877, 289, 1163
710, 856, 960, 752, 978
711, 299, 297, 293, 923
712, 145, 507, 896, 962
713, 521, 947, 880, 1189
714, 846, 963, 1053, 1166
715, 835, 1017, 938, 1131
716, 279, 300, 923, 1084
717, 894, 923, 297, 1125
718, 898, 949, 878, 1065
719, 590, 976, 935, 1129
720, 457, 1082, 964, 1113
721, 500, 977, 893, 1178
722, 169, 939, 168, 1010
723, 873, 865, 996, 1156
724, 982, 310, 989, 1026
725, 849, 906, 865, 1118
726, 865, 906, 829, 1118
727, 929, 957, 895, 1179
728, 859, 955, 826, 980
729, 458, 860, 944, 1082
730, 345, 1038, 1028, 1151
731, 773, 1037, 930, 1070
732, 175, 1020, 895, 1110
733, 891, 825, 1049, 1171
734, 822, 878, 1023, 1061
735, 863, 1089, 959, 1165
736, 820, 924, 1002, 1155
737, 832, 919, 876, 976
738, 559, 1098, 592, 1141
739, 895, 991, 908, 1179
740, 856, 951, 197, 997
741, 160, 162, 896, 1167
742, 164, 195, 137, 926
743, 1019, 1081, 791, 1187
744, 188, 424, 962, 1007
745, 144, 856, 197, 1158
746, 687, 878, 769, 1065
747, 303, 1084, 909, 1101
748, 900, 1061, 1042, 1076
749, 393, 394, 395, 1021
750, 277, 331, 762, 1175
751, 883, 834, 983, 1031
752, 543, 904, 544, 1104
753, 863, 825, 901, 1165
754, 173, 1020, 942, 1130
755, 710, 791, 1019, 1081
756, 833, 1009, 864, 1124
757, 851, 1108, 969, 1169
758, 872, 952, 442, 1146
759, 797, 909, 720, 1039
760, 950, 986, 859, 1136
761, 553, 552, 1006, 1057
762, 515, 494, 953, 1000
763, 477, 460, 567, 1025
764, 360, 302, 877, 1014
765, 232, 942, 139, 1020
766, 173, 895, 1020, 1130
767, 735, 929, 736, 1066
768, 682, 930, 773, 1037
769, 560, 592, 1087, 1141
770, 345, 972, 1038, 1151
771, 153, 212, 151, 1031
772, 221, 616, 415, 1145
773, 833, 1013, 1008, 1181
774, 955, 1018, 859, 1198
775, 176, 178, 908, 1144
776, 857, 916, 837, 954
777, 750, 998, 626, 1195
778, 780, 190, 902, 994
779, 610, 289, 975, 1163
780, 707, 803, 137, 926
781, 870, 968, 830, 1034
782, 695, 692, 706, 1102
783, 689, 686, 1003, 1012
784, 878, 822, 949, 1061
785, 538, 536, 940, 1154
786, 424, 962, 1007, 1109
787, 837, 910, 1093, 1153
788, 416, 982, 404, 1185
789, 338, 1038, 954, 1087
790, 827, 892, 996, 1077
791, 363, 338, 916, 1087
792, 873, 1054, 892, 1059
793, 908, 994, 849, 1144
794, 673, 937, 1037, 1070
795, 881, 971, 183, 1104
796, 871, 1137, 1063, 1152
797, 740, 892, 745, 1077
798, 869, 993, 251, 1071
799, 830, 968, 909, 1034
800, 880, 995, 337, 1051
801, 494, 1000, 515, 1072
802, 843, 874, 988, 1043
803, 933, 1015, 967, 1094
804, 261, 1074, 1045, 1127
805, 928, 1077, 892, 1116
806, 668, 1164, 956, 1170
807, 899, 1093, 1050, 1153
808, 247, 276, 1032, 1048
809, 156, 883, 1044, 1057
810, 821, 864, 1009, 1036
811, 908, 991, 829, 1179
812, 912, 968, 852, 1150
813, 266, 239, 251, 869
814, 839, 954, 899, 972
815, 877, 975, 289, 1163
816, 917, 1058, 841, 1088
817, 823, 913, 864, 1124
818, 272, 341, 257, 958
819, 859, 950, 823, 986
820, 907, 1049, 825, 1171
821, 544, 904, 977, 1104
822, 479, 955, 885, 1098
823, 296, 1000, 288, 1045
824, 884, 1001, 960, 1019
825, 216, 771, 140, 908
826, 880, 970, 830, 1033
827, 842, 1037, 992, 1092
828, 869, 957, 929, 1179
829, 946, 955, 859, 1198
830, 857, 837, 916, 1093
831, 938, 1122, 658, 1172
832, 831, 977, 873, 996
833, 460, 1025, 944, 1162
834, 389, 1140, 935, 1157
835, 176, 908, 991, 1144
836, 824, 984, 1012, 1043
837, 280, 622, 350, 909
838, 793, 1174, 1024, 1197
839, 652, 745, 892, 1077
840, 898, 939, 844, 1010
841, 828, 1032, 882, 1079
842, 866, 832, 935, 1120
843, 150, 403, 914, 1145
844, 837, 857, 954, 1093
845, 878, 949, 898, 1061
846, 179, 1112, 849, 1144
847, 708, 750, 626, 1195
848, 604, 541, 1064, 1075
849, 858, 956, 823, 980
850, 706, 770, 624, 926
851, 362, 307, 1033, 1039
852, 849, 179, 994, 1112
853, 870, 968, 912, 1150
854, 254, 882, 750, 1099
855, 847, 986, 950, 1136
856, 216, 628, 771, 908
857, 835, 1131, 938, 1172
858, 166, 137, 225, 926
859, 339, 862, 995, 1028
860, 463, 955, 464, 1018
861, 861, 1032, 1079, 1105
862, 368, 272, 815, 958
863, 652, 1030, 912, 1073
864, 780, 190, 138, 902
865, 464, 859, 466, 1018
866, 832, 919, 871, 1092
867, 715, 923, 716, 1084
868, 873, 1054, 964, 1082
869, 845, 970, 1015, 1114
870, 858, 825, 910, 981
871, 929, 1060, 869, 1179
872, 610, 975, 517, 1163
873, 836, 886, 1040, 1086
874, 326, 364, 348, 995
875, 1001, 1044, 883, 1184
876, 906, 991, 829, 1118
877, 543, 977, 904, 1075
878, 806, 730, 715, 923
879, 145, 203, 217, 896
880, 753, 856, 752, 1158
881, 882, 828, 921, 1055
882, 600, 424, 188, 1007
883, 519, 517, 975, 1052
884, 266, 869, 251, 1071
885, 870, 970, 830, 1150
886, 664, 858, 666, 1168
887, 758, 756, 794, 1153
888, 843, 1135, 1043, 1148
889, 828, 852, 973, 1096
890, 464, 466, 859, 1198
891, 939, 1007, 962, 1109
892, 868, 1012, 984, 1043
893, 927, 569, 1025, 1109
894, 859, 950, 466, 1018
895, 716, 917, 754, 1067
896, 848, 920, 1059, 1068
897, 882, 1079, 1032, 1105
898, 256, 276, 1048, 1100
899, 204, 1042, 1010, 1197
900, 245, 247, 276, 1032
901, 869, 1022, 266, 1134
902, 937, 960, 821, 978
903, 416, 1016, 982, 1185
904, 954, 1091, 899, 1093
905, 362, 1033, 305, 1039
906, 762, 768, 911, 1177
907, 832, 876, 935, 976
908, 667, 668, 956, 1170
909, 897, 837, 1093, 1141
910, 916, 1093, 837, 1141
911, 823, 853, 980, 1023
912, 820, 932, 870, 967
913, 673, 937, 678, 1037
914, 851, 879, 973, 1046
915, 478, 484, 936, 1006
916, 1008, 1023, 878, 1181
917, 465, 487, 927, 1196
918, 820, 1015, 970, 1114
919, 625, 911, 282, 979
920, 838, 957, 929, 1060
921, 653, 789, 729, 870
922, 264, 249, 255, 1099
923, 928, 1046, 879, 1118
924, 871, 842, 1152, 1171
925, 845, 1034, 909, 1039
926, 277, 762, 768, 1175
927, 852, 961, 827, 973
928, 567, 465, 487, 927
929, 429, 874, 284, 1026
930, 264, 273, 250, 1074
931, 877, 875, 1014, 1101
932, 704, 898, 699, 1010
933, 160, 997, 896, 1095
934, 834, 1001, 919, 1090
935, 726, 727, 922, 967
936, 521, 880, 520, 1189
937, 479, 1005, 885, 1029
938, 288, 1000, 530, 1045
939, 768, 965, 1175, 1177
940, 821, 871, 919, 1092
941, 241, 993, 957, 1105
942, 844, 1010, 939, 1042
943, 858, 956, 907, 986
944, 838, 921, 879, 1066
945, 885, 1005, 479, 1107
946, 185, 902, 971, 1024
947, 859, 825, 981, 985
948, 921, 1055, 828, 1096
949, 278, 802, 333, 972
950, 881, 831, 1076, 1190
951, 761, 1073, 889, 1172
952, 948, 973, 920, 1169
953, 824, 990, 905, 1085
954, 138, 798, 902, 1024
955, 704, 690, 699, 898
956, 954, 1038, 857, 1087
957, 870, 932, 820, 1002
958, 217, 145, 896, 962
959, 859, 980, 858, 986
960, 867, 952, 554, 1072
961, 828, 948, 861, 1079
962, 896, 1004, 887, 1008
963, 466, 1136, 859, 1198
964, 861, 993, 245, 1105
965, 337, 995, 880, 1033
966, 897, 916, 837, 1141
967, 760, 792, 899, 972
968, 845, 967, 933, 1015
969, 671, 937, 673, 1164
970, 706, 926, 707, 1102
971, 964, 1054, 1017, 1082
972, 861, 1048, 276, 1100
973, 367, 817, 414, 915
974, 452, 1068, 964, 1193
975, 258, 232, 139, 1020
976, 620, 951, 144, 1158
977, 763, 281, 633, 933
978, 823, 956, 925, 980
979, 530, 1000, 953, 1045
980, 592, 945, 1087, 1098
981, 163, 155, 943, 1044
982, 305, 1033, 909, 1039
983, 670, 671, 673, 1164
984, 674, 649, 647, 961
985, 155, 1031, 943, 1044
986, 190, 214, 138, 902
987, 823, 927, 887, 950
988, 823, 980, 859, 986
989, 177, 216, 908, 994
990, 799, 648, 650, 961
991, 640, 915, 344, 1080
992, 873, 1054, 1082, 1193
993, 413, 638, 816, 918
994, 832, 941, 854, 966
995, 954, 972, 839, 1038
996, 743, 902, 974, 1116
997, 667, 668, 666, 956
998, 413, 816, 223, 918
999, 857, 1038, 954, 1091
1000, 906, 1144, 1064, 1191
1001, 832, 876, 919, 1090
1002, 781, 380, 414, 915
1003, 280, 909, 303, 1084
1004, 152, 914, 146, 918
1005, 836, 891, 959, 1003
1006, 517, 975, 877, 1163
1007, 183, 193, 881, 1104
1008, 861, 245, 1032, 1105
1009, 824, 930, 984, 1123
1010, 895, 957, 1134, 1179
1011, 664, 665, 666, 956
1012, 923, 1014, 875, 1084
1013, 893, 977, 881, 1178
1014, 701, 868, 965, 1012
1015, 860, 835, 964, 1002
1016, 1002, 1030, 835, 1150
1017, 652, 651, 745, 1077
1018, 678, 683, 681, 884
1019, 848, 970, 1002, 1150
1020, 854, 984, 930, 1123
1021, 892, 974, 745, 1073
1022, 674, 735, 736, 1066
1023, 450, 969, 449, 1169
1024, 334, 282, 352, 979
1025, 846, 932, 1131, 1155
1026, 652, 912, 650, 1077
1027, 818, 753, 752, 1158
1028, 196, 188, 962, 1007
1029, 881, 977, 904, 1104
1030, 273, 894, 275, 1074
1031, 871, 919, 832, 976
1032, 193, 183, 881, 971
1033, 173, 139, 942, 1020
1034, 496, 489, 863, 1085
1035, 861, 1048, 508, 1106
1036, 488, 1083, 1004, 1196
1037, 855, 894, 1074, 1088
1038, 285, 916, 602, 1087
1039, 834, 876, 914, 1021
1040, 466, 985, 1136, 1198
1041, 829, 1035, 879, 1118
1042, 852, 1067, 676, 1096
1043, 663, 925, 963, 1132
1044, 859, 826, 946, 981
1045, 663, 662, 664, 925
1046, 963, 1091, 899, 1147
1047, 508, 1106, 1048, 1146
1048, 764, 802, 278, 972
1049, 580, 904, 543, 1104
1050, 836, 891, 1012, 1043
1051, 704, 624, 770, 898
1052, 455, 452, 964, 1193
1053, 701, 965, 868, 1080
1054, 1043, 1135, 999, 1148
1055, 550, 256, 1048, 1100
1056, 400, 413, 198, 918
1057, 837, 910, 959, 981
1058, 726, 725, 967, 1094
1059, 833, 1009, 850, 1184
1060, 732, 731, 957, 998
1061, 477, 944, 460, 1025
1062, 395, 419, 914, 1021
1063, 897, 981, 825, 985
1064, 466, 950, 859, 1136
1065, 753, 943, 960, 1158
1066, 183, 220, 193, 1104
1067, 479, 885, 955, 1029
1068, 177, 176, 178, 908
1069, 851, 973, 827, 1046
1070, 935, 1129, 876, 1161
1071, 626, 254, 268, 998
1072, 450, 920, 969, 1169
1073, 182, 180, 1064, 1112
1074, 922, 726, 967, 1094
1075, 823, 950, 859, 980
1076, 866, 934, 905, 1120
1077, 864, 956, 823, 986
1078, 833, 913, 864, 1102
1079, 496, 863, 489, 1165
1080, 946, 1091, 955, 1098
1081, 875, 1101, 830, 1160
1082, 1010, 844, 1174, 1197
1083, 279, 299, 354, 923
1084, 898, 844, 939, 1061
1085, 857, 1091, 954, 1093
1086, 750, 882, 643, 1099
1087, 233, 275, 273, 894
1088, 781, 414, 817, 915
1089, 159, 1044, 850, 1057
1090, 833, 926, 1013, 1181
1091, 554, 952, 867, 1159
1092, 854, 930, 941, 992
1093, 877, 1014, 302, 1101
1094, 897, 959, 886, 1089
1095, 496, 863, 999, 1085
1096, 182, 1064, 904, 1112
1097, 180, 1064, 1112, 1144
1098, 745, 652, 892, 1073
1099, 601, 874, 1069, 1138
1100, 715, 716, 632, 1084
1101, 871, 992, 832, 1092
1102, 825, 1049, 907, 1168
1103, 861, 1032, 828, 1079
1104, 207, 1064, 1144, 1191
1105, 539, 865, 1108, 1156
1106, 525, 1005, 862, 1107
1107, 968, 1067, 1058, 1160
1108, 840, 898, 1061, 1181
1109, 856, 951, 833, 978
1110, 828, 1088, 872, 1146
1111, 858, 925, 956, 980
1112, 500, 544, 977, 1178
1113, 830, 968, 1027, 1058
1114, 846, 1053, 922, 1155
1115, 305, 909, 350, 1039
1116, 552, 1083, 850, 1095
1117, 513, 1011, 1129, 1161
1118, 767, 665, 662, 925
1119, 308, 367, 414, 915
1120, 507, 203, 145, 896
1121, 883, 919, 834, 1001
1122, 782, 759, 899, 1050
1123, 409, 407, 1047, 1140
1124, 828, 882, 921, 1079
1125, 822, 938, 889, 1017
1126, 876, 1011, 393, 1161
1127, 827, 973, 879, 1046
1128, 159, 1057, 850, 1095
1129, 479, 527, 1005, 1029
1130, 466, 572, 985, 1198
1131, 814, 657, 658, 932
1132, 732, 957, 731, 1103
1133, 887, 927, 823, 1008
1134, 664, 1050, 858, 1168
1135, 175, 991, 1110, 1130
1136, 926, 1065, 913, 1102
1137, 496, 999, 489, 1085
1138, 823, 864, 986, 1124
1139, 193, 971, 881, 1042
1140, 844, 1042, 1061, 1076
1141, 887, 950, 927, 1196
1142, 859, 980, 950, 1018
1143, 672, 689, 1049, 1070
1144, 942, 1022, 236, 1119
1145, 750, 643, 882, 1195
1146, 716, 754, 917, 1173
1147, 835, 1017, 964, 1054
1148, 501, 874, 429, 1026
1149, 873, 835, 964, 1054
1150, 151, 152, 153, 914
1151, 838, 869, 957, 1060
1152, 904, 1064, 849, 1112
1153, 849, 1112, 1064, 1144
1154, 479, 582, 955, 1098
1155, 825, 910, 1049, 1168
1156, 913, 926, 833, 1181
1157, 837, 910, 981, 1093
1158, 857, 1087, 945, 1098
1159, 838, 929, 879, 1060
1160, 826, 955, 946, 1091
1161, 833, 926, 913, 1102
1162, 828, 952, 1088, 1146
1163, 241, 957, 998, 1105
1164, 895, 1020, 733, 1110
1165, 826, 1053, 963, 1166
1166, 852, 1027, 968, 1058
1167, 279, 300, 299, 923
1168, 860, 964, 835, 1017
1169, 879, 929, 829, 1060
1170, 247, 872, 274, 1048
1171, 717, 622, 1084, 1160
1172, 856, 978, 833, 1184
1173, 891, 930, 824, 990
1174, 780, 138, 798, 902
1175, 858, 823, 956, 986
1176, 338, 365, 320, 954
1177, 154, 1031, 152, 1062
1178, 663, 662, 925, 1132
1179, 293, 368, 815, 958
1180, 730, 715, 923, 958
1181, 876, 1011, 914, 1021
1182, 1048, 1106, 861, 1146
1183, 883, 1031, 156, 1044
1184, 695, 706, 707, 1102
1185, 837, 959, 911, 1086
1186, 831, 902, 971, 1112
1187, 149, 1020, 175, 1110
1188, 870, 967, 723, 1034
1189, 830, 1033, 909, 1101
1190, 910, 1003, 756, 1153
1191, 1030, 1059, 835, 1150
1192, 182, 180, 226, 1064
1193, 873, 1082, 964, 1193
1194, 894, 1045, 953, 1125
1195, 866, 992, 905, 1123
1196, 682, 774, 773, 930
1197, 825, 990, 901, 1171
1198, 944, 1025, 853, 1162
1199, 618, 850, 1057, 1095
1200, 821, 871, 1092, 1152
1201, 217, 962, 896, 1013
1202, 1008, 1013, 840, 1181
1203, 865, 1075, 996, 1156
1204, 901, 985, 847, 1136
1205, 999, 1043, 874, 1135
1206, 693, 941, 788, 1199
1207, 782, 899, 963, 1050
1208, 922, 932, 820, 967
1209, 539, 1108, 969, 1156
1210, 374, 387, 431, 935
1211, 803, 706, 624, 926
1212, 339, 995, 326, 1028
1213, 248, 274, 247, 872
1214, 881, 971, 831, 1190
1215, 942, 1020, 238, 1134
1216, 770, 926, 706, 1065
1217, 882, 1032, 855, 1099
1218, 892, 974, 996, 1116
1219, 842, 930, 891, 990
1220, 762, 331, 282, 911
1221, 720, 1034, 909, 1160
1222, 173, 895, 175, 1020
1223, 876, 1129, 1011, 1161
1224, 344, 817, 367, 915
1225, 293, 297, 341, 958
1226, 762, 911, 698, 1177
1227, 470, 985, 901, 1136
1228, 829, 929, 879, 1035
1229, 296, 1045, 894, 1125
1230, 284, 874, 313, 1026
1231, 662, 665, 664, 925
1232, 825, 959, 910, 981
1233, 919, 1090, 884, 1092
1234, 859, 981, 897, 985
1235, 823, 858, 980, 986
1236, 849, 908, 1118, 1176
1237, 891, 1049, 689, 1070
1238, 525, 1107, 862, 1188
1239, 666, 858, 956, 1168
1240, 470, 472, 901, 985
1241, 836, 1086, 1040, 1175
1242, 838, 882, 1079, 1195
1243, 917, 828, 1055, 1096
1244, 797, 622, 720, 909
1245, 316, 874, 284, 1138
1246, 592, 945, 609, 1087
1247, 763, 346, 281, 933
1248, 541, 604, 538, 1075
1249, 761, 938, 659, 1172
1250, 846, 1053, 963, 1132
1251, 902, 994, 214, 1112
1252, 190, 214, 902, 994
1253, 837, 959, 897, 981
1254, 834, 919, 876, 1090
1255, 238, 942, 232, 1020
1256, 896, 162, 1013, 1167
1257, 836, 911, 1086, 1175
1258, 830, 1101, 909, 1160
1259, 830, 968, 870, 1150
1260, 921, 1079, 882, 1195
1261, 913, 1065, 692, 1102
1262, 842, 1092, 871, 1152
1263, 368, 293, 341, 958
1264, 431, 549, 374, 935
1265, 782, 963, 899, 1147
1266, 969, 1108, 865, 1156
1267, 160, 997, 161, 1167
1268, 879, 961, 827, 1077
1269, 501, 874, 1026, 1135
1270, 604, 906, 1064, 1191
1271, 828, 1032, 872, 1088
1272, 138, 185, 189, 1024
1273, 870, 1002, 970, 1150
1274, 214, 185, 902, 1112
1275, 227, 957, 731, 998
1276, 248, 872, 247, 1032
1277, 220, 183, 182, 1104
1278, 574, 497, 999, 1085
1279, 185, 971, 902, 1112
1280, 718, 875, 716, 1067
1281, 306, 1033, 330, 1101
1282, 836, 868, 965, 1186
1283, 848, 947, 924, 970
1284, 1004, 1083, 887, 1196
1285, 955, 1091, 885, 1098
1286, 838, 957, 869, 993
1287, 909, 968, 830, 1160
1288, 841, 923, 894, 1125
1289, 855, 872, 1032, 1088
1290, 713, 791, 1081, 1187
1291, 678, 937, 684, 960
1292, 525, 862, 1005, 1051
1293, 553, 1006, 883, 1057
1294, 900, 1076, 881, 1178
1295, 146, 403, 377, 914
1296, 280, 358, 810, 1084
1297, 413, 223, 198, 918
1298, 693, 691, 788, 941
1299, 858, 980, 859, 981
1300, 849, 865, 996, 1118
1301, 273, 275, 250, 1074
1302, 605, 890, 437, 1119
1303, 594, 1141, 558, 1180
1304, 836, 959, 911, 1003
1305, 878, 822, 1078, 1182
1306, 833, 850, 997, 1184
1307, 207, 133, 1064, 1191
1308, 1058, 1067, 875, 1160
1309, 464, 859, 1018, 1198
1310, 743, 902, 798, 1024
1311, 830, 867, 1027, 1052
1312, 249, 248, 1032, 1074
1313, 681, 691, 1037, 1187
1314, 938, 949, 659, 1182
1315, 513, 1011, 510, 1129
1316, 827, 912, 892, 1077
1317, 673, 678, 681, 1037
1318, 610, 422, 517, 975
1319, 310, 988, 309, 989
1320, 159, 850, 997, 1095
1321, 684, 960, 937, 978
1322, 941, 1037, 691, 1187
1323, 916, 857, 1093, 1141
1324, 941, 1047, 788, 1199
1325, 967, 1015, 922, 1094
1326, 313, 874, 988, 1026
1327, 483, 1129, 1006, 1137
1328, 750, 708, 643, 1195
1329, 589, 964, 924, 1113
1330, 838, 879, 929, 1066
1331, 946, 955, 582, 1098
1332, 908, 991, 895, 1110
1333, 552, 936, 484, 1006
1334, 888, 1021, 834, 1081
1335, 413, 379, 638, 918
1336, 282, 625, 762, 911
1337, 890, 906, 829, 1154
1338, 912, 1059, 1030, 1150
1339, 769, 677, 690, 1182
1340, 855, 1032, 872, 1074
1341, 179, 214, 994, 1112
1342, 899, 972, 792, 1147
1343, 689, 696, 686, 1012
1344, 458, 1029, 860, 1113
1345, 693, 930, 682, 1037
1346, 177, 216, 140, 908
1347, 824, 863, 999, 1043
1348, 1001, 1006, 821, 1184
1349, 827, 892, 912, 1059
1350, 876, 832, 935, 1097
1351, 529, 523, 924, 947
1352, 729, 870, 723, 1034
1353, 836, 1043, 868, 1186
1354, 853, 980, 1078, 1166
1355, 892, 974, 889, 1054
1356, 593, 1104, 881, 1192
1357, 156, 187, 883, 1057
1358, 870, 1030, 1002, 1150
1359, 835, 1002, 860, 1131
1360, 849, 928, 996, 1116
1361, 844, 881, 1042, 1076
1362, 899, 963, 826, 1091
1363, 701, 1012, 702, 1183
1364, 844, 881, 1076, 1190
1365, 406, 866, 1140, 1157
1366, 495, 1004, 488, 1083
1367, 299, 297, 923, 1125
1368, 935, 1140, 866, 1157
1369, 842, 992, 871, 1092
1370, 836, 965, 868, 1012
1371, 645, 1055, 921, 1096
1372, 247, 1032, 872, 1048
1373, 878, 949, 822, 1182
1374, 598, 202, 580, 1104
1375, 388, 935, 1097, 1161
1376, 876, 976, 919, 1129
1377, 712, 710, 791, 1019
1378, 360, 302, 330, 877
1379, 883, 1031, 983, 1115
1380, 429, 501, 601, 874
1381, 838, 1079, 921, 1195
1382, 258, 238, 232, 1020
1383, 684, 978, 937, 1164
1384, 837, 916, 886, 1086
1385, 482, 1120, 976, 1133
1386, 662, 1122, 925, 1132
1387, 840, 1023, 1008, 1181
1388, 855, 1088, 917, 1173
1389, 458, 860, 1029, 1162
1390, 458, 456, 457, 1082
1391, 163, 856, 1044, 1158
1392, 664, 772, 1050, 1168
1393, 858, 826, 980, 981
1394, 560, 559, 592, 1141
1395, 835, 873, 964, 1059
1396, 593, 881, 544, 1178
1397, 175, 991, 176, 1110
1398, 693, 682, 691, 1037
1399, 820, 1005, 1015, 1114
1400, 701, 868, 1012, 1183
1401, 544, 881, 593, 1104
1402, 849, 991, 908, 1144
1403, 906, 940, 829, 1154
1404, 740, 1077, 928, 1116
1405, 296, 288, 343, 1045
1406, 339, 995, 862, 1051
1407, 827, 961, 879, 973
1408, 844, 971, 881, 1190
1409, 829, 906, 890, 991
1410, 929, 957, 732, 1103
1411, 842, 1037, 937, 1070
1412, 865, 969, 827, 1046
1413, 474, 1108, 1106, 1169
1414, 510, 1011, 983, 1129
1415, 995, 1015, 933, 1028
1416, 869, 1134, 957, 1179
1417, 602, 285, 425, 916
1418, 173, 199, 139, 1020
1419, 662, 767, 925, 1122
1420, 538, 906, 604, 1154
1421, 837, 1093, 899, 1153
1422, 217, 160, 162, 896
1423, 776, 889, 761, 1073
1424, 829, 929, 1149, 1179
1425, 406, 1140, 389, 1157
1426, 729, 968, 870, 1034
1427, 821, 978, 960, 1184
1428, 339, 1051, 862, 1188
1429, 276, 265, 245, 993
1430, 585, 552, 618, 1095
1431, 933, 995, 845, 1015
1432, 150, 403, 146, 914
1433, 175, 176, 991, 1130
1434, 642, 1099, 1055, 1173
1435, 873, 831, 996, 1054
1436, 865, 829, 940, 1046
1437, 833, 864, 978, 1102
1438, 835, 889, 1073, 1172
1439, 821, 937, 884, 960
1440, 522, 521, 520, 1189
1441, 828, 948, 952, 1146
1442, 828, 917, 1055, 1088
1443, 288, 530, 343, 1045
1444, 716, 875, 717, 1084
1445, 450, 920, 599, 1068
1446, 957, 998, 838, 1066
1447, 826, 981, 858, 1050
1448, 804, 908, 994, 1176
1449, 716, 718, 717, 875
1450, 1035, 1118, 908, 1176
1451, 159, 997, 850, 1044
1452, 982, 584, 1026, 1135
1453, 828, 1058, 917, 1088
1454, 821, 1009, 978, 1184
1455, 301, 1000, 1014, 1163
1456, 320, 318, 916, 1086
1457, 903, 987, 384, 1185
1458, 1069, 1089, 863, 1165
1459, 816, 148, 223, 918
1460, 506, 896, 962, 1004
1461, 869, 838, 993, 1060
1462, 929, 957, 838, 1066
1463, 851, 973, 948, 1169
1464, 578, 1006, 483, 1129
1465, 414, 401, 308, 915
1466, 553, 883, 434, 1057
1467, 909, 1033, 845, 1039
1468, 832, 976, 935, 1120
1469, 895, 957, 929, 1103
1470, 874, 843, 1026, 1135
1471, 605, 533, 890, 1119
1472, 776, 974, 889, 1073
1473, 850, 936, 1006, 1184
1474, 859, 1136, 985, 1198
1475, 780, 902, 743, 994
1476, 820, 967, 870, 970
1477, 724, 726, 725, 967
1478, 683, 884, 960, 1019
1479, 849, 1064, 906, 1144
1480, 840, 1004, 962, 1013
1481, 599, 1068, 920, 1117
1482, 289, 360, 330, 877
1483, 909, 1034, 968, 1160
1484, 843, 988, 874, 1026
1485, 717, 875, 718, 1160
1486, 840, 1013, 1128, 1181
1487, 862, 1051, 525, 1188
1488, 452, 1156, 873, 1193
1489, 324, 1028, 345, 1038
1490, 659, 949, 680, 1182
1491, 891, 930, 842, 1070
1492, 833, 978, 864, 1009
1493, 782, 899, 759, 1147
1494, 1002, 835, 1059, 1150
1495, 651, 652, 650, 1077
1496, 1000, 1072, 1014, 1163
1497, 265, 993, 276, 1100
1498, 829, 1154, 1041, 1179
1499, 913, 1008, 878, 1181
1500, 859, 980, 826, 981
1501, 473, 1063, 871, 1137
1502, 822, 938, 1017, 1111
1503, 702, 1012, 984, 1183
1504, 508, 1048, 861, 1100
1505, 753, 943, 778, 960
1506, 834, 876, 1021, 1090
1507, 842, 891, 1070, 1171
1508, 569, 927, 492, 1004
1509, 609, 945, 592, 1098
1510, 543, 542, 977, 1075
1511, 469, 466, 572, 985
1512, 873, 1068, 452, 1193
1513, 506, 495, 896, 1004
1514, 769, 1065, 878, 1182
1515, 640, 817, 344, 915
1516, 907, 1036, 937, 1070
1517, 382, 903, 384, 1185
1518, 658, 932, 657, 1172
1519, 705, 1010, 793, 1197
1520, 833, 951, 856, 997
1521, 877, 360, 1014, 1163
1522, 879, 1035, 928, 1118
1523, 472, 901, 985, 1165
1524, 888, 834, 1090, 1187
1525, 197, 163, 856, 1044
1526, 156, 1044, 158, 1057
1527, 829, 1046, 865, 1118
1528, 821, 1001, 919, 1006
1529, 828, 973, 948, 1079
1530, 895, 1110, 991, 1130
1531, 872, 1048, 442, 1127
1532, 481, 1133, 976, 1137
1533, 285, 363, 351, 916
1534, 168, 1010, 939, 1128
1535, 482, 976, 481, 1133
1536, 526, 479, 1005, 1107
1537, 821, 884, 937, 1092
1538, 138, 189, 798, 1024
1539, 851, 948, 973, 1079
1540, 244, 882, 263, 1032
1541, 236, 1022, 259, 1119
1542, 863, 496, 999, 1069
1543, 841, 1014, 1000, 1072
1544, 943, 1044, 856, 1158
1545, 934, 999, 1135, 1148
1546, 829, 908, 1035, 1118
1547, 957, 993, 838, 1105
1548, 502, 575, 999, 1135
1549, 895, 1020, 942, 1134
1550, 829, 1035, 908, 1149
1551, 628, 804, 908, 994
1552, 848, 970, 924, 1002
1553, 976, 1133, 871, 1137
1554, 877, 1072, 1052, 1163
1555, 448, 920, 450, 1169
1556, 237, 266, 1022, 1134
1557, 881, 900, 1007, 1042
1558, 830, 1027, 947, 1052
1559, 594, 556, 558, 1141
1560, 930, 992, 854, 1123
1561, 893, 881, 1076, 1178
1562, 419, 377, 403, 914
1563, 197, 951, 211, 997
1564, 306, 975, 330, 1033
1565, 489, 863, 1085, 1165
1566, 330, 289, 877, 975
1567, 956, 1164, 864, 1170
1568, 831, 974, 892, 1054
1569, 434, 1057, 883, 1115
1570, 316, 1040, 874, 1138
1571, 894, 923, 855, 958
1572, 352, 282, 331, 911
1573, 266, 1022, 869, 1071
1574, 308, 915, 401, 989
1575, 825, 897, 959, 981
1576, 745, 974, 776, 1073
1577, 833, 997, 856, 1184
1578, 780, 798, 743, 902
1579, 176, 991, 908, 1110
1580, 277, 768, 965, 1175
1581, 1041, 1060, 829, 1179
1582, 838, 993, 931, 1079
1583, 862, 1015, 1005, 1114
1584, 896, 997, 850, 1095
1585, 546, 613, 259, 1119
1586, 701, 1080, 868, 1183
1587, 841, 953, 952, 1072
1588, 406, 1121, 866, 1157
1589, 453, 1068, 599, 1117
1590, 723, 729, 789, 870
1591, 613, 269, 259, 1119
1592, 156, 1031, 883, 1115
1593, 846, 932, 922, 1132
1594, 926, 833, 1013, 1167
1595, 388, 1097, 393, 1161
1596, 940, 1041, 829, 1154
1597, 466, 985, 469, 1136
1598, 417, 918, 405, 1021
1599, 1010, 1042, 844, 1197
1600, 898, 840, 939, 1128
1601, 381, 418, 989, 1185
1602, 823, 1008, 927, 1023
1603, 494, 442, 514, 953
1604, 923, 958, 715, 1173
1605, 274, 1048, 872, 1127
1606, 824, 934, 905, 1123
1607, 834, 1021, 918, 1081
1608, 631, 1081, 371, 1143
1609, 843, 1043, 988, 1148
1610, 197, 856, 163, 1158
1611, 246, 1032, 263, 1099
1612, 983, 1011, 876, 1129
1613, 263, 1032, 882, 1099
1614, 892, 996, 928, 1116
1615, 604, 1064, 428, 1191
1616, 821, 1006, 936, 1184
1617, 829, 1041, 940, 1060
1618, 867, 841, 952, 1072
1619, 492, 927, 487, 1196
1620, 558, 1141, 916, 1180
1621, 941, 992, 930, 1037
1622, 553, 578, 883, 1006
1623, 769, 878, 767, 1182
1624, 939, 962, 840, 1109
1625, 824, 992, 930, 1123
1626, 645, 921, 1055, 1195
1627, 239, 869, 266, 1134
1628, 470, 901, 1063, 1136
1629, 842, 937, 1036, 1070
1630, 473, 478, 1063, 1137
1631, 743, 994, 902, 1116
1632, 311, 309, 310, 988
1633, 631, 399, 371, 1081
1634, 934, 999, 575, 1135
1635, 235, 639, 815, 958
1636, 539, 540, 538, 865
1637, 506, 896, 507, 962
1638, 448, 450, 449, 1169
1639, 362, 307, 305, 1033
1640, 196, 142, 188, 1007
1641, 829, 879, 1046, 1118
1642, 761, 889, 776, 1174
1643, 144, 211, 197, 951
1644, 867, 830, 1027, 1058
1645, 823, 1008, 913, 1124
1646, 735, 732, 929, 1066
1647, 810, 622, 280, 1084
1648, 156, 883, 187, 1115
1649, 191, 904, 182, 1064
1650, 764, 760, 802, 972
1651, 955, 1018, 462, 1162
1652, 893, 944, 822, 1017
1653, 921, 961, 647, 1096
1654, 160, 161, 162, 1167
1655, 301, 1014, 360, 1163
1656, 905, 934, 866, 1123
1657, 826, 1050, 899, 1093
1658, 955, 980, 859, 1018
1659, 442, 1048, 872, 1146
1660, 826, 981, 1050, 1093
1661, 824, 999, 934, 1148
1662, 213, 1119, 890, 1130
1663, 410, 1097, 966, 1143
1664, 156, 212, 1031, 1115
1665, 762, 698, 768, 1177
1666, 893, 822, 944, 1142
1667, 838, 1079, 882, 1105
1668, 393, 394, 1021, 1097
1669, 794, 911, 625, 979
1670, 463, 479, 582, 955
1671, 832, 1090, 919, 1092
1672, 316, 313, 284, 874
1673, 766, 978, 684, 1164
1674, 931, 993, 861, 1079
1675, 497, 502, 575, 999
1676, 470, 469, 472, 985
1677, 904, 1064, 543, 1075
1678, 883, 1006, 850, 1057
1679, 890, 1041, 1154, 1179
1680, 835, 860, 1017, 1131
1681, 570, 569, 492, 1004
1682, 133, 428, 1064, 1191
1683, 488, 555, 1083, 1139
1684, 272, 235, 815, 958
1685, 893, 1076, 900, 1178
1686, 657, 814, 727, 932
1687, 530, 288, 606, 1000
1688, 487, 492, 569, 927
1689, 217, 896, 162, 1013
1690, 898, 840, 1128, 1181
1691, 925, 1078, 980, 1166
1692, 820, 970, 870, 1002
1693, 249, 1032, 246, 1099
1694, 881, 1007, 900, 1178
1695, 730, 293, 815, 958
1696, 552, 484, 551, 1006
1697, 760, 979, 899, 1153
1698, 809, 1147, 972, 1151
1699, 982, 1016, 584, 1135
1700, 912, 961, 650, 1077
1701, 877, 330, 975, 1101
1702, 1017, 1111, 938, 1131
1703, 759, 899, 1050, 1153
1704, 570, 569, 1004, 1109
1705, 316, 313, 874, 1040
1706, 214, 181, 185, 1112
1707, 561, 893, 500, 1193
1708, 330, 877, 302, 1101
1709, 1055, 1099, 855, 1173
1710, 783, 1020, 149, 1110
1711, 760, 899, 759, 1153
1712, 523, 589, 529, 924
1713, 365, 954, 338, 1038
1714, 842, 990, 891, 1171
1715, 871, 1133, 473, 1137
1716, 163, 157, 155, 1044
1717, 645, 644, 1055, 1096
1718, 462, 461, 955, 1162
1719, 326, 322, 339, 1028
1720, 281, 933, 348, 1039
1721, 890, 1041, 605, 1154
1722, 964, 1068, 873, 1193
1723, 869, 993, 931, 1060
1724, 149, 173, 175, 1020
1725, 890, 1154, 829, 1179
1726, 317, 1086, 886, 1180
1727, 697, 984, 702, 1012
1728, 323, 945, 322, 1028
1729, 830, 880, 947, 970
1730, 411, 1081, 888, 1143
1731, 822, 1076, 900, 1142
1732, 601, 874, 501, 1069
1733, 598, 580, 543, 1104
1734, 892, 1054, 835, 1059
1735, 363, 916, 285, 1087
1736, 914, 918, 834, 1021
1737, 875, 1067, 718, 1160
1738, 508, 550, 1048, 1100
1739, 833, 997, 896, 1167
1740, 154, 153, 152, 1031
1741, 424, 1007, 504, 1109
1742, 869, 942, 890, 1022
1743, 962, 1004, 896, 1013
1744, 585, 896, 495, 1083
1745, 1020, 1103, 238, 1134
1746, 492, 1004, 927, 1196
1747, 593, 881, 1178, 1192
1748, 440, 982, 584, 1026
1749, 825, 986, 907, 1171
1750, 406, 987, 866, 1121
1751, 587, 1120, 1121, 1157
1752, 720, 721, 1034, 1160
1753, 318, 363, 320, 916
1754, 341, 297, 291, 894
1755, 255, 641, 639, 958
1756, 845, 970, 880, 1033
1757, 889, 974, 776, 1174
1758, 533, 605, 890, 1041
1759, 579, 976, 590, 1129
1760, 452, 1068, 873, 1156
1761, 899, 972, 954, 979
1762, 839, 899, 1091, 1147
1763, 821, 1036, 1009, 1152
1764, 871, 976, 905, 1133
1765, 447, 474, 1106, 1169
1766, 447, 474, 565, 1106
1767, 452, 545, 1156, 1193
1768, 550, 230, 256, 1100
1769, 778, 960, 943, 1019
1770, 707, 706, 803, 926
1771, 189, 623, 798, 1024
1772, 872, 1032, 248, 1074
1773, 171, 942, 236, 1119
1774, 892, 1054, 889, 1073
1775, 640, 703, 915, 1080
1776, 437, 1119, 890, 1191
1777, 856, 997, 197, 1044
1778, 888, 1021, 411, 1097
1779, 411, 371, 1081, 1143
1780, 479, 1098, 885, 1107
1781, 820, 922, 967, 1015
1782, 735, 748, 732, 1066
1783, 886, 1089, 498, 1180
1784, 597, 336, 433, 1051
1785, 235, 255, 639, 958
1786, 792, 759, 760, 899
1787, 822, 889, 938, 949
1788, 751, 752, 753, 960
1789, 469, 985, 470, 1136
1790, 1052, 1072, 517, 1163
1791, 866, 987, 406, 1140
1792, 1009, 1036, 847, 1152
1793, 540, 865, 539, 1156
1794, 501, 999, 874, 1135
1795, 254, 263, 882, 1099
1796, 185, 1024, 971, 1197
1797, 892, 996, 831, 1054
1798, 820, 1131, 932, 1155
1799, 597, 290, 336, 1051
1800, 303, 1014, 1084, 1101
1801, 752, 751, 684, 960
1802, 907, 1070, 937, 1164
1803, 631, 709, 399, 1081
1804, 913, 956, 864, 1170
1805, 726, 724, 727, 967
1806, 832, 876, 1090, 1097
1807, 836, 1012, 868, 1043
1808, 417, 918, 1021, 1081
1809, 892, 974, 831, 996
1810, 431, 935, 387, 1161
1811, 976, 1120, 905, 1133
1812, 193, 881, 1104, 1192
1813, 350, 305, 280, 909
1814, 847, 1036, 1009, 1124
1815, 504, 900, 490, 1109
1816, 937, 1037, 842, 1092
1817, 929, 1103, 734, 1149
1818, 458, 944, 459, 1082
1819, 915, 1080, 703, 1183
1820, 744, 743, 798, 1024
1821, 185, 189, 1024, 1197
1822, 884, 1037, 937, 1092
1823, 1014, 1072, 877, 1163
1824, 840, 927, 1025, 1109
1825, 766, 978, 1164, 1170
1826, 825, 891, 990, 1171
1827, 657, 727, 811, 932
1828, 856, 960, 943, 1158
1829, 157, 156, 1031, 1044
1830, 951, 978, 785, 1102
1831, 357, 1080, 988, 1186
1832, 943, 1031, 1001, 1044
1833, 832, 888, 941, 966
1834, 743, 974, 742, 1116
1835, 430, 442, 1048, 1127
1836, 874, 999, 501, 1069
1837, 935, 976, 876, 1129
1838, 828, 973, 921, 1096
1839, 903, 984, 854, 1123
1840, 609, 945, 564, 1087
1841, 824, 990, 930, 992
1842, 455, 452, 454, 964
1843, 841, 1000, 953, 1072
1844, 919, 1001, 883, 1006
1845, 832, 966, 935, 1097
1846, 213, 991, 890, 1191
1847, 577, 1107, 525, 1188
1848, 866, 1121, 1120, 1157
1849, 527, 1005, 1029, 1113
1850, 530, 515, 953, 1000
1851, 303, 909, 304, 1101
1852, 824, 1043, 999, 1148
1853, 236, 259, 269, 1119
1854, 978, 1009, 833, 1184
1855, 877, 1052, 517, 1163
1856, 895, 1110, 733, 1149
1857, 485, 557, 556, 897
1858, 535, 931, 940, 1041
1859, 543, 904, 580, 1064
1860, 754, 917, 644, 1096
1861, 578, 434, 883, 1115
1862, 840, 927, 1008, 1023
1863, 496, 489, 486, 1165
1864, 322, 1028, 945, 1188
1865, 450, 969, 920, 1068
1866, 285, 351, 425, 916
1867, 883, 1057, 187, 1115
1868, 174, 991, 176, 1130
1869, 984, 1056, 786, 1183
1870, 546, 259, 1022, 1119
1871, 179, 180, 1112, 1144
1872, 318, 916, 1086, 1180
1873, 244, 882, 1032, 1105
1874, 872, 1088, 952, 1146
1875, 685, 1003, 910, 1049
1876, 900, 1025, 822, 1142
1877, 711, 148, 816, 918
1878, 243, 993, 241, 1105
1879, 681, 884, 683, 1187
1880, 957, 838, 998, 1105
1881, 930, 990, 842, 992
1882, 246, 249, 248, 1032
1883, 186, 971, 193, 1042
1884, 465, 466, 950, 1018
1885, 885, 1005, 820, 1155
1886, 705, 699, 793, 1010
1887, 825, 985, 901, 1165
1888, 323, 945, 1028, 1038
1889, 895, 733, 1020, 1103
1890, 840, 1004, 927, 1109
1891, 794, 698, 911, 1003
1892, 457, 964, 589, 1113
1893, 830, 1027, 968, 1150
1894, 308, 309, 915, 989
1895, 538, 865, 540, 1075
1896, 263, 244, 254, 882
1897, 274, 872, 248, 1127
1898, 481, 473, 1133, 1137
1899, 684, 752, 960, 978
1900, 473, 871, 1063, 1133
1901, 874, 999, 863, 1043
1902, 625, 794, 762, 911
1903, 854, 1047, 941, 1199
1904, 462, 567, 460, 1162
1905, 840, 898, 939, 1061
1906, 464, 572, 466, 1198
1907, 647, 921, 765, 1066
1908, 171, 236, 269, 1119
1909, 1029, 1162, 1111, 1166
1910, 669, 907, 670, 1049
1911, 585, 896, 1083, 1095
1912, 605, 437, 533, 1119
1913, 486, 1089, 1069, 1165
1914, 847, 1124, 936, 1139
1915, 434, 553, 578, 883
1916, 578, 883, 983, 1115
1917, 809, 1094, 1147, 1151
1918, 395, 394, 419, 1021
1919, 863, 886, 959, 1089
1920, 618, 552, 553, 1057
1921, 840, 1025, 900, 1109
1922, 869, 890, 942, 1179
1923, 829, 1046, 879, 1060
1924, 761, 659, 656, 1172
1925, 982, 989, 404, 1185
1926, 269, 222, 171, 1119
1927, 678, 684, 751, 960
1928, 444, 446, 948, 952
1929, 254, 882, 244, 1105
1930, 1019, 1090, 834, 1187
1931, 1021, 1090, 876, 1097
1932, 826, 885, 955, 1091
1933, 893, 1082, 1054, 1193
1934, 931, 1060, 838, 1079
1935, 717, 1084, 875, 1160
1936, 147, 890, 1119, 1191
1937, 840, 927, 1023, 1025
1938, 381, 989, 915, 1185
1939, 552, 484, 936, 1083
1940, 889, 974, 892, 1073
1941, 928, 1118, 1035, 1176
1942, 790, 788, 941, 1047
1943, 628, 804, 771, 908
1944, 829, 1060, 929, 1179
1945, 254, 242, 998, 1105
1946, 895, 1149, 929, 1179
1947, 507, 203, 896, 1095
1948, 890, 1022, 533, 1041
1949, 236, 942, 237, 1022
1950, 820, 1002, 1131, 1155
1951, 790, 1143, 941, 1187
1952, 308, 344, 367, 915
1953, 445, 1106, 508, 1146
1954, 681, 1037, 884, 1187
1955, 424, 600, 504, 1007
1956, 774, 984, 930, 1199
1957, 485, 897, 556, 1089
1958, 818, 785, 620, 951
1959, 827, 969, 873, 1059
1960, 963, 1053, 826, 1091
1961, 647, 765, 674, 1066
1962, 889, 1054, 974, 1190
1963, 826, 963, 899, 1050
1964, 822, 1017, 889, 1076
1965, 831, 974, 1054, 1190
1966, 533, 1022, 890, 1119
1967, 335, 421, 287, 945
1968, 847, 1009, 936, 1124
1969, 936, 1124, 887, 1139
1970, 668, 907, 669, 1168
1971, 832, 884, 941, 1090
1972, 935, 976, 590, 1120
1973, 822, 1023, 944, 1025
1974, 820, 1002, 932, 1131
1975, 1047, 1056, 787, 1199
1976, 345, 1028, 327, 1151
1977, 821, 936, 1006, 1152
1978, 256, 230, 276, 1100
1979, 318, 1086, 317, 1180
1980, 944, 1023, 822, 1111
1981, 426, 230, 550, 1100
1982, 181, 971, 185, 1112
1983, 879, 961, 921, 973
1984, 411, 1021, 888, 1081
1985, 829, 929, 1035, 1149
1986, 508, 1048, 443, 1146
1987, 500, 893, 561, 1142
1988, 712, 1019, 943, 1062
1989, 860, 1131, 1002, 1155
1990, 592, 609, 564, 1087
1991, 653, 912, 652, 1030
1992, 936, 1009, 887, 1124
1993, 849, 1118, 928, 1176
1994, 301, 1014, 1000, 1125
1995, 336, 290, 337, 1051
1996, 342, 376, 402, 989
1997, 609, 945, 1098, 1107
1998, 714, 715, 958, 1173
1999, 249, 246, 263, 1099
2000, 948, 952, 446, 1159
2001, 725, 933, 633, 1039
2002, 213, 890, 991, 1130
2003, 504, 1007, 900, 1109
2004, 585, 1083, 552, 1095
2005, 267, 957, 240, 1103
2006, 679, 1094, 922, 1147
2007, 681, 779, 691, 1187
2008, 537, 538, 604, 1154
2009, 273, 264, 257, 958
2010, 478, 551, 484, 1006
2011, 822, 1078, 938, 1111
2012, 323, 322, 324, 1028
2013, 859, 981, 946, 1198
2014, 790, 1047, 941, 1143
2015, 827, 961, 912, 1077
2016, 831, 873, 977, 1054
2017, 645, 1055, 643, 1195
2018, 670, 1049, 907, 1070
2019, 603, 506, 507, 962
2020, 1106, 1108, 851, 1169
2021, 957, 1103, 895, 1134
2022, 872, 1074, 248, 1127
2023, 323, 945, 1038, 1087
2024, 840, 939, 900, 1061
2025, 348, 364, 307, 995
2026, 837, 886, 959, 1086
2027, 214, 185, 138, 902
2028, 347, 972, 954, 1038
2029, 872, 1074, 953, 1088
2030, 966, 1097, 888, 1143
2031, 739, 738, 928, 1035
2032, 917, 1055, 644, 1096
2033, 756, 910, 685, 1003
2034, 373, 1047, 407, 1056
2035, 853, 944, 1023, 1025
2036, 715, 716, 923, 1173
2037, 772, 757, 1050, 1168
2038, 282, 334, 333, 979
2039, 787, 1047, 627, 1056
2040, 861, 508, 1100, 1106
2041, 789, 657, 811, 932
2042, 217, 160, 896, 1095
2043, 544, 543, 542, 977
2044, 587, 588, 1120, 1157
2045, 855, 1055, 917, 1088
2046, 242, 241, 998, 1105
2047, 891, 1003, 836, 1012
2048, 905, 992, 824, 1123
2049, 847, 1063, 1152, 1171
2050, 147, 1119, 437, 1191
2051, 831, 971, 902, 1190
2052, 920, 1068, 848, 1117
2053, 567, 927, 569, 1025
2054, 873, 835, 1054, 1059
2055, 855, 1055, 882, 1099
2056, 894, 958, 855, 1074
2057, 612, 880, 1051, 1189
2058, 602, 916, 560, 1087
2059, 897, 556, 1089, 1141
2060, 837, 981, 897, 1093
2061, 711, 816, 638, 918
2062, 159, 997, 160, 1095
2063, 713, 888, 1081, 1143
2064, 643, 1055, 882, 1195
2065, 557, 897, 485, 1198
2066, 482, 491, 976, 1120
2067, 835, 889, 1017, 1054
2068, 687, 956, 913, 1170
2069, 775, 697, 774, 984
2070, 832, 941, 888, 1090
2071, 713, 888, 1143, 1187
2072, 773, 673, 1037, 1070
2073, 910, 1050, 757, 1168
2074, 930, 984, 854, 1199
2075, 683, 678, 751, 960
2076, 861, 872, 1048, 1146
2077, 855, 1074, 872, 1088
2078, 430, 1048, 262, 1127
2079, 624, 704, 800, 1010
2080, 862, 1005, 885, 1107
2081, 832, 884, 1090, 1092
2082, 843, 987, 934, 1148
2083, 274, 262, 1048, 1127
2084, 826, 955, 885, 1053
2085, 236, 171, 139, 942
2086, 900, 1142, 893, 1178
2087, 184, 1144, 991, 1191
2088, 856, 943, 1001, 1044
2089, 936, 1009, 850, 1083
2090, 853, 1023, 944, 1111
2091, 1029, 1111, 1155, 1166
2092, 909, 1033, 304, 1101
2093, 834, 883, 1001, 1031
2094, 880, 845, 995, 1114
2095, 900, 1076, 893, 1142
2096, 822, 893, 1076, 1142
2097, 782, 675, 759, 1050
2098, 313, 988, 874, 1186
2099, 395, 914, 403, 1011
2100, 849, 928, 1116, 1176
2101, 833, 896, 1013, 1167
2102, 781, 817, 640, 915
2103, 526, 479, 527, 1005
2104, 754, 644, 917, 1173
2105, 499, 490, 504, 900
2106, 323, 1028, 324, 1038
2107, 514, 953, 442, 1127
2108, 820, 922, 1053, 1155
2109, 713, 1143, 790, 1187
2110, 645, 646, 644, 1096
2111, 553, 552, 551, 1006
2112, 947, 1052, 1027, 1117
2113, 175, 174, 176, 1130
2114, 841, 1014, 923, 1125
2115, 381, 915, 1126, 1185
2116, 507, 506, 495, 896
2117, 313, 874, 1040, 1186
2118, 850, 1044, 883, 1057
2119, 854, 941, 930, 1199
2120, 355, 607, 429, 1026
2121, 382, 1126, 903, 1185
2122, 951, 1102, 926, 1167
2123, 499, 900, 504, 1007
2124, 775, 984, 774, 1199
2125, 663, 664, 675, 1050
2126, 559, 946, 1098, 1141
2127, 152, 146, 198, 918
2128, 880, 970, 845, 1114
2129, 786, 1056, 984, 1199
2130, 896, 1004, 495, 1083
2131, 370, 547, 386, 1016
2132, 217, 896, 203, 1095
2133, 555, 936, 1083, 1139
2134, 922, 963, 679, 1147
2135, 926, 913, 1065, 1181
2136, 911, 979, 837, 1086
2137, 342, 402, 982, 989
2138, 440, 584, 503, 1026
2139, 822, 1025, 944, 1142
2140, 228, 750, 630, 1099
2141, 417, 379, 405, 918
2142, 647, 961, 648, 1096
2143, 155, 157, 1031, 1044
2144, 701, 703, 1080, 1183
2145, 952, 953, 841, 1088
2146, 269, 613, 222, 1119
2147, 897, 985, 485, 1198
2148, 365, 338, 325, 1038
2149, 395, 419, 403, 914
2150, 862, 1107, 885, 1194
2151, 724, 811, 727, 967
2152, 888, 966, 832, 1097
2153, 638, 918, 379, 1081
2154, 614, 1029, 458, 1113
2155, 939, 1010, 898, 1128
2156, 400, 379, 413, 918
2157, 471, 484, 566, 1139
2158, 847, 901, 1063, 1171
2159, 964, 1002, 835, 1059
2160, 207, 1144, 184, 1191
2161, 265, 1071, 993, 1100
2162, 213, 147, 890, 1119
2163, 823, 950, 887, 1124
2164, 576, 500, 544, 977
2165, 272, 257, 235, 958
2166, 1053, 955, 1155, 1166
2167, 725, 722, 724, 967
2168, 353, 975, 306, 1033
2169, 1009, 1036, 864, 1124
2170, 323, 1038, 338, 1087
2171, 870, 970, 967, 1034
2172, 843, 1016, 982, 1135
2173, 881, 971, 844, 1042
2174, 928, 996, 892, 1077
2175, 357, 309, 311, 988
2176, 347, 325, 972, 1038
2177, 579, 590, 513, 1129
2178, 382, 381, 1126, 1185
2179, 462, 461, 463, 955
2180, 943, 1019, 834, 1062
2181, 585, 507, 495, 896
2182, 872, 953, 952, 1088
2183, 556, 897, 557, 1141
2184, 854, 984, 903, 1056
2185, 849, 902, 994, 1116
2186, 355, 294, 607, 1026
2187, 1017, 1054, 893, 1082
2188, 955, 1162, 1029, 1166
2189, 886, 863, 1069, 1089
2190, 893, 1142, 500, 1178
2191, 955, 885, 1053, 1155
2192, 742, 974, 745, 1116
2193, 688, 913, 692, 1102
2194, 461, 463, 955, 1029
2195, 268, 254, 242, 998
2196, 523, 924, 947, 1189
2197, 380, 915, 781, 1126
2198, 720, 909, 719, 1160
2199, 825, 901, 985, 1171
2200, 554, 446, 952, 1159
2201, 159, 135, 1057, 1095
2202, 379, 918, 417, 1081
2203, 664, 666, 772, 1168
2204, 482, 491, 481, 976
2205, 573, 470, 472, 901
2206, 547, 436, 386, 1016
2207, 713, 1081, 631, 1143
2208, 666, 668, 669, 1168
2209, 1029, 1155, 955, 1166
2210, 345, 324, 327, 1028
2211, 851, 1060, 931, 1079
2212, 784, 915, 703, 1183
2213, 710, 713, 791, 1081
2214, 900, 939, 840, 1109
2215, 690, 898, 770, 1065
2216, 897, 1093, 946, 1141
2217, 720, 622, 719, 909
2218, 869, 1060, 1041, 1179
2219, 719, 909, 622, 1160
2220, 886, 1138, 317, 1180
2221, 234, 238, 1020, 1103
2222, 849, 1116, 994, 1176
2223, 581, 982, 378, 1016
2224, 900, 1007, 499, 1178
2225, 346, 348, 281, 933
2226, 841, 877, 1014, 1072
2227, 370, 547, 1016, 1121
2228, 824, 1123, 984, 1148
2229, 1036, 1152, 842, 1171
2230, 743, 744, 742, 974
2231, 237, 1022, 942, 1134
2232, 265, 251, 993, 1071
2233, 955, 1029, 885, 1155
2234, 227, 240, 267, 957
2235, 168, 939, 169, 1128
2236, 986, 1036, 907, 1171
2237, 864, 1164, 978, 1170
2238, 968, 1027, 852, 1150
2239, 254, 750, 228, 1099
2240, 490, 900, 499, 1142
2241, 856, 960, 978, 1184
2242, 568, 429, 601, 1138
2243, 701, 1012, 965, 1177
2244, 451, 539, 969, 1156
2245, 507, 896, 585, 1095
2246, 147, 213, 890, 1191
2247, 720, 719, 721, 1160
2248, 399, 411, 371, 1081
2249, 335, 564, 421, 945
2250, 984, 1012, 868, 1183
2251, 175, 1110, 895, 1130
2252, 826, 1053, 885, 1091
2253, 303, 280, 304, 909
2254, 672, 689, 686, 1049
2255, 984, 1123, 903, 1148
2256, 588, 935, 590, 1120
2257, 1056, 1126, 786, 1183
2258, 701, 697, 702, 1012
2259, 744, 974, 1024, 1174
2260, 848, 924, 964, 1002
2261, 525, 1051, 1005, 1189
2262, 831, 1054, 893, 1076
2263, 913, 833, 1008, 1181
2264, 535, 940, 534, 1041
2265, 437, 890, 605, 1191
2266, 897, 981, 946, 1093
2267, 863, 999, 874, 1069
2268, 414, 380, 401, 915
2269, 882, 1055, 643, 1099
2270, 734, 929, 732, 1103
2271, 844, 898, 949, 1061
2272, 637, 783, 149, 1110
2273, 847, 950, 986, 1124
2274, 479, 955, 463, 1029
2275, 969, 1046, 865, 1108
2276, 213, 172, 1119, 1130
2277, 864, 1102, 913, 1170
2278, 581, 378, 436, 1016
2279, 773, 673, 682, 1037
2280, 455, 964, 1082, 1193
2281, 753, 778, 751, 960
2282, 535, 536, 534, 940
2283, 398, 1121, 406, 1157
2284, 854, 984, 1056, 1199
2285, 658, 938, 659, 1122
2286, 180, 226, 1064, 1144
2287, 869, 1022, 890, 1041
2288, 876, 393, 1097, 1161
2289, 831, 977, 893, 1054
2290, 757, 685, 910, 1168
2291, 894, 953, 841, 1125
2292, 887, 1004, 927, 1008
2293, 645, 921, 647, 1096
2294, 967, 970, 845, 1034
2295, 880, 995, 845, 1033
2296, 518, 517, 1052, 1072
2297, 454, 964, 452, 1068
2298, 452, 451, 1068, 1156
2299, 586, 1016, 934, 1135
2300, 751, 683, 960, 1019
2301, 839, 972, 1147, 1151
2302, 872, 1032, 861, 1048
2303, 821, 937, 1036, 1092
2304, 889, 949, 822, 1076
2305, 677, 949, 690, 1182
2306, 636, 747, 385, 1126
2307, 321, 563, 336, 1051
2308, 931, 993, 838, 1060
2309, 839, 1147, 1094, 1151
2310, 1040, 1086, 317, 1175
2311, 684, 937, 671, 1164
2312, 173, 175, 895, 1130
2313, 843, 982, 1016, 1185
2314, 832, 1090, 888, 1097
2315, 555, 936, 484, 1083
2316, 444, 554, 446, 952
2317, 570, 1004, 962, 1109
2318, 969, 1068, 451, 1156
2319, 809, 792, 972, 1147
2320, 444, 952, 948, 1146
2321, 278, 349, 621, 1151
2322, 924, 970, 947, 1189
2323, 822, 938, 1078, 1182
2324, 1111, 1162, 853, 1166
2325, 490, 1025, 900, 1142
2326, 835, 1054, 892, 1073
2327, 833, 978, 951, 1102
2328, 728, 1094, 679, 1147
2329, 716, 694, 754, 1173
2330, 939, 1042, 900, 1061
2331, 416, 408, 1016, 1185
2332, 650, 653, 799, 912
2333, 823, 986, 950, 1124
2334, 205, 1007, 1042, 1192
2335, 669, 670, 672, 1049
2336, 657, 932, 789, 1030
2337, 552, 555, 484, 1083
2338, 750, 643, 630, 1099
2339, 930, 1037, 842, 1070
2340, 618, 1057, 420, 1095
2341, 710, 918, 638, 1081
2342, 385, 372, 636, 1126
2343, 303, 302, 1014, 1101
2344, 947, 970, 880, 1189
2345, 898, 1065, 878, 1181
2346, 410, 411, 391, 1097
2347, 857, 1098, 946, 1141
2348, 932, 1002, 870, 1030
2349, 834, 1031, 943, 1062
2350, 306, 304, 1033, 1101
2351, 822, 949, 938, 1182
2352, 788, 1047, 787, 1199
2353, 299, 298, 297, 1125
2354, 942, 1022, 869, 1134
2355, 476, 1052, 1117, 1159
2356, 318, 363, 916, 1180
2357, 784, 640, 703, 915
2358, 529, 453, 599, 1117
2359, 479, 528, 1098, 1107
2360, 878, 822, 1023, 1078
2361, 946, 981, 897, 1198
2362, 734, 736, 735, 929
2363, 754, 644, 646, 1096
2364, 240, 238, 1103, 1134
2365, 861, 1079, 948, 1106
2366, 848, 1002, 964, 1059
2367, 184, 991, 213, 1191
2368, 387, 935, 388, 1161
2369, 710, 711, 918, 1062
2370, 936, 1009, 847, 1152
2371, 862, 1015, 995, 1028
2372, 321, 563, 1051, 1188
2373, 655, 745, 776, 1073
2374, 356, 1000, 296, 1125
2375, 599, 450, 448, 920
2376, 227, 241, 957, 998
2377, 888, 1090, 1021, 1097
2378, 845, 1015, 995, 1114
2379, 824, 905, 990, 992
2380, 692, 913, 687, 1065
2381, 853, 1023, 927, 1025
2382, 843, 987, 1148, 1185
2383, 833, 926, 1102, 1167
2384, 205, 939, 169, 1042
2385, 916, 1087, 857, 1141
2386, 498, 886, 1069, 1089
2387, 835, 1002, 932, 1030
2388, 759, 899, 792, 1147
2389, 736, 929, 734, 1035
2390, 386, 436, 378, 1016
2391, 644, 1055, 917, 1173
2392, 847, 1036, 986, 1171
2393, 908, 849, 994, 1176
2394, 903, 1056, 984, 1183
2395, 754, 694, 644, 1173
2396, 584, 982, 581, 1016
2397, 155, 157, 156, 1031
2398, 607, 294, 440, 1026
2399, 764, 972, 278, 1151
2400, 732, 748, 731, 998
2401, 154, 943, 1031, 1062
2402, 819, 144, 620, 951
2403, 313, 988, 312, 1026
2404, 378, 982, 416, 1016
2405, 937, 978, 864, 1164
2406, 899, 954, 837, 979
2407, 463, 462, 955, 1018
2408, 503, 1026, 584, 1135
2409, 207, 194, 133, 1191
2410, 876, 919, 983, 1129
2411, 140, 908, 771, 1110
2412, 312, 988, 310, 1026
2413, 692, 688, 687, 913
2414, 574, 493, 482, 905
2415, 661, 1122, 662, 1132
2416, 744, 776, 974, 1174
2417, 420, 596, 209, 1057
2418, 339, 364, 326, 995
2419, 573, 901, 472, 1165
2420, 541, 543, 1064, 1075
2421, 570, 506, 962, 1004
2422, 641, 255, 630, 1099
2423, 679, 963, 922, 1132
2424, 422, 519, 517, 975
2425, 468, 1063, 471, 1139
2426, 444, 442, 952, 1146
2427, 875, 1084, 1014, 1101
2428, 523, 947, 521, 1189
2429, 321, 1051, 339, 1188
2430, 438, 1045, 514, 1127
2431, 926, 1128, 1013, 1181
2432, 733, 1103, 895, 1149
2433, 560, 1087, 916, 1141
2434, 873, 1059, 969, 1068
2435, 757, 772, 685, 1168
2436, 895, 1130, 991, 1179
2437, 540, 1075, 865, 1156
2438, 670, 672, 1049, 1070
2439, 357, 314, 1080, 1186
2440, 294, 982, 440, 1026
2441, 433, 336, 563, 1051
2442, 491, 590, 976, 1120
2443, 578, 591, 983, 1129
2444, 284, 313, 312, 1026
2445, 827, 1059, 912, 1150
2446, 148, 198, 223, 918
2447, 477, 459, 460, 944
2448, 468, 1136, 1063, 1139
2449, 888, 713, 1081, 1187
2450, 193, 186, 183, 971
2451, 445, 508, 443, 1146
2452, 649, 650, 961, 1077
2453, 355, 429, 284, 1026
2454, 176, 177, 140, 908
2455, 156, 158, 187, 1057
2456, 834, 1021, 888, 1090
2457, 352, 911, 332, 1086
2458, 185, 218, 189, 1197
2459, 217, 203, 160, 1095
2460, 837, 899, 979, 1153
2461, 494, 444, 442, 952
2462, 778, 943, 712, 1019
2463, 747, 1056, 385, 1126
2464, 411, 1021, 394, 1097
2465, 325, 345, 972, 1038
2466, 425, 560, 602, 916
2467, 877, 867, 1052, 1072
2468, 514, 1045, 953, 1127
2469, 496, 497, 489, 999
2470, 498, 1138, 886, 1180
2471, 217, 170, 962, 1013
2472, 623, 793, 1024, 1197
2473, 822, 1061, 900, 1076
2474, 669, 668, 670, 907
2475, 490, 900, 1025, 1109
2476, 526, 1005, 525, 1107
2477, 499, 1142, 900, 1178
2478, 567, 487, 569, 927
2479, 941, 1143, 888, 1187
2480, 334, 352, 319, 1086
2481, 439, 616, 511, 1145
2482, 398, 427, 370, 1121
2483, 278, 333, 347, 972
2484, 530, 606, 515, 1000
2485, 725, 763, 633, 933
2486, 670, 1070, 907, 1164
2487, 764, 278, 621, 1151
2488, 655, 776, 761, 1073
2489, 459, 944, 477, 1142
2490, 474, 536, 535, 940
2491, 771, 908, 737, 1149
2492, 638, 710, 711, 918
2493, 770, 690, 704, 898
2494, 867, 952, 948, 1159
2495, 867, 1027, 1052, 1117
2496, 482, 905, 1120, 1133
2497, 659, 938, 658, 1172
2498, 677, 680, 690, 949
2499, 205, 1007, 939, 1042
2500, 921, 973, 961, 1096
2501, 351, 916, 363, 1180
2502, 133, 571, 428, 1191
2503, 1007, 1178, 881, 1192
2504, 853, 1162, 955, 1166
2505, 927, 1004, 887, 1196
2506, 140, 176, 908, 1110
2507, 691, 790, 788, 941
2508, 408, 987, 406, 1121
2509, 503, 501, 429, 1026
2510, 934, 987, 843, 1016
2511, 370, 408, 406, 1121
2512, 658, 659, 660, 1122
2513, 438, 260, 1045, 1127
2514, 310, 982, 294, 1026
2515, 535, 532, 931, 1041
2516, 489, 999, 497, 1085
2517, 761, 656, 1073, 1172
2518, 470, 901, 573, 1133
2519, 409, 1047, 966, 1140
2520, 881, 193, 1042, 1192
2521, 236, 139, 232, 942
2522, 810, 717, 622, 1084
2523, 555, 488, 566, 1139
2524, 531, 230, 426, 1100
2525, 417, 1021, 411, 1081
2526, 431, 374, 129, 387
2527, 843, 982, 1026, 1135
2528, 693, 774, 682, 930
2529, 458, 459, 944, 1162
2530, 788, 627, 787, 1047
2531, 843, 934, 1135, 1148
2532, 745, 655, 652, 1073
2533, 901, 847, 1063, 1136
2534, 461, 479, 463, 1029
2535, 236, 237, 259, 1022
2536, 317, 1040, 886, 1086
2537, 988, 1080, 868, 1186
2538, 882, 1055, 921, 1195
2539, 755, 785, 978, 1102
2540, 524, 611, 924, 1113
2541, 839, 972, 899, 1147
2542, 771, 1110, 908, 1149
2543, 968, 1034, 721, 1160
2544, 150, 914, 151, 1145
2545, 457, 454, 589, 964
2546, 1005, 1051, 862, 1114
2547, 987, 1123, 934, 1148
2548, 635, 732, 731, 1103
2549, 498, 1069, 886, 1138
2550, 627, 1047, 373, 1056
2551, 455, 964, 454, 1082
2552, 650, 652, 653, 912
2553, 935, 1120, 588, 1157
2554, 590, 935, 431, 1161
2555, 416, 378, 404, 982
2556, 573, 1085, 901, 1165
2557, 427, 547, 370, 1121
2558, 987, 1016, 408, 1185
2559, 536, 534, 940, 1154
2560, 903, 1148, 987, 1185
2561, 852, 1058, 968, 1067
2562, 501, 1026, 503, 1135
2563, 757, 685, 756, 910
2564, 374, 431, 129, 549
2565, 382, 384, 383, 1185
2566, 834, 943, 1001, 1019
2567, 747, 627, 373, 1056
2568, 903, 1126, 1056, 1183
2569, 604, 1154, 906, 1191
2570, 370, 1016, 408, 1121
2571, 373, 409, 407, 1047
2572, 895, 908, 1110, 1149
2573, 252, 1071, 265, 1100
2574, 931, 1079, 861, 1106
2575, 730, 714, 715, 958
2576, 1051, 1114, 1005, 1189
2577, 884, 1019, 683, 1187
2578, 475, 557, 946, 1141
2579, 945, 1028, 862, 1188
2580, 373, 385, 747, 1056
2581, 794, 756, 698, 1003
2582, 308, 401, 283, 989
2583, 305, 304, 909, 1033
2584, 885, 1029, 1005, 1155
2585, 321, 336, 339, 1051
2586, 754, 1067, 917, 1096
2587, 939, 1007, 900, 1042
2588, 881, 1042, 1007, 1192
2589, 804, 737, 908, 1176
2590, 893, 1082, 561, 1142
2591, 335, 564, 945, 1087
2592, 150, 146, 151, 914
2593, 590, 935, 588, 1157
2594, 895, 1103, 1020, 1134
2595, 657, 932, 1030, 1172
2596, 948, 861, 1106, 1146
2597, 645, 647, 646, 1096
2598, 205, 1042, 193, 1192
2599, 389, 388, 374, 935
2600, 773, 689, 672, 1070
2601, 250, 249, 264, 1074
2602, 893, 1054, 977, 1193
2603, 977, 1054, 873, 1193
2604, 1006, 1129, 919, 1137
2605, 838, 1105, 882, 1195
2606, 597, 433, 612, 1051
2607, 265, 252, 251, 1071
2608, 475, 559, 557, 1141
2609, 887, 1009, 936, 1083
2610, 561, 500, 576, 1193
2611, 151, 146, 152, 914
2612, 283, 401, 376, 989
2613, 133, 194, 571, 1191
2614, 876, 1097, 935, 1161
2615, 663, 675, 963, 1050
2616, 268, 731, 626, 998
2617, 290, 597, 329, 975
2618, 1029, 1113, 1005, 1155
2619, 600, 142, 192, 1007
2620, 575, 934, 586, 1121
2621, 490, 1025, 569, 1109
2622, 465, 950, 467, 1196
2623, 890, 829, 991, 1179
2624, 828, 921, 973, 1079
2625, 467, 465, 466, 950
2626, 280, 303, 358, 1084
2627, 679, 922, 727, 1132
2628, 867, 1117, 1052, 1159
2629, 823, 887, 1008, 1124
2630, 534, 1041, 940, 1154
2631, 785, 707, 951, 1102
2632, 221, 200, 616, 1145
2633, 165, 926, 166, 1128
2634, 1017, 1054, 889, 1076
2635, 303, 1014, 300, 1084
2636, 470, 1063, 901, 1133
2637, 899, 1091, 826, 1093
2638, 851, 1079, 931, 1106
2639, 482, 905, 493, 1120
2640, 387, 374, 388, 935
2641, 296, 356, 288, 1000
2642, 590, 549, 431, 935
2643, 516, 494, 515, 1072
2644, 340, 1080, 314, 1186
2645, 438, 441, 231, 1127
2646, 836, 1012, 1003, 1177
2647, 856, 943, 960, 1001
2648, 477, 944, 1025, 1142
2649, 475, 946, 557, 1198
2650, 771, 804, 737, 908
2651, 782, 963, 675, 1050
2652, 475, 946, 559, 1141
2653, 461, 1029, 955, 1162
2654, 755, 978, 766, 1170
2655, 938, 1111, 1078, 1131
2656, 374, 389, 935, 1157
2657, 260, 438, 231, 1127
2658, 548, 1100, 508, 1106
2659, 931, 1100, 548, 1106
2660, 805, 733, 1110, 1149
2661, 337, 995, 339, 1051
2662, 356, 301, 1000, 1125
2663, 853, 980, 955, 1018
2664, 931, 993, 869, 1071
2665, 937, 1036, 907, 1164
2666, 458, 459, 456, 1082
2667, 946, 1093, 857, 1141
2668, 309, 344, 308, 915
2669, 663, 661, 662, 1132
2670, 934, 1016, 586, 1121
2671, 590, 549, 935, 1157
2672, 149, 210, 637, 1110
2673, 978, 1102, 864, 1170
2674, 459, 561, 1082, 1142
2675, 353, 330, 306, 975
2676, 946, 981, 826, 1093
2677, 659, 1122, 938, 1182
2678, 645, 765, 647, 921
2679, 808, 634, 208, 1062
2680, 480, 490, 499, 1142
2681, 189, 134, 623, 1197
2682, 744, 700, 776, 1174
2683, 911, 332, 1086, 1175
2684, 835, 889, 1054, 1073
2685, 638, 379, 709, 1081
2686, 219, 169, 204, 1042
2687, 844, 1042, 939, 1061
2688, 211, 997, 951, 1167
2689, 698, 911, 1003, 1177
2690, 181, 183, 971, 1112
2691, 373, 747, 118, 627
2692, 837, 954, 899, 1093
2693, 831, 902, 974, 1190
2694, 849, 994, 902, 1112
2695, 574, 905, 482, 1133
2696, 385, 373, 747, 118
2697, 960, 1001, 943, 1019
2698, 494, 554, 952, 1072
2699, 244, 1032, 245, 1105
2700, 734, 1035, 929, 1149
2701, 342, 283, 376, 989
2702, 842, 930, 992, 1037
2703, 410, 966, 1047, 1143
2704, 636, 117, 385, 747
2705, 262, 231, 430, 1127
2706, 399, 709, 379, 1081
2707, 385, 372, 117, 636
2708, 340, 965, 1080, 1186
2709, 678, 671, 684, 937
2710, 868, 1080, 915, 1183
2711, 408, 1016, 987, 1121
2712, 757, 910, 756, 1153
2713, 154, 943, 155, 1031
2714, 514, 530, 515, 953
2715, 404, 982, 402, 989
2716, 859, 985, 897, 1198
2717, 345, 347, 325, 972
2718, 320, 365, 334, 954
2719, 688, 687, 913, 1170
2720, 372, 781, 116, 636
2721, 590, 588, 549, 1157
2722, 318, 351, 363, 1180
2723, 505, 1178, 1007, 1192
2724, 234, 240, 238, 1103
2725, 409, 410, 966, 1047
2726, 859, 897, 981, 1198
2727, 196, 939, 205, 1007
2728, 382, 1056, 903, 1126
2729, 819, 707, 195, 951
2730, 317, 886, 1040, 1138
2731, 740, 745, 651, 1077
2732, 135, 420, 1057, 1095
2733, 961, 973, 852, 1096
2734, 857, 1038, 945, 1087
2735, 886, 1086, 916, 1180
2736, 850, 1009, 936, 1184
2737, 839, 922, 1015, 1094
2738, 743, 741, 994, 1116
2739, 927, 1004, 840, 1008
2740, 670, 907, 668, 1164
2741, 801, 701, 965, 1177
2742, 907, 986, 864, 1036
2743, 441, 430, 231, 1127
2744, 320, 334, 319, 1086
2745, 752, 755, 785, 978
2746, 398, 370, 406, 1121
2747, 301, 328, 1000, 1163
2748, 168, 166, 1010, 1128
2749, 400, 405, 379, 918
2750, 659, 660, 1122, 1182
2751, 781, 116, 380, 372
2752, 820, 924, 1005, 1114
2753, 191, 182, 226, 1064
2754, 372, 781, 636, 1126
2755, 420, 209, 135, 1057
2756, 739, 928, 740, 1077
2757, 539, 451, 969, 1108
2758, 887, 1004, 896, 1083
2759, 946, 1141, 557, 1198
2760, 372, 380, 781, 1126
2761, 561, 1082, 893, 1193
2762, 652, 654, 1030, 1073
2763, 449, 969, 451, 1108
2764, 685, 686, 1003, 1049
2765, 941, 966, 888, 1143
2766, 726, 922, 679, 1094
2767, 137, 166, 165, 926
2768, 524, 924, 1005, 1113
2769, 826, 1091, 946, 1093
2770, 857, 946, 1091, 1093
2771, 548, 535, 532, 931
2772, 822, 893, 1017, 1076
2773, 662, 660, 767, 1122
2774, 729, 721, 968, 1034
2775, 722, 723, 967, 1034
2776, 836, 965, 1012, 1177
2777, 164, 926, 165, 1167
2778, 252, 230, 531, 1100
2779, 268, 227, 731, 998
2780, 539, 449, 451, 1108
2781, 843, 989, 982, 1185
2782, 391, 411, 394, 1097
2783, 820, 924, 970, 1002
2784, 821, 1092, 1036, 1152
2785, 842, 1036, 1092, 1152
2786, 965, 868, 1080, 1186
2787, 390, 410, 391, 966
2788, 532, 931, 1041, 1071
2789, 425, 916, 351, 1180
2790, 508, 426, 550, 1100
2791, 243, 245, 993, 1105
2792, 1000, 1014, 841, 1125
2793, 1024, 1174, 844, 1197
2794, 971, 1024, 902, 1190
2795, 384, 406, 987, 1140
2796, 459, 1082, 944, 1142
2797, 501, 999, 496, 1069
2798, 737, 1035, 908, 1176
2799, 851, 940, 931, 1060
2800, 890, 1022, 942, 1119
2801, 189, 623, 1024, 1197
2802, 673, 671, 678, 937
2803, 718, 716, 754, 1067
2804, 228, 630, 255, 1099
2805, 196, 169, 205, 939
2806, 680, 699, 690, 949
2807, 515, 494, 514, 953
2808, 868, 1043, 988, 1186
2809, 903, 1126, 915, 1185
2810, 547, 127, 427, 370
2811, 846, 938, 1078, 1131
2812, 900, 1007, 939, 1109
2813, 853, 1018, 955, 1162
2814, 206, 168, 166, 1010
2815, 510, 983, 591, 1129
2816, 548, 931, 532, 1071
2817, 530, 953, 514, 1045
2818, 623, 705, 793, 1197
2819, 178, 180, 179, 1144
2820, 604, 537, 1154, 1191
2821, 158, 1044, 159, 1057
2822, 857, 1098, 945, 1194
2823, 835, 932, 1002, 1131
2824, 700, 761, 776, 1174
2825, 165, 164, 137, 926
2826, 920, 1159, 948, 1169
2827, 549, 374, 935, 1157
2828, 370, 127, 427, 398
2829, 719, 622, 717, 1160
2830, 760, 764, 792, 972
2831, 1001, 1031, 883, 1044
2832, 148, 918, 711, 1062
2833, 227, 242, 241, 998
2834, 473, 481, 478, 1137
2835, 513, 510, 591, 1129
2836, 991, 1144, 906, 1191
2837, 641, 59, 630, 255
2838, 676, 1067, 754, 1096
2839, 936, 1063, 847, 1139
2840, 380, 381, 915, 1126
2841, 450, 451, 969, 1068
2842, 574, 1085, 905, 1133
2843, 785, 695, 707, 1102
2844, 452, 455, 545, 1193
2845, 538, 537, 536, 1154
2846, 775, 786, 984, 1199
2847, 751, 960, 778, 1019
2848, 253, 261, 275, 1045
2849, 470, 1063, 468, 1136
2850, 420, 618, 596, 1057
2851, 884, 1037, 941, 1187
2852, 410, 391, 966, 1097
2853, 536, 940, 474, 1108
2854, 677, 769, 767, 1182
2855, 185, 971, 218, 1197
2856, 310, 312, 311, 988
2857, 630, 642, 641, 1099
2858, 863, 901, 990, 1085
2859, 971, 1042, 186, 1197
2860, 235, 264, 255, 958
2861, 398, 427, 1121, 1157
2862, 639, 730, 815, 958
2863, 701, 702, 703, 1183
2864, 771, 737, 805, 1149
2865, 925, 846, 1078, 1166
2866, 340, 357, 314, 1080
2867, 262, 231, 72, 430
2868, 193, 1104, 220, 1192
2869, 767, 1122, 660, 1182
2870, 246, 244, 263, 1032
2871, 391, 390, 966, 1097
2872, 919, 976, 871, 1137
2873, 794, 698, 762, 911
2874, 755, 1102, 978, 1170
2875, 913, 878, 1065, 1181
2876, 857, 1091, 946, 1098
2877, 342, 982, 310, 989
2878, 908, 1035, 737, 1149
2879, 645, 765, 921, 1195
2880, 306, 330, 304, 1101
2881, 677, 680, 949, 1182
2882, 941, 1090, 884, 1187
2883, 964, 1017, 860, 1082
2884, 375, 393, 1011, 1161
2885, 876, 983, 914, 1011
2886, 422, 329, 597, 975
2887, 560, 916, 558, 1141
2888, 931, 1071, 548, 1100
2889, 605, 890, 1154, 1191
2890, 869, 931, 1041, 1060
2891, 309, 357, 292, 1080
2892, 586, 584, 1016, 1135
2893, 826, 980, 955, 1166
2894, 854, 1056, 1047, 1199
2895, 820, 970, 924, 1114
2896, 777, 933, 725, 1094
2897, 524, 611, 523, 924
2898, 441, 72, 231, 430
2899, 447, 445, 948, 1106
2900, 453, 450, 599, 1068
2901, 771, 805, 1110, 1149
2902, 757, 1050, 910, 1153
2903, 926, 1013, 165, 1167
2904, 695, 688, 692, 1102
2905, 467, 950, 466, 1136
2906, 713, 709, 631, 1081
2907, 336, 337, 339, 1051
2908, 507, 619, 203, 1095
2909, 848, 1002, 1059, 1150
2910, 855, 958, 923, 1173
2911, 784, 781, 915, 1126
2912, 205, 169, 219, 1042
2913, 846, 1078, 1111, 1131
2914, 571, 604, 428, 1191
2915, 609, 421, 945, 1188
2916, 524, 1005, 924, 1189
2917, 237, 239, 266, 1134
2918, 849, 996, 928, 1118
2919, 499, 1007, 505, 1178
2920, 739, 738, 740, 928
2921, 136, 634, 943, 1062
2922, 669, 907, 1049, 1168
2923, 171, 172, 942, 1119
2924, 667, 956, 687, 1170
2925, 839, 933, 1028, 1151
2926, 161, 997, 211, 1167
2927, 839, 922, 1094, 1147
2928, 705, 623, 134, 1197
2929, 296, 894, 297, 1125
2930, 809, 792, 764, 972
2931, 509, 1011, 513, 1161
2932, 809, 972, 764, 1151
2933, 152, 918, 148, 1062
2934, 693, 774, 930, 1199
2935, 642, 643, 1055, 1099
2936, 860, 1029, 1111, 1155
2937, 609, 421, 564, 945
2938, 308, 283, 309, 989
2939, 407, 392, 384, 1140
2940, 261, 1045, 260, 1127
2941, 197, 157, 163, 1044
2942, 213, 991, 174, 1130
2943, 847, 1063, 936, 1152
2944, 903, 1123, 987, 1148
2945, 578, 983, 512, 1115
2946, 781, 640, 784, 915
2947, 926, 1065, 898, 1181
2948, 911, 836, 1003, 1177
2949, 434, 187, 1057, 1115
2950, 442, 443, 1048, 1146
2951, 332, 317, 1086, 1175
2952, 941, 1047, 966, 1143
2953, 649, 651, 650, 1077
2954, 621, 278, 84, 349
2955, 983, 1011, 510, 1145
2956, 858, 981, 910, 1050
2957, 173, 942, 172, 1130
2958, 423, 1104, 593, 1192
2959, 811, 724, 723, 967
2960, 831, 1054, 1076, 1190
2961, 144, 819, 195, 951
2962, 495, 492, 488, 1004
2963, 701, 629, 965, 1080
2964, 323, 335, 945, 1087
2965, 947, 1027, 848, 1117
2966, 609, 945, 577, 1188
2967, 221, 150, 200, 1145
2968, 709, 631, 399, 121
2969, 640, 807, 703, 1080
2970, 375, 393, 395, 1011
2971, 739, 736, 738, 1035
2972, 658, 661, 814, 1132
2973, 531, 69, 426, 230
2974, 490, 480, 1025, 1142
2975, 387, 388, 393, 1161
2976, 286, 317, 1138, 1180
2977, 634, 712, 943, 1062
2978, 888, 1090, 941, 1187
2979, 231, 438, 73, 441
2980, 209, 596, 434, 1057
2981, 675, 664, 772, 1050
2982, 658, 1122, 661, 1132
2983, 392, 407, 409, 1140
2984, 869, 1041, 890, 1179
2985, 726, 727, 679, 922
2986, 933, 327, 1028, 1151
2987, 256, 262, 71, 1048
2988, 445, 444, 446, 948
2989, 125, 436, 581, 378
2990, 242, 243, 241, 1105
2991, 252, 531, 1071, 1100
2992, 960, 1001, 821, 1184
2993, 385, 1056, 382, 1126
2994, 787, 1056, 786, 1199
2995, 490, 480, 477, 1025
2996, 163, 943, 136, 1158
2997, 447, 1106, 948, 1169
2998, 761, 656, 655, 1073
2999, 371, 399, 631, 121
3000, 381, 401, 380, 915
3001, 532, 1041, 1022, 1071
3002, 277, 768, 89, 965
3003, 567, 569, 477, 1025
3004, 895, 1103, 929, 1149
3005, 699, 949, 680, 1174
3006, 73, 260, 438, 231
3007, 833, 1102, 951, 1167
3008, 449, 969, 1108, 1169
3009, 751, 778, 683, 1019
3010, 460, 944, 459, 1162
3011, 492, 488, 1004, 1196
3012, 920, 848, 1027, 1117
3013, 603, 145, 188, 962
3014, 577, 526, 525, 1107
3015, 322, 945, 287, 1188
3016, 629, 89, 768, 965
3017, 256, 71, 550, 1048
3018, 445, 444, 948, 1146
3019, 425, 558, 560, 916
3020, 805, 733, 637, 1110
3021, 133, 194, 49, 571
3022, 553, 551, 578, 1006
3023, 860, 1111, 1029, 1162
3024, 404, 402, 376, 989
3025, 183, 181, 182, 1112
3026, 609, 1098, 528, 1107
3027, 779, 681, 683, 1187
3028, 383, 384, 987, 1185
3029, 336, 321, 104, 563
3030, 786, 1056, 747, 1126
3031, 352, 331, 332, 911
3032, 572, 485, 985, 1198
3033, 396, 395, 403, 1011
3034, 386, 436, 125, 378
3035, 893, 944, 1017, 1082
3036, 430, 71, 262, 1048
3037, 814, 679, 727, 1132
3038, 874, 988, 1043, 1186
3039, 190, 179, 214, 994
3040, 194, 207, 184, 1191
3041, 795, 968, 721, 1160
3042, 340, 277, 89, 965
3043, 575, 586, 587, 1121
3044, 494, 516, 554, 1072
3045, 846, 925, 1122, 1132
3046, 902, 1024, 974, 1190
3047, 559, 946, 582, 1098
3048, 856, 1001, 960, 1184
3049, 578, 483, 591, 1129
3050, 928, 1035, 738, 1176
3051, 577, 945, 609, 1107
3052, 156, 157, 158, 1044
3053, 571, 49, 133, 428
3054, 629, 340, 89, 965
3055, 436, 126, 547, 386
3056, 205, 219, 193, 1042
3057, 521, 947, 595, 1052
3058, 425, 558, 916, 1180
3059, 722, 723, 724, 967
3060, 257, 264, 235, 958
3061, 911, 1175, 836, 1177
3062, 209, 434, 187, 1057
3063, 955, 980, 853, 1166
3064, 243, 251, 241, 993
3065, 600, 192, 505, 1007
3066, 370, 386, 408, 1016
3067, 844, 1076, 949, 1174
3068, 70, 256, 550, 230
3069, 430, 442, 443, 1048
3070, 204, 186, 1042, 1197
3071, 328, 432, 606, 1000
3072, 846, 1155, 1111, 1166
3073, 136, 943, 154, 1062
3074, 430, 550, 71, 1048
3075, 843, 1016, 987, 1185
3076, 165, 1013, 926, 1128
3077, 763, 346, 933, 1151
3078, 589, 924, 611, 1113
3079, 984, 1148, 903, 1183
3080, 60, 255, 639, 235
3081, 332, 911, 331, 1175
3082, 864, 1036, 986, 1124
3083, 534, 605, 1041, 1154
3084, 732, 734, 735, 929
3085, 584, 581, 436, 1016
3086, 593, 1178, 505, 1192
3087, 217, 170, 145, 962
3088, 656, 659, 658, 1172
3089, 949, 1076, 889, 1174
3090, 940, 1041, 931, 1060
3091, 547, 586, 436, 1016
3092, 255, 641, 60, 639
3093, 868, 1148, 984, 1183
3094, 895, 1134, 942, 1179
3095, 409, 966, 390, 1140
3096, 964, 1059, 873, 1068
3097, 842, 1036, 937, 1092
3098, 465, 567, 462, 1018
3099, 301, 360, 328, 1163
3100, 648, 647, 649, 961
3101, 679, 963, 782, 1147
3102, 834, 1001, 943, 1031
3103, 297, 296, 291, 894
3104, 516, 1072, 1000, 1163
3105, 838, 998, 1105, 1195
3106, 780, 743, 741, 994
3107, 464, 466, 465, 1018
3108, 870, 912, 1030, 1150
3109, 756, 685, 686, 1003
3110, 188, 424, 603, 962
3111, 854, 966, 941, 1047
3112, 1023, 1078, 822, 1111
3113, 897, 557, 1141, 1198
3114, 573, 901, 1085, 1133
3115, 456, 455, 454, 1082
3116, 684, 766, 755, 978
3117, 247, 274, 262, 1048
3118, 158, 159, 135, 1057
3119, 458, 460, 459, 1162
3120, 570, 492, 506, 1004
3121, 433, 336, 104, 563
3122, 426, 70, 550, 230
3123, 386, 126, 547, 370
3124, 106, 287, 335, 421
3125, 948, 1079, 851, 1106
3126, 547, 586, 1016, 1121
3127, 702, 775, 786, 984
3128, 136, 208, 634, 1062
3129, 450, 452, 451, 1068
3130, 142, 44, 600, 192
3131, 312, 310, 294, 1026
3132, 551, 1006, 478, 1137
3133, 365, 347, 334, 954
3134, 966, 1047, 854, 1140
3135, 467, 950, 1136, 1139
3136, 509, 510, 513, 1011
3137, 646, 676, 754, 1096
3138, 642, 630, 643, 1099
3139, 677, 659, 680, 1182
3140, 887, 1083, 936, 1139
3141, 469, 572, 485, 985
3142, 733, 734, 1103, 1149
3143, 740, 742, 745, 1116
3144, 58, 750, 630, 228
3145, 330, 329, 289, 975
3146, 799, 729, 795, 968
3147, 181, 183, 185, 971
3148, 607, 440, 503, 1026
3149, 477, 1025, 480, 1142
3150, 821, 936, 1009, 1184
3151, 848, 1059, 964, 1068
3152, 465, 467, 487, 1196
3153, 581, 617, 412, 982
3154, 1040, 1069, 874, 1138
3155, 728, 726, 679, 1094
3156, 372, 385, 382, 1126
3157, 57, 268, 626, 254
3158, 750, 57, 626, 254
3159, 228, 630, 59, 255
3160, 644, 642, 1055, 1173
3161, 405, 419, 394, 1021
3162, 609, 577, 421, 1188
3163, 862, 1028, 945, 1194
3164, 786, 747, 636, 1126
3165, 821, 1009, 936, 1152
3166, 445, 948, 1106, 1146
3167, 654, 653, 652, 1030
3168, 450, 451, 449, 969
3169, 839, 933, 1015, 1028
3170, 169, 939, 167, 1128
3171, 383, 987, 408, 1185
3172, 634, 712, 778, 943
3173, 144, 197, 163, 1158
3174, 764, 278, 84, 621
3175, 523, 524, 924, 1189
3176, 240, 1103, 957, 1134
3177, 94, 402, 342, 376
3178, 139, 236, 32, 171
3179, 245, 265, 243, 993
3180, 11, 400, 198, 377
3181, 616, 200, 511, 1145
3182, 383, 408, 416, 1185
3183, 471, 468, 470, 1063
3184, 172, 139, 171, 942
3185, 529, 521, 523, 947
3186, 835, 932, 1131, 1172
3187, 384, 392, 406, 1140
3188, 548, 1071, 531, 1100
3189, 633, 763, 82, 281
3190, 847, 986, 1036, 1124
3191, 614, 458, 457, 1113
3192, 657, 1030, 654, 1172
3193, 634, 943, 753, 1158
3194, 648, 649, 650, 961
3195, 890, 991, 906, 1191
3196, 323, 325, 338, 1038
3197, 485, 472, 469, 985
3198, 766, 684, 671, 1164
3199, 163, 155, 136, 943
3200, 702, 984, 786, 1183
3201, 582, 559, 475, 946
3202, 218, 971, 186, 1197
3203, 850, 1083, 896, 1095
3204, 667, 665, 687, 956
3205, 995, 1015, 862, 1114
3206, 797, 350, 80, 622
3207, 501, 502, 497, 999
3208, 516, 1000, 432, 1163
3209, 824, 934, 1123, 1148
3210, 533, 534, 605, 1041
3211, 702, 697, 775, 984
3212, 639, 641, 714, 958
3213, 516, 515, 1000, 1072
3214, 513, 590, 431, 1161
3215, 307, 995, 337, 1033
3216, 305, 306, 304, 1033
3217, 402, 369, 342, 982
3218, 893, 1054, 1017, 1076
3219, 924, 1114, 970, 1189
3220, 857, 1091, 1098, 1194
3221, 921, 1066, 838, 1195
3222, 864, 907, 1036, 1164
3223, 440, 369, 617, 982
3224, 963, 1053, 922, 1132
3225, 136, 155, 154, 943
3226, 512, 983, 510, 1145
3227, 570, 962, 424, 1109
3228, 213, 184, 174, 991
3229, 551, 483, 578, 1006
3230, 391, 388, 390, 1097
3231, 402, 412, 369, 982
3232, 287, 322, 323, 945
3233, 685, 1049, 910, 1168
3234, 352, 332, 319, 1086
3235, 425, 594, 558, 1180
3236, 525, 1005, 524, 1189
3237, 502, 999, 501, 1135
3238, 472, 985, 485, 1165
3239, 69, 531, 252, 230
3240, 254, 228, 263, 1099
3241, 701, 629, 801, 965
3242, 620, 796, 818, 1158
3243, 546, 1022, 533, 1119
3244, 1098, 1107, 945, 1194
3245, 853, 1078, 1023, 1111
3246, 867, 920, 1027, 1117
3247, 901, 1063, 871, 1133
3248, 765, 1066, 921, 1195
3249, 565, 548, 508, 1106
3250, 495, 488, 555, 1083
3251, 349, 83, 621, 1151
3252, 873, 1068, 969, 1156
3253, 208, 711, 808, 1062
3254, 234, 1020, 746, 1103
3255, 410, 1047, 397, 1143
3256, 139, 172, 173, 942
3257, 839, 1015, 933, 1094
3258, 886, 1069, 1040, 1138
3259, 467, 1136, 468, 1139
3260, 778, 753, 634, 943
3261, 977, 1156, 545, 1193
3262, 803, 137, 19, 707
3263, 931, 869, 1041, 1071
3264, 459, 477, 480, 1142
3265, 763, 933, 777, 1151
3266, 156, 187, 212, 1115
3267, 491, 588, 590, 1120
3268, 546, 583, 613, 1119
3269, 533, 1022, 532, 1041
3270, 913, 1102, 688, 1170
3271, 915, 1126, 903, 1183
3272, 644, 694, 642, 1173
3273, 350, 280, 80, 622
3274, 328, 606, 288, 1000
3275, 134, 623, 23, 189
3276, 398, 406, 389, 1157
3277, 303, 302, 300, 1014
3278, 740, 1116, 928, 1176
3279, 621, 809, 764, 1151
3280, 222, 613, 201, 1119
3281, 240, 957, 239, 1134
3282, 763, 725, 777, 933
3283, 234, 267, 240, 1103
3284, 940, 865, 1046, 1108
3285, 646, 647, 648, 1096
3286, 847, 1152, 1036, 1171
3287, 421, 287, 945, 1188
3288, 152, 198, 148, 918
3289, 167, 1013, 165, 1128
3290, 199, 258, 33, 139
3291, 423, 544, 593, 1104
3292, 409, 397, 410, 1047
3293, 844, 1061, 949, 1076
3294, 790, 749, 1047, 1143
3295, 427, 587, 1121, 1157
3296, 970, 1114, 880, 1189
3297, 362, 305, 350, 1039
3298, 470, 473, 1063, 1133
3299, 746, 54, 234, 267
3300, 313, 311, 312, 988
3301, 337, 353, 306, 1033
3302, 945, 1107, 577, 1188
3303, 853, 1078, 1111, 1166
3304, 790, 749, 788, 1047
3305, 325, 324, 345, 1038
3306, 229, 546, 259, 1022
3307, 826, 955, 1053, 1166
3308, 159, 161, 160, 997
3309, 932, 835, 1030, 1172
3310, 988, 1043, 868, 1148
3311, 889, 1076, 1054, 1190
3312, 317, 286, 318, 1180
3313, 375, 131, 509, 1011
3314, 611, 589, 523, 924
3315, 526, 528, 479, 1107
3316, 759, 1050, 675, 1153
3317, 645, 643, 708, 1195
3318, 103, 597, 336, 433
3319, 335, 564, 106, 421
3320, 349, 346, 83, 1151
3321, 54, 746, 635, 267
3322, 429, 568, 111, 359
3323, 819, 620, 785, 951
3324, 949, 1061, 822, 1076
3325, 381, 382, 383, 1185
3326, 196, 167, 169, 939
3327, 944, 1082, 893, 1142
3328, 901, 1085, 863, 1165
3329, 898, 1128, 926, 1181
3330, 846, 922, 1053, 1132
3331, 822, 1017, 944, 1111
3332, 396, 131, 375, 1011
3333, 933, 839, 1094, 1151
3334, 211, 144, 195, 951
3335, 445, 446, 447, 948
3336, 740, 928, 738, 1176
3337, 500, 593, 544, 1178
3338, 396, 439, 131, 1011
3339, 218, 185, 186, 971
3340, 284, 429, 111, 359
3341, 614, 458, 1029, 1162
3342, 612, 1051, 525, 1189
3343, 439, 509, 131, 1011
3344, 346, 327, 348, 933
3345, 246, 248, 247, 1032
3346, 1038, 1091, 857, 1194
3347, 491, 590, 579, 976
3348, 246, 245, 244, 1032
3349, 186, 219, 204, 1042
3350, 761, 700, 680, 1174
3351, 393, 391, 394, 1097
3352, 346, 82, 763, 281
3353, 473, 478, 471, 1063
3354, 276, 247, 256, 1048
3355, 257, 341, 64, 233
3356, 667, 666, 665, 956
3357, 233, 291, 63, 295
3358, 201, 583, 147, 1119
3359, 934, 1016, 843, 1135
3360, 58, 750, 228, 254
3361, 748, 998, 1066, 1195
3362, 447, 948, 446, 1169
3363, 483, 1006, 551, 1137
3364, 201, 613, 583, 1119
3365, 136, 943, 634, 1158
3366, 586, 502, 584, 1135
3367, 581, 412, 378, 982
3368, 254, 244, 242, 1105
3369, 216, 190, 628, 994
3370, 274, 248, 261, 1127
3371, 248, 1074, 261, 1127
3372, 215, 796, 17, 620
3373, 440, 581, 584, 982
3374, 103, 597, 290, 336
3375, 729, 723, 721, 1034
3376, 953, 1000, 841, 1125
3377, 427, 588, 587, 1157
3378, 159, 197, 997, 1044
3379, 408, 383, 384, 987
3380, 962, 1004, 840, 1109
3381, 872, 953, 1074, 1127
3382, 268, 731, 56, 626
3383, 304, 280, 305, 909
3384, 229, 1022, 266, 1071
3385, 406, 392, 389, 1140
3386, 418, 376, 401, 989
3387, 146, 403, 10, 377
3388, 846, 1131, 1111, 1155
3389, 95, 376, 283, 401
3390, 213, 172, 147, 1119
3391, 601, 501, 496, 1069
3392, 574, 489, 497, 1085
3393, 933, 1094, 777, 1151
3394, 394, 411, 417, 1021
3395, 934, 987, 866, 1123
3396, 467, 1139, 488, 1196
3397, 253, 233, 63, 295
3398, 409, 410, 390, 966
3399, 359, 316, 284, 1138
3400, 710, 712, 711, 1062
3401, 412, 617, 369, 982
3402, 287, 323, 335, 945
3403, 593, 499, 505, 1178
3404, 202, 191, 47, 580
3405, 241, 239, 240, 957
3406, 186, 193, 219, 1042
3407, 860, 944, 1111, 1162
3408, 277, 965, 361, 1175
3409, 942, 1119, 172, 1130
3410, 327, 933, 346, 1151
3411, 328, 356, 301, 1000
3412, 847, 950, 1124, 1139
3413, 945, 1038, 857, 1194
3414, 192, 1007, 205, 1192
3415, 541, 543, 580, 1064
3416, 715, 694, 716, 1173
3417, 259, 229, 67, 546
3418, 227, 55, 731, 267
3419, 608, 36, 143, 1145
3420, 417, 411, 399, 1081
3421, 522, 523, 521, 1189
3422, 917, 875, 1058, 1067
3423, 451, 540, 539, 1156
3424, 542, 545, 977, 1156
3425, 692, 687, 769, 1065
3426, 360, 301, 302, 1014
3427, 442, 430, 441, 1127
3428, 942, 1134, 869, 1179
3429, 566, 488, 467, 1139
3430, 882, 1105, 998, 1195
3431, 468, 471, 566, 1139
3432, 480, 1142, 499, 1178
3433, 493, 587, 588, 1120
3434, 609, 592, 528, 1098
3435, 796, 215, 634, 1158
3436, 764, 85, 278, 802
3437, 518, 516, 517, 1072
3438, 485, 1089, 486, 1165
3439, 861, 993, 931, 1100
3440, 866, 1120, 935, 1157
3441, 755, 688, 1102, 1170
3442, 675, 772, 757, 1050
3443, 887, 1124, 950, 1139
3444, 503, 429, 607, 1026
3445, 514, 441, 438, 1127
3446, 409, 390, 392, 1140
3447, 652, 655, 654, 1073
3448, 866, 987, 934, 1121
3449, 729, 721, 795, 968
3450, 570, 490, 569, 1109
3451, 320, 319, 318, 1086
3452, 782, 663, 675, 963
3453, 645, 644, 643, 1055
3454, 333, 86, 282, 802
3455, 531, 435, 68, 1071
3456, 711, 808, 14, 208
3457, 531, 68, 252, 1071
3458, 149, 175, 210, 1110
3459, 373, 627, 119, 1047
3460, 10, 150, 403, 146
3461, 294, 369, 440, 982
3462, 147, 583, 437, 1119
3463, 290, 329, 353, 975
3464, 597, 520, 422, 975
3465, 313, 311, 988, 1186
3466, 401, 283, 95, 308
3467, 858, 1050, 910, 1168
3468, 468, 467, 466, 1136
3469, 676, 646, 648, 1096
3470, 237, 942, 238, 1134
3471, 657, 789, 654, 1030
3472, 392, 390, 389, 1140
3473, 574, 573, 1085, 1133
3474, 463, 464, 462, 1018
3475, 851, 1046, 940, 1060
3476, 304, 330, 302, 1101
3477, 864, 1036, 937, 1164
3478, 800, 134, 206, 1010
3479, 546, 533, 583, 1119
3480, 505, 600, 44, 192
3481, 736, 734, 737, 1035
3482, 85, 333, 278, 802
3483, 844, 1042, 971, 1197
3484, 600, 188, 43, 142
3485, 435, 546, 229, 1022
3486, 634, 15, 808, 208
3487, 623, 23, 705, 134
3488, 608, 511, 36, 1145
3489, 170, 196, 188, 962
3490, 640, 344, 91, 807
3491, 663, 963, 679, 1132
3492, 809, 1094, 728, 1147
3493, 846, 925, 1078, 1122
3494, 506, 424, 570, 962
3495, 236, 139, 32, 232
3496, 885, 1098, 1091, 1194
3497, 508, 550, 443, 1048
3498, 483, 551, 478, 1137
3499, 386, 378, 416, 1016
3500, 745, 742, 776, 974
3501, 281, 348, 362, 1039
3502, 839, 1091, 1038, 1194
3503, 355, 284, 312, 1026
3504, 342, 310, 283, 989
3505, 713, 631, 790, 1143
3506, 227, 731, 56, 268
3507, 780, 628, 190, 994
3508, 519, 521, 595, 1052
3509, 737, 1035, 734, 1149
3510, 846, 1053, 1155, 1166
3511, 354, 806, 77, 279
3512, 476, 1052, 595, 1117
3513, 161, 197, 211, 997
3514, 944, 860, 1017, 1082
3515, 948, 1159, 446, 1169
3516, 532, 1022, 435, 1071
3517, 220, 1104, 141, 1192
3518, 627, 749, 119, 1047
3519, 812, 725, 633, 1039
3520, 1028, 1038, 945, 1194
3521, 506, 492, 495, 1004
3522, 140, 216, 27, 771
3523, 782, 759, 792, 1147
3524, 812, 797, 720, 1039
3525, 775, 787, 786, 1199
3526, 313, 1040, 315, 1186
3527, 518, 554, 516, 1072
3528, 515, 432, 516, 1000
3529, 147, 437, 50, 1191
3530, 46, 141, 202, 1104
3531, 777, 1094, 809, 1151
3532, 944, 1017, 860, 1111
3533, 518, 517, 519, 1052
3534, 119, 397, 373, 1047
3535, 39, 596, 209, 420
3536, 595, 1052, 947, 1117
3537, 452, 545, 451, 1156
3538, 291, 64, 341, 233
3539, 607, 429, 112, 355
3540, 920, 1117, 867, 1159
3541, 520, 519, 422, 975
3542, 784, 1126, 915, 1183
3543, 730, 806, 76, 354
3544, 261, 250, 275, 1074
3545, 133, 428, 191, 1064
3546, 344, 292, 91, 807
3547, 760, 758, 979, 1153
3548, 1022, 1041, 869, 1071
3549, 332, 331, 277, 1175
3550, 501, 497, 496, 999
3551, 612, 525, 522, 1189
3552, 794, 625, 758, 979
3553, 1063, 1136, 847, 1139
3554, 917, 1055, 855, 1173
3555, 144, 215, 17, 620
3556, 303, 304, 302, 1101
3557, 319, 332, 317, 1086
3558, 524, 527, 611, 1113
3559, 749, 397, 119, 1047
3560, 232, 237, 236, 942
3561, 906, 1154, 890, 1191
3562, 795, 1067, 968, 1160
3563, 578, 591, 512, 983
3564, 41, 145, 603, 507
3565, 511, 512, 510, 1145
3566, 529, 595, 947, 1117
3567, 147, 201, 51, 583
3568, 762, 277, 88, 331
3569, 165, 1013, 162, 1167
3570, 81, 633, 281, 1039
3571, 139, 258, 33, 232
3572, 542, 977, 1075, 1156
3573, 432, 99, 328, 606
3574, 562, 1138, 498, 1180
3575, 16, 634, 796, 215
3576, 133, 48, 191, 428
3577, 1024, 1174, 974, 1190
3578, 323, 338, 335, 1087
3579, 563, 525, 1051, 1188
3580, 191, 428, 580, 1064
3581, 576, 977, 545, 1193
3582, 654, 1073, 656, 1172
3583, 625, 802, 760, 979
3584, 252, 68, 229, 1071
3585, 229, 435, 67, 546
3586, 524, 1005, 527, 1113
3587, 137, 195, 19, 707
3588, 435, 229, 68, 1071
3589, 447, 565, 445, 1106
3590, 136, 634, 215, 1158
3591, 198, 146, 11, 377
3592, 438, 530, 514, 1045
3593, 376, 342, 94, 283
3594, 733, 734, 732, 1103
3595, 340, 965, 629, 1080
3596, 768, 801, 965, 1177
3597, 654, 1030, 1073, 1172
3598, 417, 405, 394, 1021
3599, 240, 227, 241, 957
3600, 361, 315, 1175, 1186
3601, 804, 994, 741, 1176
3602, 597, 102, 290, 329
3603, 885, 1107, 1098, 1194
3604, 410, 371, 411, 1143
3605, 861, 1100, 931, 1106
3606, 829, 940, 1046, 1060
3607, 448, 1159, 920, 1169
3608, 459, 480, 561, 1142
3609, 608, 1115, 512, 1145
3610, 168, 169, 167, 1128
3611, 675, 1050, 757, 1153
3612, 202, 220, 182, 1104
3613, 55, 635, 731, 267
3614, 208, 148, 711, 1062
3615, 769, 690, 770, 1065
3616, 355, 312, 294, 1026
3617, 580, 191, 48, 428
3618, 404, 989, 418, 1185
3619, 282, 762, 87, 331
3620, 610, 289, 101, 329
3621, 693, 775, 774, 1199
3622, 654, 655, 656, 1073
3623, 86, 625, 282, 802
3624, 516, 517, 1072, 1163
3625, 193, 220, 141, 1192
3626, 469, 470, 468, 1136
3627, 207, 1064, 226, 1144
3628, 851, 940, 1046, 1108
3629, 470, 573, 473, 1133
3630, 844, 1076, 1174, 1190
3631, 889, 1174, 1076, 1190
3632, 435, 1022, 229, 1071
3633, 500, 561, 480, 1142
3634, 649, 739, 651, 1077
3635, 604, 571, 537, 1191
3636, 790, 779, 713, 1187
3637, 748, 1066, 765, 1195
3638, 399, 379, 417, 1081
3639, 310, 309, 283, 989
3640, 819, 785, 707, 951
3641, 294, 607, 113, 355
3642, 766, 1164, 668, 1170
3643, 539, 536, 474, 1108
3644, 782, 679, 663, 963
3645, 481, 976, 579, 1137
3646, 479, 614, 527, 1029
3647, 422, 610, 101, 329
3648, 884, 1090, 1019, 1187
3649, 296, 343, 295, 1045
3650, 800, 22, 206, 134
3651, 512, 1115, 983, 1145
3652, 987, 1016, 934, 1121
3653, 733, 746, 1020, 1103
3654, 313, 314, 311, 1186
3655, 262, 274, 231, 1127
3656, 467, 950, 1139, 1196
3657, 705, 134, 800, 1010
3658, 628, 27, 216, 771
3659, 38, 596, 434, 209
3660, 316, 315, 313, 1040
3661, 437, 147, 51, 583
3662, 423, 141, 46, 1104
3663, 432, 1000, 328, 1163
3664, 598, 202, 47, 580
3665, 102, 597, 422, 329
3666, 595, 476, 518, 1052
3667, 194, 184, 213, 1191
3668, 890, 1119, 942, 1130
3669, 505, 1007, 192, 1192
3670, 242, 227, 268, 998
3671, 154, 152, 148, 1062
3672, 526, 524, 525, 1005
3673, 424, 188, 43, 600
3674, 192, 205, 193, 1192
3675, 582, 479, 528, 1098
3676, 481, 473, 482, 1133
3677, 521, 529, 595, 947
3678, 768, 277, 88, 762
3679, 363, 285, 338, 1087
3680, 143, 36, 200, 1145
3681, 505, 499, 504, 1007
3682, 601, 1069, 498, 1138
3683, 498, 1069, 486, 1089
3684, 759, 675, 757, 1153
3685, 770, 706, 692, 1065
3686, 449, 1108, 474, 1169
3687, 697, 696, 689, 1012
3688, 557, 485, 572, 1198
3689, 238, 237, 232, 942
3690, 385, 373, 407, 1056
3691, 561, 455, 1082, 1193
3692, 747, 787, 627, 1056
3693, 424, 506, 603, 962
3694, 993, 1071, 931, 1100
3695, 632, 77, 806, 279
3696, 890, 1130, 942, 1179
3697, 844, 1024, 971, 1190
3698, 149, 210, 29, 637
3699, 629, 807, 90, 1080
3700, 533, 437, 583, 1119
3701, 230, 265, 276, 1100
3702, 388, 391, 393, 1097
3703, 494, 554, 444, 952
3704, 914, 1011, 983, 1145
3705, 625, 762, 87, 282
3706, 167, 170, 165, 1013
3707, 791, 683, 1019, 1187
3708, 667, 766, 668, 1170
3709, 570, 424, 504, 1109
3710, 942, 1130, 895, 1179
3711, 420, 209, 39, 135
3712, 153, 156, 212, 1031
3713, 579, 976, 1129, 1137
3714, 247, 245, 246, 1032
3715, 574, 482, 573, 1133
3716, 739, 740, 651, 1077
3717, 361, 1175, 965, 1186
3718, 634, 16, 136, 215
3719, 1111, 1131, 860, 1155
3720, 159, 160, 135, 1095
3721, 350, 81, 281, 1039
3722, 446, 1159, 448, 1169
3723, 447, 449, 474, 1169
3724, 216, 190, 26, 628
3725, 147, 50, 194, 1191
3726, 719, 795, 721, 1160
3727, 544, 542, 576, 977
3728, 190, 25, 780, 138
3729, 838, 1066, 998, 1195
3730, 670, 673, 773, 1070
3731, 511, 200, 36, 1145
3732, 760, 759, 758, 1153
3733, 209, 434, 38, 187
3734, 81, 797, 633, 1039
3735, 810, 280, 79, 358
3736, 744, 798, 623, 1024
3737, 548, 532, 531, 1071
3738, 447, 446, 448, 1169
3739, 569, 490, 477, 1025
3740, 321, 339, 322, 1188
3741, 951, 997, 833, 1167
3742, 530, 288, 98, 606
3743, 385, 407, 382, 1056
3744, 705, 134, 1010, 1197
3745, 485, 556, 486, 1089
3746, 99, 288, 328, 606
3747, 90, 807, 292, 1080
3748, 402, 404, 378, 982
3749, 230, 252, 265, 1100
3750, 726, 777, 725, 1094
3751, 786, 787, 747, 1056
3752, 682, 681, 691, 1037
3753, 572, 464, 475, 1198
3754, 614, 527, 1029, 1113
3755, 41, 145, 507, 203
3756, 199, 173, 149, 1020
3757, 107, 285, 602, 1087
3758, 284, 112, 429, 355
3759, 212, 1115, 143, 1145
3760, 685, 669, 672, 1049
3761, 669, 1049, 685, 1168
3762, 532, 533, 435, 1022
3763, 850, 1044, 997, 1184
3764, 271, 258, 199, 1020
3765, 224, 271, 199, 1020
3766, 176, 174, 184, 991
3767, 105, 321, 287, 1188
3768, 997, 1044, 856, 1184
3769, 542, 545, 576, 977
3770, 22, 800, 705, 134
3771, 148, 711, 14, 208
3772, 744, 776, 742, 974
3773, 234, 238, 258, 1020
3774, 728, 679, 782, 1147
3775, 605, 1154, 537, 1191
3776, 459, 561, 456, 1082
3777, 294, 310, 342, 982
3778, 607, 113, 440, 294
3779, 1005, 1114, 924, 1189
3780, 161, 211, 164, 1167
3781, 266, 251, 252, 1071
3782, 571, 50, 437, 1191
3783, 628, 741, 804, 994
3784, 974, 1174, 889, 1190
3785, 105, 287, 421, 1188
3786, 835, 1073, 1030, 1172
3787, 153, 154, 155, 1031
3788, 696, 1012, 701, 1177
3789, 189, 798, 24, 138
3790, 46, 202, 598, 1104
3791, 839, 1028, 1015, 1194
3792, 1015, 1028, 862, 1194
3793, 260, 261, 253, 1045
3794, 623, 798, 24, 189
3795, 426, 548, 531, 1100
3796, 110, 286, 359, 1138
3797, 862, 1051, 995, 1114
3798, 995, 1051, 880, 1114
3799, 164, 165, 162, 1167
3800, 563, 577, 525, 1188
3801, 159, 157, 197, 1044
3802, 208, 634, 15, 136
3803, 356, 298, 301, 1125
3804, 795, 718, 1067, 1160
3805, 639, 714, 730, 958
3806, 614, 1029, 461, 1162
3807, 535, 534, 532, 1041
3808, 476, 1117, 599, 1159
3809, 293, 730, 76, 354
3810, 733, 746, 783, 1020
3811, 813, 746, 271, 1020
3812, 110, 359, 568, 1138
3813, 971, 1024, 844, 1197
3814, 214, 179, 181, 1112
3815, 210, 140, 28, 1110
3816, 626, 731, 748, 998
3817, 140, 175, 176, 1110
3818, 1040, 1175, 315, 1186
3819, 456, 561, 455, 1082
3820, 581, 440, 617, 982
3821, 107, 602, 564, 1087
3822, 629, 90, 340, 1080
3823, 511, 608, 512, 1145
3824, 380, 372, 381, 1126
3825, 190, 780, 26, 628
3826, 558, 556, 557, 1141
3827, 514, 442, 441, 1127
3828, 791, 778, 712, 1019
3829, 579, 1129, 483, 1137
3830, 190, 177, 179, 994
3831, 364, 339, 337, 995
3832, 454, 452, 453, 1068
3833, 231, 261, 260, 1127
3834, 457, 589, 611, 1113
3835, 614, 461, 458, 1162
3836, 783, 149, 29, 637
3837, 619, 420, 135, 1095
3838, 448, 476, 599, 1159
3839, 559, 582, 592, 1098
3840, 846, 1111, 1078, 1166
3841, 262, 256, 247, 1048
3842, 873, 1156, 977, 1193
3843, 866, 1123, 987, 1140
3844, 350, 797, 81, 1039
3845, 226, 207, 133, 1064
3846, 704, 699, 705, 1010
3847, 142, 196, 205, 1007
3848, 224, 783, 813, 1020
3849, 436, 586, 584, 1016
3850, 467, 468, 566, 1139
3851, 307, 337, 306, 1033
3852, 136, 154, 208, 1062
3853, 229, 237, 266, 1022
3854, 25, 798, 780, 138
3855, 685, 672, 686, 1049
3856, 634, 808, 712, 1062
3857, 298, 296, 297, 1125
3858, 579, 481, 491, 976
3859, 741, 1116, 740, 1176
3860, 564, 560, 592, 1087
3861, 948, 1106, 851, 1169
3862, 846, 1078, 938, 1122
3863, 322, 326, 324, 1028
3864, 682, 673, 681, 1037
3865, 601, 498, 568, 1138
3866, 295, 366, 270, 1045
3867, 784, 636, 781, 1126
3868, 143, 1115, 608, 1145
3869, 255, 249, 228, 1099
3870, 343, 288, 98, 530
3871, 423, 46, 598, 1104
3872, 553, 434, 596, 1057
3873, 307, 364, 337, 995
3874, 171, 222, 201, 1119
3875, 688, 667, 687, 1170
3876, 686, 698, 1003, 1177
3877, 735, 674, 765, 1066
3878, 335, 285, 107, 1087
3879, 204, 1010, 134, 1197
3880, 622, 280, 79, 810
3881, 408, 384, 406, 987
3882, 710, 638, 709, 1081
3883, 216, 177, 190, 994
3884, 585, 555, 552, 1083
3885, 404, 383, 416, 1185
3886, 260, 615, 438, 1045
3887, 278, 347, 345, 972
3888, 140, 771, 28, 1110
3889, 767, 660, 677, 1182
3890, 944, 853, 1111, 1162
3891, 271, 746, 234, 1020
3892, 836, 965, 1175, 1186
3893, 303, 300, 279, 1084
3894, 856, 1044, 1001, 1184
3895, 249, 250, 248, 1074
3896, 880, 1114, 1051, 1189
3897, 653, 654, 789, 1030
3898, 755, 766, 688, 1170
3899, 386, 416, 408, 1016
3900, 642, 643, 644, 1055
3901, 658, 660, 661, 1122
3902, 397, 749, 120, 1143
3903, 629, 768, 801, 965
3904, 90, 292, 340, 1080
3905, 110, 562, 286, 1138
3906, 741, 994, 1116, 1176
3907, 361, 277, 340, 965
3908, 598, 543, 544, 1104
3909, 765, 748, 735, 1066
3910, 372, 382, 381, 1126
3911, 107, 564, 335, 1087
3912, 695, 785, 755, 1102
3913, 578, 512, 434, 1115
3914, 801, 696, 701, 1177
3915, 684, 755, 752, 978
3916, 637, 210, 28, 1110
3917, 480, 500, 1142, 1178
3918, 791, 779, 683, 1187
3919, 188, 145, 170, 962
3920, 862, 1107, 945, 1188
3921, 720, 721, 722, 1034
3922, 548, 426, 508, 1100
3923, 562, 110, 568, 1138
3924, 481, 579, 483, 1137
3925, 738, 1035, 737, 1176
3926, 149, 783, 224, 1020
3927, 317, 1040, 316, 1138
3928, 217, 162, 170, 1013
3929, 21, 206, 225, 800
3930, 323, 324, 325, 1038
3931, 620, 18, 144, 819
3932, 498, 486, 556, 1089
3933, 482, 493, 491, 1120
3934, 375, 1011, 509, 1161
3935, 642, 694, 714, 1173
3936, 890, 991, 1130, 1179
3937, 701, 703, 629, 1080
3938, 632, 716, 717, 1084
3939, 507, 585, 619, 1095
3940, 508, 445, 565, 1106
3941, 173, 174, 175, 1130
3942, 185, 183, 186, 971
3943, 594, 562, 498, 1180
3944, 270, 615, 260, 1045
3945, 670, 773, 672, 1070
3946, 976, 919, 1129, 1137
3947, 748, 765, 708, 1195
3948, 549, 128, 374, 1157
3949, 810, 358, 78, 1084
3950, 571, 194, 50, 1191
3951, 381, 383, 418, 1185
3952, 847, 1136, 950, 1139
3953, 760, 758, 625, 979
3954, 686, 698, 756, 1003
3955, 897, 1141, 946, 1198
3956, 147, 194, 213, 1191
3957, 188, 42, 145, 603
3958, 536, 537, 534, 1154
3959, 318, 319, 317, 1086
3960, 515, 606, 432, 1000
3961, 965, 836, 1175, 1177
3962, 784, 786, 1126, 1183
3963, 42, 188, 424, 603
3964, 343, 615, 366, 1045
3965, 180, 182, 181, 1112
3966, 197, 161, 159, 997
3967, 512, 591, 510, 983
3968, 749, 397, 1047, 1143
3969, 307, 306, 305, 1033
3970, 371, 397, 120, 1143
3971, 213, 174, 172, 1130
3972, 534, 533, 532, 1041
3973, 289, 610, 100, 1163
3974, 677, 660, 659, 1182
3975, 661, 660, 662, 1122
3976, 615, 343, 530, 1045
3977, 860, 1113, 1029, 1155
3978, 158, 157, 159, 1044
3979, 768, 698, 801, 1177
3980, 605, 537, 571, 1191
3981, 604, 541, 428, 1064
3982, 749, 631, 120, 1143
3983, 371, 120, 631, 1143
3984, 470, 473, 471, 1063
3985, 632, 810, 78, 1084
3986, 135, 203, 619, 1095
3987, 271, 224, 813, 1020
3988, 295, 270, 253, 1045
3989, 204, 218, 186, 1197
3990, 563, 525, 433, 1051
3991, 479, 461, 614, 1029
3992, 142, 205, 192, 1007
3993, 496, 486, 498, 1069
3994, 259, 237, 229, 1022
3995, 836, 1175, 1040, 1186
3996, 505, 504, 600, 1007
3997, 376, 418, 404, 989
3998, 862, 945, 1107, 1194
3999, 741, 740, 738, 1176
4000, 741, 628, 780, 994
4001, 637, 28, 771, 1110
4002, 420, 40, 619, 135
4003, 502, 501, 503, 1135
4004, 378, 412, 402, 982
4005, 130, 375, 509, 1161
4006, 105, 563, 321, 1188
4007, 209, 158, 135, 1057
4008, 699, 680, 700, 1174
4009, 715, 714, 694, 1173
4010, 141, 1104, 423, 1192
4011, 618, 420, 585, 1095
4012, 286, 1138, 562, 1180
4013, 636, 784, 786, 1126
4014, 279, 78, 358, 1084
4015, 839, 1038, 1028, 1194
4016, 656, 658, 657, 1172
4017, 151, 212, 143, 1145
4018, 345, 327, 349, 1151
4019, 128, 398, 374, 1157
4020, 179, 180, 181, 1112
4021, 439, 132, 616, 396
4022, 404, 418, 383, 1185
4023, 758, 757, 756, 1153
4024, 432, 328, 100, 1163
4025, 432, 100, 610, 1163
4026, 353, 329, 330, 975
4027, 328, 289, 100, 1163
4028, 279, 632, 78, 1084
4029, 657, 654, 656, 1172
4030, 180, 207, 226, 1144
4031, 701, 696, 697, 1012
4032, 243, 244, 245, 1105
4033, 105, 421, 563, 1188
4034, 887, 1139, 950, 1196
4035, 779, 791, 713, 1187
4036, 466, 469, 468, 1136
4037, 624, 21, 225, 800
4038, 294, 342, 369, 982
4039, 777, 728, 809, 1094
4040, 710, 709, 713, 1081
4041, 187, 158, 209, 1057
4042, 168, 134, 204, 1010
4043, 737, 738, 736, 1035
4044, 200, 150, 151, 1145
4045, 164, 162, 161, 1167
4046, 128, 427, 398, 1157
4047, 860, 1111, 1017, 1131
4048, 13, 816, 148, 223
4049, 252, 229, 266, 1071
4050, 815, 75, 368, 293
4051, 128, 549, 427, 1157
4052, 402, 369, 93, 342
4053, 476, 446, 554, 1159
4054, 324, 326, 327, 1028
4055, 526, 527, 524, 1005
4056, 489, 574, 573, 1085
4057, 195, 144, 18, 819
4058, 93, 412, 369, 402
4059, 585, 495, 555, 1083
4060, 265, 251, 243, 993
4061, 670, 668, 671, 1164
4062, 114, 617, 440, 369
4063, 693, 788, 787, 1199
4064, 754, 676, 718, 1067
4065, 560, 558, 559, 1141
4066, 538, 540, 541, 1075
4067, 396, 132, 616, 415
4068, 321, 322, 287, 1188
4069, 676, 795, 718, 1067
4070, 431, 387, 130, 1161
4071, 143, 37, 608, 1115
4072, 645, 708, 765, 1195
4073, 277, 361, 332, 1175
4074, 286, 109, 351, 1180
4075, 639, 815, 61, 235
4076, 375, 130, 387, 1161
4077, 414, 380, 781, 115
4078, 596, 618, 553, 1057
4079, 425, 351, 109, 1180
4080, 464, 465, 462, 1018
4081, 427, 587, 547, 1121
4082, 533, 546, 435, 1022
4083, 804, 738, 737, 1176
4084, 695, 755, 688, 1102
4085, 722, 721, 723, 1034
4086, 171, 236, 31, 269
4087, 461, 462, 460, 1162
4088, 438, 260, 74, 615
4089, 130, 509, 431, 1161
4090, 34, 258, 199, 271
4091, 498, 562, 568, 1138
4092, 349, 327, 346, 1151
4093, 31, 171, 269, 222
4094, 542, 1075, 540, 1156
4095, 271, 199, 34, 224
4096, 700, 793, 699, 1174
4097, 135, 40, 619, 203
4098, 686, 696, 698, 1177
4099, 571, 437, 605, 1191
4100, 189, 218, 134, 1197
4101, 444, 443, 442, 1146
4102, 542, 543, 541, 1075
4103, 707, 195, 19, 819
4104, 817, 414, 781, 115
4105, 621, 763, 777, 1151
4106, 153, 155, 156, 1031
4107, 638, 816, 123, 413
4108, 809, 728, 792, 1147
4109, 503, 584, 502, 1135
4110, 13, 816, 711, 148
4111, 788, 749, 627, 1047
4112, 472, 485, 486, 1165
4113, 328, 288, 356, 1000
4114, 572, 475, 557, 1198
4115, 396, 375, 395, 1011
4116, 434, 37, 187, 1115
4117, 286, 562, 109, 1180
4118, 235, 815, 61, 272
4119, 144, 163, 215, 1158
4120, 717, 718, 719, 1160
4121, 351, 318, 286, 1180
4122, 796, 634, 753, 1158
4123, 434, 608, 37, 1115
4124, 75, 815, 730, 293
4125, 510, 509, 439, 1011
4126, 443, 550, 430, 1048
4127, 260, 270, 74, 615
4128, 301, 300, 302, 1014
4129, 413, 123, 638, 379
4130, 795, 719, 718, 1160
4131, 228, 249, 263, 1099
4132, 712, 808, 711, 1062
4133, 525, 524, 522, 1189
4134, 373, 397, 409, 1047
4135, 361, 314, 315, 1186
4136, 369, 440, 114, 294
4137, 366, 615, 270, 1045
4138, 663, 679, 661, 1132
4139, 143, 187, 37, 1115
4140, 704, 705, 800, 1010
4141, 453, 452, 450, 1068
4142, 492, 487, 488, 1196
4143, 793, 744, 623, 1024
4144, 360, 289, 328, 1163
4145, 844, 1174, 1024, 1190
4146, 425, 109, 562, 1180
4147, 173, 172, 174, 1130
4148, 734, 733, 805, 1149
4149, 202, 141, 220, 1104
4150, 504, 490, 570, 1109
4151, 133, 191, 226, 1064
4152, 239, 237, 238, 1134
4153, 208, 154, 148, 1062
4154, 374, 398, 389, 1157
4155, 368, 65, 272, 341
4156, 448, 449, 447, 1169
4157, 449, 539, 474, 1108
4158, 621, 777, 809, 1151
4159, 619, 41, 507, 203
4160, 261, 248, 250, 1074
4161, 528, 577, 609, 1107
4162, 489, 472, 486, 1165
4163, 66, 259, 546, 613
4164, 542, 540, 545, 1156
4165, 259, 66, 269, 613
4166, 516, 432, 517, 1163
4167, 366, 62, 295, 270
4168, 683, 778, 791, 1019
4169, 317, 315, 316, 1040
4170, 341, 65, 272, 257
4171, 313, 315, 314, 1186
4172, 579, 591, 483, 1129
4173, 669, 772, 666, 1168
4174, 580, 428, 541, 1064
4175, 532, 435, 531, 1071
4176, 207, 178, 184, 1144
4177, 361, 315, 332, 1175
4178, 162, 165, 170, 1013
4179, 150, 415, 9, 403
4180, 96, 401, 308, 414
4181, 9, 221, 415, 150
4182, 367, 96, 308, 414
4183, 753, 818, 796, 1158
4184, 201, 222, 52, 613
4185, 445, 443, 444, 1146
4186, 171, 201, 172, 1119
4187, 513, 591, 579, 1129
4188, 423, 598, 544, 1104
4189, 586, 547, 587, 1121
4190, 938, 1122, 1078, 1182
4191, 172, 201, 147, 1119
4192, 519, 595, 518, 1052
4193, 772, 669, 685, 1168
4194, 340, 292, 357, 1080
4195, 53, 271, 813, 746
4196, 581, 617, 124, 412
4197, 50, 49, 194, 571
4198, 215, 163, 136, 1158
4199, 367, 344, 92, 817
4200, 281, 362, 350, 1039
4201, 285, 335, 338, 1087
4202, 529, 599, 595, 1117
4203, 52, 201, 613, 583
4204, 206, 134, 168, 1010
4205, 483, 478, 481, 1137
4206, 480, 499, 500, 1178
4207, 375, 387, 393, 1161
4208, 378, 581, 124, 412
4209, 640, 92, 344, 817
4210, 733, 635, 746, 1103
4211, 135, 160, 203, 1095
4212, 576, 545, 455, 1193
4213, 45, 505, 192, 1192
4214, 62, 253, 295, 270
4215, 271, 53, 234, 746
4216, 460, 458, 461, 1162
4217, 534, 537, 605, 1154
4218, 149, 224, 199, 1020
4219, 599, 476, 595, 1117
4220, 771, 805, 637, 1110
4221, 790, 631, 749, 1143
4222, 525, 612, 433, 1051
4223, 224, 30, 813, 783
4224, 271, 234, 258, 1020
4225, 511, 616, 35, 200
4226, 797, 812, 633, 1039
4227, 130, 375, 131, 509
4228, 455, 561, 576, 1193
4229, 770, 692, 769, 1065
4230, 200, 616, 35, 221
4231, 371, 410, 397, 1143
4232, 30, 224, 149, 783
4233, 783, 746, 813, 1020
4234, 558, 557, 559, 1141
4235, 231, 274, 261, 1127
4236, 316, 286, 317, 1138
4237, 180, 178, 207, 1144
4238, 117, 372, 116, 636
4239, 89, 90, 340, 629
4240, 615, 343, 97, 530
4241, 295, 343, 366, 1045
4242, 387, 431, 130, 129
4243, 631, 120, 371, 121
4244, 588, 427, 549, 1157
4245, 175, 140, 210, 1110
4246, 703, 702, 784, 1183
4247, 814, 661, 679, 1132
4248, 45, 141, 423, 1192
4249, 431, 509, 513, 1161
4250, 743, 742, 741, 1116
4251, 242, 244, 243, 1105
4252, 366, 343, 97, 615
4253, 615, 530, 438, 1045
4254, 671, 668, 766, 1164
4255, 629, 703, 807, 1080
4256, 635, 733, 732, 1103
4257, 560, 564, 602, 1087
4258, 742, 740, 741, 1116
4259, 439, 131, 132, 396
4260, 167, 165, 166, 1128
4261, 128, 374, 129, 549
4262, 128, 427, 127, 398
4263, 45, 423, 505, 1192
4264, 582, 528, 592, 1098
4265, 573, 482, 473, 1133
4266, 784, 702, 786, 1183
4267, 356, 296, 298, 1125
4268, 491, 493, 588, 1120
4269, 467, 488, 487, 1196
4270, 45, 192, 141, 1192
4271, 531, 68, 69, 252
4272, 747, 117, 385, 118
4273, 104, 103, 336, 433
4274, 805, 737, 734, 1149
4275, 750, 58, 57, 254
4276, 731, 56, 55, 227
4277, 627, 118, 373, 119
4278, 127, 547, 126, 370
4279, 496, 498, 601, 1069
4280, 321, 105, 104, 563
4281, 619, 585, 420, 1095
4282, 119, 749, 120, 397
4283, 192, 193, 141, 1192
4284, 399, 709, 121, 122
4285, 540, 542, 541, 1075
4286, 446, 476, 448, 1159
4287, 122, 638, 123, 379
4288, 218, 204, 134, 1197
4289, 14, 13, 711, 148
4290, 328, 100, 99, 432
4291, 421, 577, 563, 1188
4292, 278, 84, 85, 764
4293, 187, 143, 212, 1115
4294, 810, 632, 717, 1084
4295, 757, 758, 759, 1153
4296, 641, 60, 59, 255
4297, 37, 38, 434, 187
4298, 639, 61, 60, 235
4299, 200, 151, 143, 1145
4300, 236, 31, 32, 171
4301, 358, 303, 279, 1084
4302, 76, 75, 730, 293
4303, 766, 667, 688, 1170
4304, 386, 436, 126, 125
4305, 27, 28, 140, 771
4306, 608, 434, 512, 1115
4307, 150, 9, 10, 403
4308, 781, 380, 116, 115
4309, 401, 95, 96, 308
4310, 280, 79, 80, 622
4311, 614, 457, 527, 1113
4312, 432, 610, 517, 1163
4313, 632, 78, 77, 279
4314, 112, 429, 111, 284
4315, 523, 522, 524, 1189
4316, 113, 114, 440, 294
4317, 505, 423, 593, 1192
4318, 528, 526, 577, 1107
4319, 451, 545, 540, 1156
4320, 64, 65, 341, 257
4321, 633, 82, 81, 281
4322, 106, 107, 564, 335
4323, 359, 286, 316, 1138
4324, 231, 73, 72, 441
4325, 728, 782, 792, 1147
4326, 693, 787, 775, 1199
4327, 240, 239, 238, 1134
4328, 256, 71, 70, 550
4329, 23, 22, 705, 134
4330, 260, 253, 270, 1045
4331, 125, 581, 124, 378
4332, 26, 25, 780, 190
4333, 74, 73, 260, 438
4334, 777, 726, 728, 1094
4335, 167, 166, 168, 1128
4336, 87, 86, 625, 282
4337, 105, 287, 106, 421
4338, 221, 616, 1, 415
4339, 270, 366, 6, 615
4340, 222, 269, 4, 613
4341, 262, 72, 71, 430
4342, 223, 2, 816, 413
4343, 272, 815, 5, 368
4344, 400, 12, 11, 198
4345, 402, 93, 94, 342
4346, 414, 367, 7, 817
4347, 259, 67, 66, 546
4348, 188, 43, 42, 424
4349, 3, 271, 224, 813
4350, 63, 62, 253, 295
4351, 234, 53, 54, 746
4352, 35, 36, 511, 200
4353, 91, 92, 344, 640
4354, 412, 617, 8, 369
4355, 44, 45, 505, 192
4356, 33, 34, 258, 199
4357, 343, 98, 97, 530
4358, 634, 16, 15, 136
4359, 147, 51, 50, 437
4360, 144, 17, 18, 620
4361, 630, 59, 58, 228
4362, 562, 594, 425, 1180
4363, 101, 102, 422, 329
4364, 420, 39, 40, 135
4365, 146, 10, 11, 377
4366, 149, 29, 30, 783
4367, 376, 94, 95, 283
4368, 201, 52, 51, 583
4369, 527, 457, 611, 1113
4370, 621, 84, 83, 349
4371, 763, 83, 82, 346
4372, 191, 48, 47, 580
4373, 109, 562, 286, 110
4374, 804, 741, 738, 1176
4375, 139, 33, 32, 232
4376, 426, 69, 70, 230
4377, 435, 67, 68, 229
4378, 698, 696, 801, 1177
4379, 499, 593, 500, 1178
4380, 423, 45, 46, 141
4381, 108, 425, 351, 109
4382, 24, 23, 623, 189
4383, 63, 64, 291, 233
4384, 56, 57, 268, 626
4385, 88, 89, 277, 768
4386, 36, 37, 608, 143
4387, 137, 19, 20, 803
4388, 49, 48, 133, 428
4389, 202, 47, 46, 598
4390, 222, 4, 52, 613
4391, 815, 5, 61, 272
4392, 269, 66, 4, 613
4393, 270, 6, 74, 615
4394, 132, 1, 616, 415
4395, 4, 31, 269, 222
4396, 600, 43, 44, 142
4397, 412, 8, 93, 369
4398, 12, 2, 223, 413
4399, 817, 7, 414, 115
4400, 271, 34, 3, 224
4401, 88, 87, 762, 331
4402, 288, 99, 98, 606
4403, 90, 91, 292, 807
4404, 102, 103, 597, 290
4405, 25, 24, 798, 138
4406, 367, 92, 7, 817
4407, 55, 54, 635, 267
4408, 145, 42, 41, 603
4409, 28, 29, 210, 637
4410, 333, 85, 86, 802
4411, 271, 3, 53, 813
4412, 5, 65, 272, 368
4413, 366, 6, 62, 270
4414, 224, 30, 3, 813
4415, 617, 114, 8, 369
4416, 221, 1, 9, 415
4417, 225, 20, 21, 624
4418, 7, 96, 367, 414
4419, 1, 35, 616, 221
4420, 123, 816, 2, 413
4421, 366, 97, 6, 615
4422, 285, 107, 602, 108
4423, 8, 124, 617, 412
4424, 816, 13, 2, 223
4425, 815, 75, 5, 368
4426, 216, 26, 27, 628
4427, 110, 111, 568, 359
4428, 350, 80, 81, 797
4429, 195, 18, 19, 819
4430, 21, 22, 206, 800
4431, 101, 100, 289, 610
4432, 17, 16, 796, 215
4433, 808, 15, 14, 208
4434, 619, 40, 41, 203
4435, 77, 76, 806, 354
4436, 607, 112, 113, 355
4437, 38, 39, 596, 209
4438, 810, 79, 78, 358
4439, 975, 1051, 337, 290
4440, 337, 1051, 975, 880
4441, 1118, 827, 865, 996
4442, 1118, 865, 827, 1046
4443, 1140, 903, 384, 1056
4444, 1140, 384, 903, 987
4445, 975, 521, 880, 520
4446, 975, 880, 521, 947
4447, 1145, 396, 616, 415
4448, 1145, 616, 396, 1011
4449, 1180, 556, 498, 594
4450, 1180, 498, 556, 1089
4451, 949, 659, 761, 938
4452, 949, 761, 659, 680
4453, 1085, 934, 824, 999
4454, 1085, 824, 934, 905
4455, 1052, 521, 975, 519
4456, 1052, 975, 521, 947
4457, 1059, 920, 1150, 827
4458, 1059, 1150, 920, 848
4459, 992, 1120, 976, 832
4460, 976, 1120, 992, 905
4461, 979, 347, 334, 333
4462, 979, 334, 347, 954
4463, 1045, 291, 296, 894
4464, 1045, 296, 291, 295
4465, 589, 1068, 454, 453
4466, 454, 1068, 589, 964
4467, 1088, 1032, 882, 828
4468, 882, 1032, 1088, 855
4469, 882, 1055, 1088, 828
4470, 1088, 1055, 882, 855
4471, 1153, 911, 794, 979
4472, 1104, 191, 182, 202
4473, 1104, 182, 191, 904
4474, 1025, 1061, 840, 900
4475, 840, 1061, 1025, 1023
4476, 624, 137, 20, 803
4477, 624, 20, 137, 225
4478, 1129, 883, 578, 1006
4479, 1129, 578, 883, 983
4480, 1172, 846, 1131, 938
4481, 1172, 1131, 846, 932
4482, 1091, 922, 1015, 839
4483, 1091, 1015, 922, 1053
4484, 1173, 1099, 958, 642
4485, 1173, 958, 1099, 855
4486, 799, 1067, 795, 676
4487, 795, 1067, 799, 968
4488, 1140, 832, 935, 866
4489, 1140, 935, 832, 966
4490, 1063, 484, 1139, 936
4491, 1063, 1139, 484, 471
4492, 1188, 1028, 339, 322
4493, 1188, 339, 1028, 862
4494, 1113, 1082, 458, 457
4495, 1113, 458, 1082, 860
4496, 955, 475, 582, 463
4497, 955, 582, 475, 946
4498, 1152, 1137, 821, 871
4499, 1152, 821, 1137, 1006
4500, 919, 821, 1137, 871
4501, 919, 1137, 821, 1006
4502, 1003, 689, 1049, 686
4503, 1003, 1049, 689, 891
4504, 1144, 177, 179, 178
4505, 1144, 179, 177, 994
4506, 731, 267, 1103, 227
4507, 1103, 267, 731, 635
4508, 279, 1084, 806, 632
4509, 279, 806, 1084, 923
4510, 715, 806, 1084, 632
4511, 715, 1084, 806, 923
4512, 1125, 299, 300, 923
4513, 1125, 300, 299, 298
4514, 1187, 834, 1081, 888
4515, 1187, 1081, 834, 1019
4516, 1043, 984, 1148, 824
4517, 1043, 1148, 984, 868
4518, 1002, 1113, 964, 860
4519, 964, 1113, 1002, 924
4520, 1003, 794, 1153, 911
4521, 1003, 1153, 794, 756
4522, 1155, 924, 1005, 820
4523, 1155, 1005, 924, 1113
4524, 1038, 1151, 839, 1028
4525, 839, 1151, 1038, 972
4526, 1039, 722, 720, 812
4527, 1039, 720, 722, 1034
4528, 344, 1080, 309, 292
4529, 309, 1080, 344, 915
4530, 1056, 1140, 1047, 407
4531, 1047, 1140, 1056, 854
4532, 1167, 195, 211, 164
4533, 1167, 211, 195, 951
4534, 1066, 957, 732, 929
4535, 1066, 732, 957, 998
4536, 1024, 743, 974, 744
4537, 1024, 974, 743, 902
4538, 1143, 1097, 411, 410
4539, 1143, 411, 1097, 888
4540, 1087, 1098, 1141, 592
4541, 1141, 1098, 1087, 857
4542, 1106, 535, 548, 931
4543, 1106, 548, 535, 565
4544, 626, 1195, 748, 708
4545, 748, 1195, 626, 998
4546, 990, 1133, 1085, 901
4547, 1085, 1133, 990, 905
4548, 1193, 500, 977, 893
4549, 1193, 977, 500, 576
4550, 1099, 1074, 264, 249
4551, 1099, 264, 1074, 855
4552, 969, 1169, 827, 851
4553, 969, 827, 1169, 920
4554, 973, 827, 1169, 851
4555, 973, 1169, 827, 920
4556, 348, 1028, 327, 326
4557, 327, 1028, 348, 933
4558, 1135, 575, 586, 502
4559, 1135, 586, 575, 934
4560, 1069, 1165, 496, 486
4561, 496, 1165, 1069, 863
4562, 989, 381, 401, 418
4563, 989, 401, 381, 915
4564, 1079, 993, 1105, 838
4565, 1079, 1105, 993, 861
4566, 1124, 833, 887, 1008
4567, 1124, 887, 833, 1009
4568, 1196, 1083, 1139, 488
4569, 1196, 1139, 1083, 887
4570, 1120, 1121, 493, 587
4571, 1120, 493, 1121, 934
4572, 575, 493, 1121, 587
4573, 575, 1121, 493, 934
4574, 1125, 300, 301, 1014
4575, 1125, 301, 300, 298
4576, 892, 1059, 1073, 912
4577, 892, 1073, 1059, 835
4578, 1030, 1073, 1059, 912
4579, 1030, 1059, 1073, 835
4580, 1110, 783, 733, 637
4581, 1110, 733, 783, 1020
4582, 520, 1189, 612, 522
4583, 612, 1189, 520, 880
4584, 1171, 1063, 871, 901
4585, 1171, 871, 1063, 1152
4586, 836, 874, 1186, 1040
4587, 836, 1186, 874, 1043
4588, 1182, 925, 1078, 878
4589, 1182, 1078, 925, 1122
4590, 1144, 176, 184, 991
4591, 1144, 184, 176, 178
4592, 1038, 365, 347, 325
4593, 1038, 347, 365, 954
4594, 1139, 484, 555, 936
4595, 1139, 555, 484, 566
4596, 1036, 1070, 1171, 842
4597, 1171, 1070, 1036, 907
4598, 1058, 1096, 1067, 852
4599, 1067, 1096, 1058, 917
4600, 233, 295, 1045, 291
4601, 1045, 295, 233, 253
4602, 1045, 894, 233, 291
4603, 1177, 686, 1012, 1003
4604, 1177, 1012, 686, 696
4605, 709, 379, 122, 399
4606, 122, 379, 709, 638
4607, 1187, 691, 790, 779
4608, 1187, 790, 691, 941
4609, 1145, 439, 510, 511
4610, 1145, 510, 439, 1011
4611, 225, 800, 1010, 624
4612, 1010, 800, 225, 206
4613, 1165, 897, 485, 1089
4614, 1165, 485, 897, 985
4615, 429, 359, 1138, 568
4616, 1138, 359, 429, 284
4617, 1186, 311, 357, 314
4618, 1186, 357, 311, 988
4619, 454, 1082, 457, 456
4620, 457, 1082, 454, 964
4621, 1151, 278, 345, 972
4622, 1151, 345, 278, 349
4623, 413, 198, 12, 400
4624, 12, 198, 413, 223
4625, 1165, 573, 489, 472
4626, 1165, 489, 573, 1085
4627, 1183, 1148, 915, 868
4628, 1183, 915, 1148, 903
4629, 1186, 340, 361, 314
4630, 1186, 361, 340, 965
4631, 1160, 1101, 1084, 875
4632, 1160, 1084, 1101, 909
4633, 1151, 83, 763, 346
4634, 1151, 763, 83, 621
4635, 285, 425, 108, 602
4636, 108, 425, 285, 351
4637, 282, 802, 979, 333
4638, 979, 802, 282, 625
4639, 1175, 317, 315, 332
4640, 1175, 315, 317, 1040
4641, 215, 620, 1158, 796
4642, 1158, 620, 215, 144
4643, 599, 1159, 920, 448
4644, 920, 1159, 599, 1117
4645, 1174, 744, 793, 1024
4646, 1174, 793, 744, 700
4647, 344, 807, 1080, 292
4648, 1080, 807, 344, 640
4649, 746, 267, 1103, 635
4650, 1103, 267, 746, 234
4651, 610, 329, 975, 289
4652, 975, 329, 610, 422
4653, 233, 1045, 275, 894
4654, 275, 1045, 233, 253

*NSET, NSET=CONSTRAINT_1
1, 2, 7, 8, 9, 10, 11, 12, 93, 94, 95, 96, 115, 116, 117, 118
119, 120, 121, 122, 123, 124, 125, 126, 127, 128, 129, 130, 131, 132, 370, 371
372, 373, 374, 375, 376, 377, 378, 379, 380, 381, 382, 383, 384, 385, 386, 387
388, 389, 390, 391, 392, 393, 394, 395, 396, 397, 398, 399, 400, 401, 402, 403
404, 405, 406, 407, 408, 409, 410, 411, 412, 413, 414, 415, 416, 417, 418, 419

*NSET, NSET=DLOAD_1
664, 665, 666, 667, 668, 669, 670, 671, 672, 675, 684, 685, 687, 688, 766, 772
1170

*NSET, NSET=DLOAD_2
643, 644, 645, 646, 647, 648, 649, 650, 651, 652, 653, 674, 676, 708, 729, 735
739, 745, 748, 765, 799

*MATERIAL, NAME=STRUCTURAL_STEEL
*ELASTIC
200000.000000, 0.300000

*SOLID SECTION, ELSET=ALL_ELEMENTS, MATERIAL=STRUCTURAL_STEEL

*BOUNDARY
CONSTRAINT_1, 1, 3

*STEP, NLGEOM=NO
*STATIC
0.1, 1.0

*CLOAD
DLOAD_1, 2, 3000.000000

*CLOAD
DLOAD_2, 2, 3000.000000

*NODE FILE
U, RF
*EL FILE
S, E

*END STEP
