*HEADING
Cylindrical cantilever beam (axis along y). Left end fully fixed, right end has a vertical roller (z free, x+y locked). Distributed downward load at mid-span. Roller relieves vertical reaction at far end.

*NODE, NSET=ALL_NODES
1, 20.000000, 0.000000, 0.000000
2, 20.000000, 100.000000, 0.000000
3, 19.258347, 0.000000, -5.395936
4, 17.088388, 0.000000, -10.391679
5, 13.651063, 0.000000, -14.616719
6, 9.201301, 0.000000, -17.757704
7, 4.069120, 0.000000, -19.581682
8, -1.364848, 0.000000, -19.953375
9, -6.697592, 0.000000, -18.845219
10, -11.533607, 0.000000, -16.339397
11, -15.514226, 0.000000, -12.621758
12, -18.344227, 0.000000, -7.968022
13, -19.813719, 0.000000, -2.723333
14, -19.813719, 0.000000, 2.723333
15, -18.344227, 0.000000, 7.968022
16, -15.514226, 0.000000, 12.621758
17, -11.533607, 0.000000, 16.339397
18, -6.697592, 0.000000, 18.845219
19, -1.364848, 0.000000, 19.953375
20, 4.069120, 0.000000, 19.581682
21, 9.201301, 0.000000, 17.757704
22, 13.651063, 0.000000, 14.616719
23, 17.088388, 0.000000, 10.391679
24, 19.258347, 0.000000, 5.395936
25, 20.000000, 5.555555, 0.000000
26, 20.000000, 11.111111, 0.000000
27, 20.000000, 16.666666, 0.000000
28, 20.000000, 22.222221, 0.000000
29, 20.000000, 27.777779, 0.000000
30, 20.000000, 33.333332, 0.000000
31, 20.000000, 38.888889, 0.000000
32, 20.000000, 44.444443, 0.000000
33, 20.000000, 50.000000, 0.000000
34, 20.000000, 55.555557, 0.000000
35, 20.000000, 61.111111, 0.000000
36, 20.000000, 66.666664, 0.000000
37, 20.000000, 72.222221, 0.000000
38, 20.000000, 77.777779, 0.000000
39, 20.000000, 83.333336, 0.000000
40, 20.000000, 88.888885, 0.000000
41, 20.000000, 94.444443, 0.000000
42, 19.258347, 100.000000, -5.395936
43, 17.088388, 100.000000, -10.391679
44, 13.651063, 100.000000, -14.616719
45, 9.201301, 100.000000, -17.757704
46, 4.069120, 100.000000, -19.581682
47, -1.364848, 100.000000, -19.953375
48, -6.697592, 100.000000, -18.845219
49, -11.533607, 100.000000, -16.339397
50, -15.514226, 100.000000, -12.621758
51, -18.344227, 100.000000, -7.968022
52, -19.813719, 100.000000, -2.723333
53, -19.813719, 100.000000, 2.723333
54, -18.344227, 100.000000, 7.968022
55, -15.514226, 100.000000, 12.621758
56, -11.533607, 100.000000, 16.339397
57, -6.697592, 100.000000, 18.845219
58, -1.364848, 100.000000, 19.953375
59, 4.069120, 100.000000, 19.581682
60, 9.201301, 100.000000, 17.757704
61, 13.651063, 100.000000, 14.616719
62, 17.088388, 100.000000, 10.391679
63, 19.258347, 100.000000, 5.395936
64, -17.084064, 4.687789, -10.398785
65, -17.153011, 4.684500, 10.284657
66, -19.999979, 95.308365, 0.028997
67, 19.421297, 47.222221, 4.776322
68, 19.375778, 47.332603, -4.957744
69, -9.201301, 95.286728, 17.757704
70, -9.670241, 95.341873, -17.506754
71, 19.313175, 63.914608, 5.196271
72, 19.331890, 30.640806, 5.126206
73, 19.421297, 63.888889, -4.776322
74, 19.421297, 30.555555, -4.776322
75, 6.697592, 95.286728, 18.845219
76, 6.741412, 95.363579, -18.829588
77, 1.364848, 4.713271, -19.953375
78, 1.364848, 4.713271, 19.953375
79, 19.421297, 80.555557, 4.776322
80, 19.421297, 80.555557, -4.776322
81, 19.421297, 19.444445, -4.776322
82, 19.338148, 19.492472, 5.102553
83, -19.999998, 4.688380, 0.008027
84, -9.196574, 4.709477, -17.760153
85, -17.089117, 95.295418, 10.390480
86, -17.073780, 95.308083, -10.415663
87, -9.201301, 4.713271, 17.757704
88, 11.459299, 4.590448, 16.391598
89, 11.533607, 4.713271, -16.339397
90, 15.514226, 95.286728, 12.621758
91, 15.514226, 95.286728, -12.621758
92, 19.421297, 8.333333, -4.776322
93, 19.421297, 8.333333, 4.776322
94, 19.421297, 91.666664, -4.776322
95, 19.471310, 91.605606, 4.568163
96, 19.422264, 86.104141, -4.772387
97, 17.728348, 83.333321, -9.257735
98, 17.725523, 77.803131, -9.263144
99, 15.022384, 80.573471, -13.203333
100, 15.017719, 75.055229, -13.208638
101, 11.460803, 77.820503, -16.390545
102, 11.454311, 72.309669, -16.395082
103, 7.250462, 75.070107, -18.639496
104, 7.242390, 69.566940, -18.642633
105, 2.633641, 72.325577, -19.825840
106, 2.623910, 66.829277, -19.827129
107, -2.127586, 69.584053, -19.886513
108, -2.137327, 64.094582, -19.885468
109, -6.763368, 66.846268, -18.821712
110, -6.773158, 61.362076, -18.818192
111, -11.014569, 64.111916, -16.693689
112, -11.022213, 58.632145, -16.688643
113, -14.640085, 61.379601, -13.626001
114, -14.646422, 55.902931, -13.619189
115, -17.438673, 58.649189, -9.792481
116, -17.443266, 53.174095, -9.784298
117, -14.655513, 50.428795, -13.609406
118, -17.448067, 47.701450, -9.775733
119, -14.663351, 44.957222, -13.600961
120, -17.452898, 42.231052, -9.767107
121, -14.670996, 39.487774, -13.592714
122, -17.457212, 36.763645, -9.759393
123, -17.436014, 64.124733, -9.797215
124, -19.252836, 61.394722, -5.415561
125, -19.257912, 44.974129, -5.397482
126, -14.678694, 34.020485, -13.584400
127, -11.070095, 36.744263, -16.656919
128, -2.151836, 58.620384, -19.883904
129, -19.250547, 66.869240, -5.423692
130, -19.986376, 64.139145, -0.738070
131, -17.462519, 31.298132, -9.749895
132, -11.077816, 31.274824, -16.651787
133, -6.844387, 34.002697, -18.792402
134, -19.986151, 69.614548, -0.744160
135, -19.599089, 66.882843, 3.984438
136, -19.597771, 61.412758, 3.990908
137, -6.844788, 28.466835, -18.792255
138, -2.230119, 31.199001, -19.875275
139, -19.600758, 72.358376, 3.976222
140, -18.112059, 69.627136, 8.482529
141, -6.756885, 72.332321, -18.824041
142, -19.252565, 72.342720, -5.416525
143, -19.262928, 34.038906, -5.379554
144, -19.265676, 28.575270, -5.369704
145, -19.987793, 31.315720, -0.698638
146, -2.219068, 36.733768, -19.876513
147, -11.164623, 25.761255, -16.593710
148, -19.988079, 25.852579, -0.690434
149, -19.591394, 28.592979, 4.022100
150, -19.594055, 34.061947, 4.009113
151, -18.100515, 31.331379, 8.507133
152, -18.104895, 36.808918, 8.497812
153, -15.589245, 34.073902, 12.528984
154, -15.596414, 39.554668, 12.520060
155, -12.201978, 36.824181, 15.846505
156, -12.209333, 42.307121, 15.840839
157, -8.123090, 39.573105, 18.276089
158, -8.132802, 45.063740, 18.271769
159, -8.114729, 34.082058, 18.279802
160, -3.573727, 36.835941, 19.678122
161, -3.565562, 31.343367, 19.679604
162, 1.182468, 34.098370, 19.965014
163, 1.187670, 28.602171, 19.964705
164, 7.227929, 64.081932, -18.648245
165, 1.169574, 39.594803, 19.965773
166, -18.094185, 25.865404, 8.520592
167, -3.555849, 25.849874, 19.681360
168, -1.895072, 25.586767, -19.910015
169, 2.571078, 33.929977, -19.834051
170, 2.545079, 39.471828, -19.837404
171, -18.115360, 75.102814, 8.475479
172, -15.607387, 72.372604, 12.506378
173, -15.606588, 66.898453, 12.507374
174, -12.219222, 69.640770, 15.833212
175, -12.224087, 75.122124, 15.829457
176, -8.146553, 72.388962, 18.265642
177, -8.136682, 66.902130, 18.270042
178, -3.598641, 69.654938, 19.673580
179, -3.591424, 64.168243, 19.674900
180, 1.157530, 66.917755, 19.966475
181, 1.147121, 72.418152, 19.967075
182, 1.151323, 61.427193, 19.966833
183, 2.640115, 77.824394, -19.824980
184, 5.866621, 36.855385, 19.120218
185, 5.855967, 42.361588, 19.123484
186, 5.841872, 69.676994, 19.127794
187, 5.923811, 75.311157, 19.102577
188, 1.286024, 78.061760, 19.958611
189, -12.220035, 47.797985, 15.832585
190, 1.193469, 23.110241, 19.964359
191, 5.871075, 25.859201, 19.118851
192, -19.269060, 23.113672, -5.357548
193, 7.148767, 36.721710, -18.678736
194, 7.161175, 42.221371, -18.673981
195, 7.232681, 31.066750, -18.646402
196, -19.601381, 77.831032, 3.973142
197, 10.196634, 72.437675, 17.205482
198, 10.188296, 77.941780, 17.210423
199, 10.228391, 39.613678, 17.186623
200, -2.213116, 42.229118, -19.877176
201, 10.222365, 45.128403, 17.190208
202, 10.209086, 66.929649, 17.198097
203, 5.875756, 20.366600, 19.117413
204, -3.547508, 20.363668, 19.682865
205, 11.372179, 39.461479, -16.452160
206, -19.988403, 20.391405, -0.680971
207, 11.381238, 44.969101, -16.445894
208, -18.113146, 42.287354, 8.480207
209, 10.223639, 23.117149, 17.189449
210, -18.116262, 80.574593, 8.473551
211, -8.159042, 61.415585, 18.260067
212, 5.849286, 47.876972, 19.125528
213, 10.197012, 50.614330, 17.205259
214, 7.165483, 47.729912, -18.672329
215, 11.388454, 50.479324, -16.440897
216, -19.270018, 17.742626, -5.354105
217, -8.089953, 23.097347, 18.290781
218, -8.082954, 17.620461, 18.293875
219, 10.219079, 17.636288, 17.192162
220, 11.473314, 83.328796, -16.381790
221, -19.583351, 83.153519, 4.061080
222, 13.990120, 69.694649, 14.292534
223, 14.200994, 64.074005, 14.083032
224, 14.012300, 42.376892, 14.270789
225, 14.012482, 36.858685, 14.270612
226, -19.987936, 80.560959, -0.694564
227, -8.145573, 50.547935, 18.266079
228, -12.230849, 53.279537, 15.824232
229, -15.612590, 50.531075, 12.499882
230, -15.617745, 56.003036, 12.493440
231, -12.163824, 20.350594, 15.875812
232, -12.159580, 14.881390, 15.879062
233, -15.559274, 17.608564, 12.566185
234, -18.118847, 53.258713, 8.468021
235, 7.155193, 53.225758, -18.676273
236, -3.545095, 14.886428, 19.683300
237, -17.475819, 20.373621, -9.726035
238, 2.538981, 50.473763, -19.838184
239, 11.392912, 55.988285, -16.437809
240, 14.963463, 53.228367, -13.270070
241, -11.051908, 47.682594, -16.668993
242, 15.009249, 69.541855, -13.218263
243, 14.963644, 58.736568, -13.269866
244, 10.278038, 61.443974, 17.156979
245, 14.283767, 58.708641, 13.999071
246, 6.028010, 14.752666, 19.069952
247, 14.937710, 42.198971, -13.299053
248, 14.943759, 36.686069, -13.292255
249, -8.157312, 77.871773, 18.260839
250, -12.230309, 80.601318, 15.824650
251, -8.169169, 83.348740, 18.255539
252, -12.136721, 86.089859, 15.896541
253, -19.972174, 14.932148, -1.054651
254, 13.999772, 20.374146, 14.283080
255, 14.129561, 14.905566, 14.154698
256, 14.285219, 25.966732, 13.997589
257, -17.642254, 14.924869, -9.420770
258, -14.811549, 17.600399, -13.439420
259, 17.003599, 39.621849, 10.529843
260, -20.000000, 86.224129, 0.002904
261, -19.312693, 83.356064, -5.198064
262, -15.448380, 12.167561, -12.702266
263, -11.216980, 14.934347, -16.558363
264, -18.124504, 86.037987, 8.455908
265, -12.173569, 25.823706, 15.868340
266, 17.667809, 39.415771, -9.372757
267, 17.683823, 55.962967, -9.342507
268, -19.615969, 17.636930, 3.900486
269, -19.771168, 12.182056, 3.016777
270, 5.796442, 53.361877, 19.141611
271, -3.600041, 47.820564, 19.673325
272, -3.622287, 53.303833, 19.669241
273, -19.248976, 88.745476, -5.429266
274, -17.086119, 86.209175, -10.395411
275, -17.437267, 80.598961, -9.794984
276, -14.591119, 83.226257, -13.678423
277, -14.643103, 77.808655, -13.622758
278, -11.010446, 80.527290, -16.696409
279, -11.042054, 86.007401, -16.675522
280, -6.793689, 83.270790, -18.810789
281, -15.600392, 12.269263, 12.515101
282, -7.120935, 88.631371, -18.689363
283, -2.337701, 86.026382, -19.862909
284, -1.770045, 91.527176, -19.921520
285, 2.537124, 88.730957, -19.838423
286, 17.127340, 23.080933, 10.327352
287, 17.045973, 34.057667, 10.461109
288, 17.059961, 66.916306, 10.438282
289, 16.980343, 72.475616, 10.567305
290, -8.180063, 88.820412, 18.250660
291, -3.481770, 86.056206, 19.694601
292, -3.830331, 91.630241, 19.629787
293, 0.925457, 88.849380, 19.978577
294, 17.403456, 45.227402, 9.854933
295, 19.296709, 36.759789, 5.257091
296, 19.119299, 69.712433, 5.869619
297, 17.317322, 61.128040, 10.005516
298, 16.988289, 55.474098, 10.554528
299, 19.374331, 57.181534, 4.963399
300, -11.768903, 9.205149, 16.170742
301, 17.659327, 33.877937, -9.388725
302, 15.020448, 31.003136, -13.205535
303, 1.050521, 94.309471, 19.972391
304, 17.668337, 50.449467, -9.371759
305, 17.383068, 28.614588, 9.890851
306, 19.233965, 25.097986, 5.482208
307, 17.275341, 17.220463, 10.077827
308, 17.083210, 11.582996, 10.400189
309, 19.216084, 13.896643, 5.544557
310, 17.358770, 6.185363, 9.933432
311, 17.352110, 89.588150, -9.945064
312, -12.182178, 31.335171, 15.861732
313, 19.429312, 86.100441, 4.743607
314, 17.732437, 83.340019, 9.249902
315, 17.397451, 89.605370, 9.865529
316, 14.962063, 86.085243, 13.271649
317, 15.020596, 80.599525, 13.205367
318, 11.474626, 83.368111, 16.380873
319, 11.487491, 88.866142, 16.371853
320, 6.726791, 81.939713, 18.834816
321, 19.422075, 13.894502, -4.773152
322, 17.723518, 16.650440, -9.266979
323, 17.724964, 22.198931, -9.264212
324, 15.019989, 19.428747, -13.206057
325, 15.023282, 13.910871, -13.202310
326, 11.467064, 16.668058, -16.386168
327, 11.462794, 22.170170, -16.389154
328, 7.268639, 19.411503, -18.632416
329, 7.275144, 13.919962, -18.629875
330, 2.673242, 16.656942, -19.820539
331, 2.679593, 11.173870, -19.819681
332, -3.317308, 13.705994, -19.722967
333, -2.076224, 19.383278, -19.891941
334, 7.258937, 24.908312, -18.636196
335, 6.856583, 8.285149, -18.787956
336, 11.462728, 27.828398, -16.389200
337, 19.418224, 24.977871, -4.788797
338, 17.721533, 27.777687, -9.270777
339, 14.954544, 86.062805, -13.280121
340, 11.472990, 88.834785, -16.382017
341, 2.545547, 44.971458, -19.837343
342, -8.101739, 28.573376, 18.285563
343, 7.216996, 85.995605, -18.652479
344, 7.208741, 80.570312, -18.655670
345, -18.117506, 47.779106, 8.470891
346, -19.604998, 50.513424, 3.955254
347, -19.601826, 45.031933, 3.970944
348, -19.596682, 39.545853, 3.996255
349, 17.717091, 77.817474, 9.279263
350, -19.266001, 77.838661, -5.368536
351, 1.184654, 17.512577, 19.964884
352, -15.606526, 45.037354, 12.507451
353, -2.121414, 75.075699, -19.887173
354, 2.660745, 22.141817, -19.822220
355, -6.778868, 22.457672, -18.816135
356, -2.213643, 47.714085, -19.877117
357, -15.611201, 77.853378, 12.501616
358, -19.987284, 75.090080, -0.713062
359, -15.584473, 83.518257, 12.534920
360, 19.421297, 75.000000, -4.776322
361, 19.421883, 69.440224, -4.773936
362, 11.466493, 11.179976, -16.386566
363, 15.028891, 8.006349, -13.195925
364, 17.746840, 10.982546, -9.222240
365, -11.007027, 69.593307, -16.698664
366, -14.698052, 28.552532, -13.563453
367, -8.088083, 12.151208, 18.291607
368, -4.235620, 7.663117, 19.546343
369, 0.806514, 10.818772, 19.983732
370, 6.152052, 9.205885, 19.030298
371, -17.436216, 69.603027, -9.796853
372, -14.635159, 66.859299, -13.631292
373, -14.637648, 72.334198, -13.628620
374, 17.724279, 66.666664, -9.265524
375, -6.837078, 39.479774, -18.795063
376, -15.565945, 23.079279, 12.557920
377, -15.572480, 28.559372, 12.549815
378, -12.215485, 64.152481, 15.836096
379, -17.471598, 25.836857, -9.733615
380, -19.258894, 39.503098, -5.393977
381, 1.733315, 83.342384, 19.924749
382, -11.016094, 75.064445, -16.692682
383, -19.592184, 23.125546, 4.018253
384, -19.251205, 55.922516, -5.421352
385, -19.253000, 50.444160, -5.414976
386, -3.273802, 80.664360, 19.730236
387, 2.604119, 61.357517, -19.829739
388, -18.095894, 20.406012, 8.516960
389, -18.256741, 14.884050, 8.166483
390, -3.556079, 75.170586, 19.681318
391, 11.441285, 66.807846, -16.404177
392, -11.039519, 53.159885, -16.677200
393, -6.792449, 55.888779, -18.811237
394, -11.062428, 42.210701, -16.662012
395, -19.986383, 58.667473, -0.737912
396, 14.126679, 47.767151, 14.157576
397, -18.110474, 64.159424, 8.485912
398, 17.726686, 72.271355, -9.260917
399, 2.808375, 27.972767, -19.801844
400, -14.738194, 23.086727, -13.519823
401, -19.987186, 36.778358, -0.715801
402, 5.869635, 31.356306, 19.119293
403, 10.226723, 34.109417, 17.187616
404, 5.867814, 64.181168, 19.119852
405, -6.770934, 77.795334, -18.818993
406, -3.585808, 42.323414, 19.675924
407, 14.942972, 47.719856, -13.293140
408, 15.010112, 24.929207, -13.217282
409, 11.439914, 33.876900, -16.405132
410, -17.442453, 75.095703, -9.785747
411, 14.121599, 75.229462, 14.162642
412, 10.378919, 28.578909, 17.096142
413, -2.181761, 80.535416, -19.880642
414, 13.579442, 8.971342, 14.683282
415, 19.347183, 75.006409, 5.068182
416, 1.162662, 45.080654, 19.966177
417, 2.531211, 83.274628, -19.839178
418, -6.818049, 44.938450, -18.801973
419, 14.323147, 31.329504, 13.958776
420, -19.600349, 55.961922, 3.978226
421, -18.113829, 58.710648, 8.478750
422, -15.610032, 61.457478, 12.503076
423, 1.140799, 50.573544, 19.967438
424, -2.186493, 53.170849, -19.880121
425, -19.258347, 4.713271, 5.395936
426, -19.257833, 95.157196, -5.397761
427, -19.258347, 95.286728, 5.395936
428, -19.777836, 90.700386, 2.972741
429, -19.258406, 4.697173, -5.395722
430, -19.813719, 9.426542, -2.723333
431, -18.343695, 9.427299, -7.969244
432, -13.661777, 95.303329, 14.606705
433, -15.496725, 90.552773, 12.643240
434, -13.640569, 4.674869, -14.626513
435, -13.754395, 95.307655, -14.519526
436, -15.516253, 90.567894, -12.619267
437, -12.239465, 58.718586, 15.817570
438, 11.618084, 95.142143, -16.279438
439, -4.076411, 4.699647, -19.580166
440, -6.697592, 9.433921, -18.845219
441, -19.986715, 42.246731, -0.728842
442, 11.563107, 95.149368, 16.318533
443, -6.817099, 50.409660, -18.802319
444, -19.986095, 47.721764, -0.745635
445, -8.163479, 55.982723, 18.258083
446, 2.572148, 55.916729, -19.833912
447, -19.985811, 53.187046, -0.753209
448, -3.616756, 58.736935, 19.670259
449, 1.121017, 56.001011, 19.968557
450, 7.215662, 58.654476, -18.652994
451, 19.388895, 53.210529, -4.906195
452, 11.417559, 61.398869, -16.420698
453, 19.378769, 36.660667, -4.946043
454, 17.651041, 44.958199, -9.404295
455, -18.408976, 9.329854, 7.817264
456, 5.861367, 58.783115, 19.121830
457, -11.181869, 20.355902, -16.582094
458, 15.015121, 64.138420, -13.211591
459, 18.097252, 5.149257, -8.514076
460, 1.469130, 95.346039, -19.945969
461, 10.344350, 56.067272, 17.117079
462, -6.894549, 16.729963, -18.774057
463, -13.651063, 4.512992, 14.616719
464, 18.823572, 52.168316, 6.758189
465, 17.737898, 61.332916, -9.239425
466, 10.206486, 12.418777, 17.199640
467, 14.125867, 53.286877, 14.158385
468, 19.372957, 58.549103, -4.968752
469, -11.387403, 9.325456, -16.441626
470, 19.176702, 42.131260, 5.679268
471, 19.358782, 41.942032, -5.023703
472, 18.248367, 95.421494, -8.185177
473, 18.248367, 95.421494, 8.185177
474, -11.533759, 91.034210, -16.339291
475, -18.394384, 90.964447, 7.851537
476, 6.873219, 4.310733, 18.781876
477, 16.715614, 50.490467, 10.981268
478, -1.725207, 9.012134, -19.925453
479, -4.069120, 95.965019, -19.581682
480, -11.963773, 90.936256, 16.027107
481, 5.189236, 86.464417, 19.315067
482, 6.697592, 3.795038, -18.845219
483, 14.696672, 90.758667, -13.564948
484, -4.069120, 96.220047, 19.581682
485, 7.523293, 90.739876, -18.531057
486, 14.705994, 90.767967, 13.554842
487, 14.528747, 4.283742, 13.744655
488, 5.037156, 91.044754, 19.355286
489, -19.260756, 13.232375, -5.387331
490, 15.514226, 3.567559, -12.621758
491, -19.970150, 91.080322, -1.092298
492, -17.689440, 91.084366, -9.331866
493, -19.813719, 8.079270, 2.723333
494, -4.069120, 3.341328, 19.581682
495, -15.515203, 8.046304, -12.620559
496, 19.053066, 4.250682, 6.081173
497, 19.548672, 4.195207, -4.224863
498, 19.588564, 95.914162, -4.035858
499, 19.588564, 95.914162, 4.035858
500, -15.438203, 7.877153, 12.714633
501, 8.915760, 91.828522, 17.902771
502, 9.838311, 8.227518, 17.412859
503, -14.025677, 87.202881, -14.257643
504, -6.356800, 92.730896, -18.962887
505, 8.937865, 86.152321, 17.891747
506, -19.454674, 87.125206, 4.638494
507, 4.089880, 92.380516, -19.577356
508, 19.786102, 52.810406, 2.917220
509, -8.088437, 13.064091, -18.291451
510, -7.868487, 8.284727, 18.387140
511, -10.407682, 0.000000, 11.034371
512, 8.675062, 0.000000, -12.061914
513, 11.710733, 0.000000, 9.527389
514, -13.404501, 0.000000, -8.436738
515, -2.975797, 0.000000, -14.759282
516, 0.954713, 0.000000, 15.246670
517, 14.956156, 0.000000, -2.055676
518, -14.705426, 0.000000, 3.849371
519, 14.579077, 0.000000, 5.808330
520, 9.837440, 0.000000, 4.585774
521, 6.465904, 0.000000, 8.142545
522, 4.812502, 0.000000, 3.272681
523, 1.175568, 0.000000, 6.974144
524, -0.466541, 0.000000, 2.011922
525, 3.245642, 0.000000, -1.918023
526, -2.059793, 0.000000, -3.153676
527, 1.451695, 0.000000, -6.901399
528, -5.746168, 0.000000, 0.815727
529, 6.988036, 0.000000, -6.127311
530, -3.850057, 0.000000, -9.134608
531, 8.414595, 0.000000, -0.626229
532, -3.889069, 0.000000, 5.873855
533, -7.208317, 0.000000, -4.281502
534, -10.664688, 0.000000, 0.069259
535, -2.283735, 0.000000, 11.326122
536, -9.394930, 0.000000, 5.667222
537, 8.191931, 0.000000, 12.805567
538, -8.601110, 0.000000, -8.917584
539, -15.750304, 0.000000, -0.431539
540, 0.027709, 0.000000, -11.401332
541, 1.647141, 0.000000, -15.307014
542, 4.088669, 0.000000, -11.189643
543, 12.091871, 0.000000, -8.427031
544, -13.673298, 0.000000, 8.228149
545, 16.207495, 0.000000, 2.049468
546, -3.317578, 0.000000, 15.965060
547, -6.776567, 0.000000, 13.844292
548, -7.489493, 0.000000, -13.345456
549, 3.142925, 0.000000, 11.441031
550, -11.286553, 0.000000, -12.039042
551, -15.716783, 0.000000, -4.770838
552, 5.595149, 0.000000, -15.225104
553, -6.419210, 0.000000, 9.555578
554, 5.111645, 0.000000, 15.480618
555, 11.387127, 0.000000, -3.813405
556, 12.243891, 0.000000, 1.098751
557, -11.432500, 0.000000, -4.338014
558, 15.244425, 0.000000, -5.950402
559, -10.407682, 100.000000, 11.034371
560, 8.675062, 100.000000, -12.061914
561, 11.710733, 100.000000, 9.527389
562, -13.404501, 100.000000, -8.436738
563, -2.975797, 100.000000, -14.759282
564, 0.954713, 100.000000, 15.246670
565, 14.956156, 100.000000, -2.055676
566, -14.705426, 100.000000, 3.849371
567, 14.579077, 100.000000, 5.808330
568, 9.837440, 100.000000, 4.585774
569, 6.465904, 100.000000, 8.142545
570, 4.812502, 100.000000, 3.272681
571, 1.175568, 100.000000, 6.974144
572, -0.466541, 100.000000, 2.011922
573, 3.245642, 100.000000, -1.918023
574, -2.059793, 100.000000, -3.153676
575, 1.451695, 100.000000, -6.901399
576, -5.746168, 100.000000, 0.815727
577, 6.988036, 100.000000, -6.127311
578, -3.850057, 100.000000, -9.134608
579, 8.414595, 100.000000, -0.626229
580, -3.889069, 100.000000, 5.873855
581, -7.208317, 100.000000, -4.281502
582, -10.664688, 100.000000, 0.069259
583, -2.283735, 100.000000, 11.326122
584, -9.394930, 100.000000, 5.667222
585, 8.191931, 100.000000, 12.805567
586, -8.601110, 100.000000, -8.917584
587, -15.750304, 100.000000, -0.431539
588, 0.027709, 100.000000, -11.401332
589, 1.647141, 100.000000, -15.307014
590, 4.088669, 100.000000, -11.189643
591, 12.091871, 100.000000, -8.427031
592, -13.673298, 100.000000, 8.228149
593, 16.207495, 100.000000, 2.049468
594, -3.317578, 100.000000, 15.965060
595, -6.776567, 100.000000, 13.844292
596, -7.489493, 100.000000, -13.345456
597, 3.142925, 100.000000, 11.441031
598, -11.286553, 100.000000, -12.039042
599, -15.716783, 100.000000, -4.770838
600, 5.595149, 100.000000, -15.225104
601, -6.419210, 100.000000, 9.555578
602, 5.111645, 100.000000, 15.480618
603, 11.387127, 100.000000, -3.813405
604, 12.243891, 100.000000, 1.098751
605, -11.432500, 100.000000, -4.338014
606, 15.244425, 100.000000, -5.950402
607, -0.018858, 51.798611, -0.011710
608, -0.021335, 29.945509, -0.003307
609, 0.000675, 71.806686, 0.000932
610, -4.819108, 15.487494, -1.342583
611, -3.885108, 85.171913, -4.085526
612, -5.754147, 40.871101, -4.192676
613, 1.316976, 40.874599, 6.987193
614, 0.977576, 87.344688, 7.404228
615, -7.062791, 61.434818, 3.472257
616, -1.160814, 61.729553, -7.599241
617, 4.653963, 12.153045, 6.042119
618, 6.568314, 20.038439, -3.962392
619, 6.569298, 42.159851, -4.161367
620, 5.365255, 61.793976, 5.417074
621, 7.591248, 81.497658, -1.268410
622, -2.397774, 21.892492, 8.142157
623, -6.865101, 79.292793, 5.266747
624, -7.980821, 46.326138, 4.908784
625, 8.253343, 57.514606, -4.154089
626, -7.928372, 35.472939, 4.969084
627, -7.544417, 24.887779, -5.756011
628, -0.052846, 76.756668, -9.505658
629, 0.018167, 10.519996, -9.483435
630, -4.779937, 9.949316, 8.911885
631, 9.386399, 10.124515, -2.944170
632, 0.479177, 48.407566, -9.843358
633, -8.654057, 55.187645, -4.655099
634, 9.139211, 67.933868, -3.380347
635, -1.484607, 55.243996, 9.684332
636, -9.798137, 69.605431, -2.340166
637, -8.718772, 89.533218, 4.114738
638, -1.832964, 68.076241, 9.540689
639, 1.130845, 34.725677, -9.377344
640, 8.755112, 47.924213, 4.418561
641, 2.765707, 77.228661, 8.328099
642, 9.061140, 34.672096, 3.034976
643, 7.211296, 24.694548, 5.315652
644, 1.995708, 90.389259, -10.096870
645, 0.469562, 31.350138, 10.263990
646, 9.602431, 90.580574, 1.849715
647, 1.081756, 24.941139, -10.511164
648, 8.715273, 29.612700, -5.505518
649, -9.799894, 26.095453, 3.564271
650, -8.729115, 77.730904, -6.555161
651, -8.590083, 8.921822, -6.600097
652, 9.019444, 70.557388, 5.750054
653, -10.452792, 33.153976, -3.425529
654, -10.878459, 9.684646, 2.169416
655, 3.705676, 68.682983, -10.461287
656, -5.165182, 69.462296, -9.960253
657, 0.470369, 8.368295, -0.821299
658, 0.951559, 91.589424, -0.366772
659, 8.990232, 83.569519, 7.230702
660, -9.648582, 70.454788, 6.377738
661, -9.425255, 91.621437, -6.355658
662, -11.362735, 47.235542, -2.921529
663, 8.367074, 75.535309, -7.586510
664, 8.709461, 49.696537, -7.707847
665, -9.610652, 17.604317, 5.665227
666, -5.691322, 17.304609, -9.992786
667, -11.309203, 54.032864, 3.372825
668, 3.918032, 56.025921, -11.292243
669, 3.240822, 48.212940, 10.970594
670, -11.801765, 83.089989, -0.617631
671, 6.879663, 83.602745, -9.362338
672, 11.381896, 16.670660, 2.597233
673, -9.687615, 62.957863, -7.221752
674, 4.902748, 18.935909, 10.894419
675, -4.925332, 91.923668, 11.186908
676, -3.094967, 41.396603, -11.847587
677, -12.022429, 19.245502, -1.949339
678, 7.864735, 54.763962, 8.970635
679, 9.724471, 91.870659, -6.645182
680, -4.069011, 54.909729, -11.283744
681, 4.136309, 17.371119, -11.329626
682, 7.459720, 91.937180, 9.728909
683, -5.931250, 40.940769, 10.600154
684, -0.102314, 79.893387, 0.800377
685, -6.781049, 31.490196, -9.978454
686, -2.585014, 84.013535, -11.965382
687, -0.058142, 21.836163, 0.368849
688, -7.388646, 47.938675, -9.693325
689, -12.410571, 39.977787, 0.175352
690, 0.771727, 37.943844, -0.493160
691, -0.103103, 59.746334, 0.024587
692, -7.006154, 28.780499, 10.457185
693, -4.231521, 75.382027, 11.720321
694, -4.790764, 48.522411, 11.600811
695, 12.275596, 74.860306, -0.386533
696, 12.114243, 54.799038, 2.247458
697, 7.098343, 36.861294, 10.510448
698, -12.607254, 75.700874, 1.482529
699, 4.500707, 42.132111, -11.514357
700, 1.753886, 61.782406, 12.260577
701, -4.227844, 83.197006, 11.505500
702, 12.381700, 24.408241, -0.728600
703, -5.773210, 61.427578, 11.002398
704, 11.365080, 7.923504, 4.562926
705, 12.554440, 41.650234, 1.161010
706, 2.140620, 7.864197, 12.273685
707, 8.478054, 62.840855, -9.565948
708, 8.832686, 36.508839, -8.744320
709, 12.303823, 62.709656, 1.681911
710, -1.956777, 44.698025, 0.900522
711, -13.098907, 61.403297, -0.828269
712, 7.382801, 7.622332, -10.217232
713, 4.693770, 70.913498, 11.841246
714, -9.175524, 85.149010, -9.407363
715, 8.305998, 23.829859, -9.987692
716, 12.862569, 48.588196, -1.692665
717, -3.584489, 65.802849, -2.060145
718, -8.611560, 54.972050, 9.911926
719, -13.092075, 93.199799, -0.326183
720, -5.711508, 16.542440, 11.601640
721, 2.731446, 15.200494, -0.216782
722, -0.129697, 37.783772, 13.219208
723, 7.483122, 29.648401, 10.565639
724, -1.935596, 15.377352, 5.209742
725, 10.189248, 15.244285, -7.989856
726, -5.126317, 6.575401, -12.294161
727, -4.986792, 90.876053, -12.066827
728, 1.733718, 24.930584, 13.093466
729, -9.783909, 37.528694, -8.909235
730, 1.573080, 93.444748, 13.070304
731, 13.245961, 84.533417, 1.677994
732, 5.631419, 75.568619, 2.069604
733, -0.124341, 18.423214, -5.805536
734, -13.319449, 26.669447, -2.373116
735, -5.911415, 75.512161, -0.545220
736, 3.050798, 86.028625, -4.042802
737, 5.286261, 55.820698, 1.857897
738, 3.448380, 65.746376, 0.002450
739, 4.644045, 84.491600, 12.629478
740, 12.757145, 34.914268, -3.034009
741, -3.672066, 34.262573, -4.330833
742, 5.668540, 30.018780, -11.741480
743, -11.634809, 40.924580, 6.876156
744, -12.930984, 12.795930, -3.353328
745, -0.042766, 55.275181, -5.836561
746, -4.894860, 52.329212, 4.633593
747, 5.717878, 48.474792, -1.682342
748, 2.711884, 62.450073, -13.129411
749, 11.063384, 77.124069, 5.998332
750, -4.869630, 48.796196, -3.537463
751, -13.264427, 31.902657, 2.662829
752, -11.369349, 64.106522, 7.949819
753, -10.962322, 94.010620, 8.376590
754, 11.737095, 85.545334, -4.932159
755, -11.034749, 6.183452, 7.915047
756, 0.339012, 6.674893, 5.793982
757, -1.081473, 93.659424, 5.815566
758, 10.875532, 42.230404, 7.971642
759, -5.607634, 25.007376, -12.443320
760, -2.705089, 93.618202, -6.004503
761, 7.820412, 64.824005, 11.092437
762, 8.533584, 6.387719, 10.537031
763, -5.519365, 63.243542, -12.487740
764, -3.499052, 85.452461, 2.677344
765, 0.280111, 42.785236, -6.272448
766, -9.324092, 22.506874, 10.212100
767, -6.010956, 76.104996, -12.418109
768, 5.298546, 25.950924, -1.011910
769, -3.686705, 73.324966, 5.375378
770, 6.046142, 42.158466, 2.477607
771, 12.140484, 29.288307, 5.695036
772, 2.614306, 34.016842, 4.555160
773, -13.339208, 6.218788, -2.887734
774, 10.824418, 13.397005, 8.469936
775, 10.952885, 20.064035, 8.323335
776, -1.104615, 60.925194, 6.408727
777, 0.512421, 14.426358, 13.796087
778, 5.410273, 77.823090, -12.976778
779, -0.494646, 72.125771, -14.093359
780, 13.012125, 62.486938, -4.836934
781, -11.972205, 83.830772, 6.241538
782, -3.551293, 27.551411, 5.000105
783, 6.186425, 35.091366, -2.895124
784, 6.260074, 5.949736, 0.996661
785, -13.903196, 47.773037, 2.936411
786, -5.938303, 6.445487, -0.976211
787, 11.407771, 43.827869, -8.123967
788, 13.879462, 93.604256, -1.975932
789, -4.097855, 5.618237, 13.356495
790, -6.568048, 93.354767, -0.735479
791, -10.952346, 71.889595, -8.304610
792, -13.343303, 66.895073, 2.504350
793, 4.780363, 86.216431, 2.235769
794, 3.169005, 76.716888, -3.847609
795, 2.075767, 5.699099, -12.840714
796, -5.731610, 34.773922, 12.362282
797, -11.115387, 20.550400, -8.864651
798, 2.293001, 47.884796, 4.584521
799, -0.732004, 44.129925, 13.914249
800, 10.183921, 55.982506, -10.047912
801, 13.192126, 18.543318, -3.315799
802, 13.120788, 79.259720, -5.008245
803, -6.496553, 21.415382, 0.587232
804, -2.018028, 28.221731, -5.895460
805, 6.227284, 42.815712, 12.734674
806, -7.692159, 67.430977, 11.942491
807, -11.541155, 43.511486, -8.001431
808, 5.534618, 18.540264, 4.508303
809, 5.538995, 50.222942, -13.123131
810, 2.605919, 70.777145, 5.774575
811, 3.557654, 55.772156, 13.626184
812, -6.280633, 28.955217, -0.965925
813, 5.801848, 94.342850, -12.849019
814, -11.861512, 29.075216, -7.986418
815, -10.236140, 75.969208, 9.577440
816, -13.913576, 52.890450, -2.188971
817, 11.953806, 94.372963, 6.183938
818, 3.918403, 94.280251, -5.375390
819, -1.064078, 30.363811, -13.983112
820, 9.899759, 69.658241, -9.446322
821, -9.623512, 57.561558, -10.331094
822, -0.437604, 94.472511, -13.882845
823, 4.599699, 13.070633, -5.900623
824, -0.314763, 71.288177, -6.309424
825, 13.607471, 5.736545, -3.819484
826, -4.689316, 67.256767, 3.977141
827, -6.649486, 40.890938, 2.255797
828, -0.593187, 87.640877, 14.019407
829, 4.965994, 93.877365, 4.368963
830, 13.139491, 68.904167, 1.336228
831, -4.136520, 12.529851, -13.581024
832, 3.127182, 85.596710, -13.944367
833, 2.885910, 6.059025, -6.131147
834, 11.302951, 60.162521, 7.622705
835, -14.194168, 14.965298, 2.357431
836, -12.078928, 51.238617, -7.726369
837, -9.743275, 88.167831, 10.083244
838, -5.300986, 56.558979, 0.254743
839, -9.116092, 94.759148, -11.190432
840, 6.224122, 12.488271, 12.484005
841, -4.353368, 24.151537, 13.519257
842, -11.575254, 50.052921, 8.027215
843, -1.199116, 19.912748, -13.632522
844, 4.396708, 62.250542, -4.984797
845, -11.245627, 5.021623, -9.591211
846, -2.963847, 79.098267, -4.601837
847, 13.193888, 53.828865, -5.039893
848, -3.251845, 5.869363, -6.478937
849, 4.349305, 11.693748, -13.694772
850, -13.759682, 21.470478, 3.446549
851, -3.510944, 35.746025, -14.027589
852, -3.462778, 46.926796, -14.085277
853, -2.373879, 36.037201, 7.428021
854, -13.433382, 59.440468, 4.817751
855, -14.090774, 87.859909, 2.135958
856, -12.111007, 31.311966, 8.510505
857, 0.593056, 79.689293, 13.814649
858, 0.065503, 52.090572, -14.488254
859, -10.545426, 12.329590, 8.860946
860, 9.338038, 48.967934, 10.466001
861, -0.926000, 51.914196, 14.566692
862, -1.271432, 81.371567, 6.550914
863, -14.049104, 75.093895, -4.300478
864, -2.515016, 45.420364, 7.067285
865, -9.904170, 45.271095, 11.038850
866, 8.100457, 78.828888, 11.312757
867, -13.715543, 95.047279, -6.070738
868, -1.010275, 71.227692, 14.536312
869, -13.328548, 86.963081, -5.194901
870, -10.886027, 14.112676, -9.026995
871, -5.860672, 5.583022, 4.952993
872, 1.827967, 26.351412, 7.295424
873, 13.781683, 71.315956, -4.916414
874, -13.770582, 57.840473, -5.364146
875, -5.118858, 11.031608, 2.707997
876, 3.072106, 37.168846, -14.408710
877, -8.592237, 87.907364, -1.793829
878, 14.397269, 30.039305, 0.139193
879, 14.385831, 13.020662, -1.169235
880, 13.127804, 24.988575, -6.637914
881, -5.612350, 60.084427, -4.308670
882, -13.554648, 67.142197, -6.307381
883, -1.204926, 66.415619, -14.671284
884, -13.863994, 37.568493, -4.847510
885, 0.095883, 79.566597, -14.606810
886, 8.023050, 23.882816, 11.756058
887, 0.018833, 55.754353, 4.159307
888, -7.229453, 80.717072, -0.608345
889, 1.373841, 82.217148, -8.102547
890, -0.416355, 57.882458, -14.501135
891, -3.412389, 34.425434, 1.469534
892, -4.354829, 12.877928, -6.497510
893, 7.525254, 89.057739, -11.210182
894, 3.078528, 30.933842, -5.459573
895, 0.688766, 48.099277, -4.213165
896, -10.757804, 36.515846, 10.356612
897, -4.256217, 57.059700, 14.288919
898, 3.918690, 33.771667, 14.233152
899, 4.829109, 80.828705, 4.312514
900, -0.623064, 19.969452, 14.759833
901, 1.585602, 23.844845, -4.879056
902, 12.710526, 88.200523, 6.395059
903, -13.253370, 81.239624, -5.881034
904, -6.580542, 95.026146, 4.777398
905, -8.257582, 50.159687, 0.711901
906, 12.568678, 65.889603, 6.690698
907, 6.456725, 72.316910, -13.782275
908, 5.027139, 52.977070, -4.991647
909, 7.043917, 61.266262, -0.018441
910, -9.611073, 81.478088, 10.851475
911, 12.223764, 9.836115, -7.969521
912, -2.994195, 29.567886, 14.350740
913, -2.585534, 64.883476, 14.152074
914, 12.338665, 36.454288, 7.689594
915, -7.146757, 19.288059, -4.869444
916, 6.130394, 29.804707, 3.079437
917, 14.773230, 58.114429, -1.588219
918, 4.528847, 71.233986, -3.362727
919, 7.893569, 59.284622, 12.447617
920, 14.277104, 4.879150, 1.359769
921, 13.893228, 40.394032, -4.267605
922, -5.634306, 73.086769, -5.645595
923, -14.504621, 5.436060, 2.530677
924, -4.646953, 87.425949, 7.819051

*ELEMENT, TYPE=C3D4, ELSET=ALL_ELEMENTS
1, 647, 681, 334, 715
2, 306, 771, 702, 775
3, 689, 743, 152, 751
4, 348, 689, 152, 751
5, 646, 579, 679, 818
6, 404, 700, 180, 713
7, 79, 731, 695, 749
8, 646, 679, 579, 788
9, 632, 699, 341, 809
10, 632, 341, 699, 852
11, 334, 647, 354, 681
12, 328, 334, 681, 715
13, 635, 678, 669, 887
14, 328, 334, 354, 681
15, 656, 673, 372, 763
16, 630, 777, 367, 789
17, 277, 650, 278, 714
18, 678, 798, 669, 887
19, 152, 689, 348, 743
20, 640, 798, 770, 805
21, 627, 647, 733, 759
22, 652, 713, 411, 866
23, 196, 670, 221, 781
24, 354, 681, 647, 843
25, 620, 638, 761, 810
26, 613, 770, 798, 805
27, 627, 733, 666, 759
28, 180, 713, 700, 913
29, 632, 664, 619, 699
30, 669, 798, 640, 805
31, 38, 695, 79, 731
32, 642, 705, 295, 740
33, 632, 809, 341, 852
34, 676, 688, 394, 807
35, 646, 579, 818, 829
36, 679, 736, 646, 818
37, 196, 698, 670, 781
38, 635, 669, 798, 887
39, 613, 798, 669, 805
40, 631, 672, 618, 721
41, 617, 672, 631, 721
42, 650, 278, 714, 767
43, 619, 664, 632, 895
44, 372, 673, 656, 791
45, 348, 152, 150, 751
46, 698, 792, 134, 863
47, 210, 698, 781, 815
48, 620, 638, 700, 761
49, 635, 678, 620, 811
50, 702, 771, 643, 775
51, 372, 365, 656, 763
52, 316, 659, 682, 902
53, 222, 411, 652, 713
54, 663, 671, 99, 778
55, 631, 672, 617, 704
56, 640, 770, 758, 805
57, 642, 740, 295, 878
58, 652, 709, 620, 738
59, 636, 134, 792, 863
60, 341, 676, 200, 699
61, 686, 714, 278, 767
62, 676, 699, 341, 852
63, 620, 678, 635, 887
64, 658, 646, 736, 818
65, 635, 620, 700, 811
66, 756, 762, 521, 784
67, 278, 650, 277, 767
68, 776, 810, 738, 826
69, 295, 705, 642, 914
70, 170, 341, 200, 699
71, 676, 394, 729, 807
72, 630, 720, 367, 777
73, 662, 689, 125, 807
74, 99, 671, 663, 802
75, 699, 787, 207, 809
76, 372, 111, 365, 763
77, 700, 713, 404, 761
78, 619, 632, 699, 765
79, 709, 738, 652, 830
80, 636, 792, 698, 863
81, 652, 411, 749, 866
82, 326, 715, 681, 725
83, 618, 672, 631, 801
84, 125, 807, 689, 884
85, 646, 736, 679, 754
86, 666, 733, 647, 759
87, 632, 765, 619, 895
88, 127, 676, 394, 729
89, 627, 733, 647, 901
90, 210, 171, 698, 815
91, 82, 702, 672, 775
92, 326, 324, 715, 725
93, 636, 615, 711, 717
94, 620, 738, 776, 810
95, 40, 788, 646, 902
96, 676, 741, 729, 851
97, 127, 375, 394, 676
98, 139, 171, 660, 698
99, 666, 733, 627, 915
100, 40, 646, 731, 902
101, 171, 140, 139, 660
102, 180, 868, 713, 913
103, 166, 766, 649, 856
104, 422, 437, 718, 752
105, 40, 731, 646, 788
106, 620, 635, 700, 776
107, 341, 852, 809, 858
108, 464, 67, 640, 696
109, 450, 707, 668, 800
110, 164, 391, 655, 707
111, 319, 682, 659, 739
112, 673, 791, 372, 882
113, 316, 659, 319, 682
114, 450, 452, 707, 800
115, 394, 688, 676, 852
116, 302, 715, 648, 742
117, 152, 751, 743, 896
118, 635, 776, 620, 887
119, 695, 731, 38, 802
120, 636, 711, 673, 717
121, 703, 718, 437, 752
122, 612, 741, 676, 765
123, 715, 725, 324, 880
124, 295, 642, 878, 914
125, 643, 618, 702, 808
126, 125, 662, 441, 689
127, 276, 277, 278, 714
128, 101, 663, 99, 778
129, 436, 714, 503, 839
130, 40, 754, 731, 788
131, 186, 404, 180, 713
132, 392, 443, 680, 688
133, 617, 724, 630, 777
134, 464, 640, 477, 696
135, 617, 630, 706, 777
136, 529, 712, 631, 825
137, 725, 801, 324, 880
138, 296, 652, 749, 830
139, 619, 765, 639, 783
140, 638, 810, 776, 826
141, 283, 727, 686, 832
142, 529, 631, 712, 833
143, 620, 738, 709, 909
144, 673, 717, 711, 881
145, 666, 759, 647, 843
146, 618, 643, 702, 768
147, 648, 715, 302, 880
148, 612, 729, 676, 741
149, 620, 776, 638, 810
150, 200, 676, 341, 852
151, 619, 699, 639, 765
152, 164, 707, 655, 748
153, 441, 689, 662, 785
154, 666, 647, 733, 843
155, 618, 631, 721, 823
156, 616, 824, 717, 844
157, 422, 752, 718, 854
158, 650, 714, 277, 903
159, 82, 306, 702, 775
160, 127, 676, 729, 851
161, 316, 659, 318, 739
162, 653, 612, 827, 891
163, 196, 210, 698, 781
164, 615, 636, 711, 792
165, 280, 686, 278, 767
166, 618, 643, 768, 808
167, 619, 639, 699, 708
168, 375, 676, 127, 851
169, 672, 702, 618, 808
170, 631, 784, 529, 825
171, 664, 207, 787, 809
172, 67, 640, 696, 716
173, 639, 676, 741, 765
174, 594, 484, 675, 730
175, 99, 754, 671, 802
176, 717, 824, 738, 844
177, 668, 707, 450, 748
178, 620, 709, 652, 906
179, 301, 708, 648, 740
180, 529, 784, 631, 833
181, 611, 644, 686, 727
182, 145, 653, 143, 884
183, 611, 644, 727, 760
184, 639, 765, 690, 783
185, 669, 635, 798, 864
186, 737, 798, 678, 887
187, 222, 713, 652, 761
188, 283, 284, 727, 832
189, 166, 377, 766, 856
190, 475, 719, 427, 753
191, 522, 756, 521, 784
192, 40, 95, 788, 902
193, 634, 738, 709, 830
194, 746, 798, 635, 864
195, 145, 751, 653, 884
196, 339, 671, 99, 754
197, 139, 698, 660, 792
198, 711, 717, 615, 881
199, 713, 761, 638, 810
200, 640, 477, 696, 860
201, 143, 653, 145, 734
202, 639, 741, 676, 851
203, 149, 734, 649, 850
204, 372, 656, 365, 791
205, 618, 631, 725, 801
206, 619, 639, 708, 783
207, 662, 827, 750, 905
208, 401, 751, 145, 884
209, 603, 579, 679, 788
210, 112, 393, 763, 821
211, 680, 763, 393, 821
212, 736, 754, 646, 793
213, 319, 659, 316, 739
214, 640, 696, 678, 860
215, 284, 822, 727, 832
216, 196, 226, 221, 670
217, 615, 703, 718, 776
218, 134, 863, 636, 882
219, 338, 301, 648, 740
220, 475, 719, 753, 855
221, 632, 745, 680, 750
222, 323, 324, 801, 880
223, 669, 694, 635, 864
224, 809, 852, 632, 858
225, 276, 277, 714, 903
226, 631, 617, 721, 784
227, 648, 708, 302, 742
228, 144, 143, 145, 734
229, 420, 816, 395, 854
230, 617, 762, 756, 784
231, 302, 648, 301, 708
232, 139, 660, 140, 792
233, 280, 278, 686, 714
234, 444, 441, 662, 785
235, 338, 648, 74, 740
236, 422, 718, 230, 854
237, 174, 175, 176, 806
238, 612, 750, 662, 827
239, 612, 689, 653, 827
240, 520, 521, 762, 784
241, 395, 816, 711, 854
242, 625, 847, 696, 908
243, 222, 197, 411, 713
244, 710, 747, 619, 895
245, 610, 654, 651, 786
246, 616, 655, 824, 844
247, 327, 681, 326, 715
248, 484, 595, 594, 675
249, 649, 734, 149, 751
250, 164, 391, 104, 655
251, 652, 695, 634, 732
252, 680, 688, 443, 852
253, 166, 649, 149, 751
254, 651, 654, 610, 744
255, 101, 99, 671, 778
256, 648, 74, 740, 878
257, 74, 878, 648, 880
258, 632, 680, 688, 750
259, 603, 679, 579, 818
260, 216, 257, 677, 744
261, 226, 670, 196, 698
262, 361, 780, 73, 830
263, 617, 631, 704, 784
264, 585, 75, 602, 730
265, 175, 176, 806, 815
266, 727, 822, 644, 832
267, 436, 503, 474, 839
268, 635, 718, 703, 776
269, 230, 667, 234, 854
270, 664, 787, 699, 809
271, 696, 747, 737, 908
272, 521, 549, 706, 756
273, 653, 741, 612, 891
274, 230, 718, 667, 854
275, 626, 653, 827, 891
276, 666, 681, 629, 843
277, 650, 714, 686, 767
278, 139, 134, 698, 792
279, 649, 766, 166, 850
280, 234, 667, 230, 718
281, 174, 175, 806, 815
282, 738, 810, 652, 918
283, 627, 687, 804, 812
284, 652, 634, 738, 918
285, 678, 696, 477, 860
286, 401, 145, 143, 884
287, 627, 803, 687, 812
288, 619, 747, 710, 770
289, 207, 664, 407, 809
290, 149, 649, 166, 850
291, 634, 652, 738, 830
292, 629, 681, 666, 733
293, 693, 806, 176, 815
294, 653, 689, 626, 827
295, 633, 680, 745, 750
296, 216, 677, 257, 797
297, 327, 326, 324, 715
298, 393, 763, 680, 890
299, 686, 714, 650, 846
300, 750, 827, 710, 905
301, 361, 780, 830, 873
302, 652, 732, 634, 918
303, 338, 74, 648, 880
304, 650, 767, 686, 846
305, 407, 664, 207, 787
306, 125, 444, 441, 662
307, 634, 695, 652, 830
308, 220, 101, 99, 671
309, 28, 672, 702, 801
310, 210, 171, 196, 698
311, 573, 818, 579, 829
312, 666, 629, 831, 843
313, 152, 856, 751, 896
314, 503, 714, 474, 839
315, 622, 724, 674, 777
316, 521, 756, 706, 762
317, 626, 743, 751, 896
318, 620, 700, 638, 776
319, 693, 810, 641, 868
320, 694, 746, 635, 864
321, 732, 652, 810, 918
322, 660, 698, 171, 815
323, 520, 762, 704, 784
324, 678, 620, 811, 919
325, 638, 810, 693, 868
326, 700, 811, 620, 919
327, 710, 619, 765, 895
328, 649, 751, 166, 856
329, 112, 393, 110, 763
330, 568, 579, 604, 817
331, 488, 730, 682, 739
332, 641, 857, 713, 866
333, 684, 732, 641, 769
334, 393, 110, 763, 890
335, 641, 713, 652, 866
336, 729, 741, 685, 851
337, 205, 699, 708, 787
338, 228, 694, 189, 842
339, 690, 710, 619, 765
340, 688, 750, 612, 765
341, 633, 688, 680, 750
342, 643, 702, 672, 808
343, 636, 792, 134, 882
344, 627, 647, 804, 901
345, 347, 743, 689, 785
346, 658, 736, 646, 793
347, 640, 705, 67, 758
348, 697, 770, 642, 772
349, 566, 427, 719, 753
350, 309, 704, 672, 879
351, 106, 164, 104, 655
352, 618, 725, 631, 823
353, 678, 737, 640, 798
354, 654, 786, 610, 875
355, 228, 718, 694, 842
356, 134, 142, 863, 882
357, 616, 656, 655, 883
358, 309, 672, 704, 774
359, 615, 636, 792, 826
360, 654, 665, 610, 835
361, 319, 316, 318, 739
362, 681, 831, 629, 843
363, 656, 673, 616, 717
364, 615, 717, 636, 826
365, 257, 797, 677, 870
366, 612, 676, 688, 765
367, 436, 661, 714, 839
368, 655, 656, 616, 824
369, 625, 696, 737, 908
370, 106, 164, 655, 748
371, 450, 707, 452, 748
372, 717, 735, 636, 826
373, 197, 411, 713, 866
374, 609, 732, 684, 769
375, 111, 372, 673, 763
376, 101, 100, 99, 663
377, 738, 844, 824, 918
378, 280, 405, 686, 767
379, 619, 710, 690, 770
380, 646, 818, 658, 829
381, 215, 207, 407, 809
382, 667, 718, 234, 842
383, 347, 348, 689, 743
384, 609, 735, 717, 826
385, 611, 650, 888, 903
386, 257, 677, 744, 870
387, 611, 714, 650, 903
388, 501, 488, 682, 739
389, 304, 716, 664, 787
390, 478, 831, 795, 849
391, 521, 706, 549, 762
392, 613, 770, 697, 772
393, 630, 617, 706, 756
394, 420, 667, 816, 854
395, 619, 690, 765, 783
396, 579, 646, 604, 817
397, 213, 669, 270, 811
398, 575, 760, 588, 822
399, 615, 776, 746, 887
400, 627, 687, 803, 915
401, 279, 714, 686, 727
402, 658, 764, 757, 790
403, 280, 686, 405, 885
404, 213, 669, 811, 860
405, 214, 341, 699, 809
406, 695, 731, 621, 749
407, 219, 774, 674, 775
408, 207, 699, 205, 787
409, 30, 295, 740, 878
410, 615, 718, 667, 746
411, 220, 101, 671, 778
412, 641, 652, 749, 866
413, 145, 734, 653, 751
414, 131, 814, 729, 884
415, 617, 674, 724, 777
416, 379, 734, 192, 797
417, 401, 689, 751, 884
418, 296, 749, 415, 830
419, 345, 743, 785, 842
420, 824, 844, 655, 918
421, 718, 752, 615, 854
422, 131, 729, 122, 884
423, 149, 148, 734, 850
424, 39, 38, 731, 802
425, 376, 166, 377, 766
426, 611, 888, 670, 903
427, 336, 715, 302, 742
428, 831, 843, 681, 849
429, 367, 720, 630, 859
430, 715, 801, 725, 880
431, 296, 652, 289, 749
432, 415, 749, 695, 830
433, 196, 221, 210, 781
434, 757, 764, 637, 790
435, 611, 670, 714, 903
436, 649, 622, 766, 803
437, 627, 804, 687, 901
438, 626, 743, 689, 751
439, 652, 620, 761, 810
440, 612, 710, 750, 827
441, 345, 743, 842, 865
442, 326, 725, 681, 849
443, 610, 665, 654, 875
444, 463, 511, 755, 789
445, 644, 611, 736, 760
446, 192, 734, 677, 797
447, 611, 727, 661, 760
448, 615, 718, 703, 752
449, 686, 767, 405, 885
450, 475, 753, 837, 855
451, 597, 569, 682, 829
452, 649, 692, 626, 856
453, 300, 755, 630, 789
454, 187, 713, 857, 866
455, 394, 241, 688, 852
456, 79, 314, 731, 749
457, 215, 407, 664, 809
458, 640, 758, 294, 860
459, 330, 843, 831, 849
460, 227, 694, 718, 897
461, 638, 713, 700, 761
462, 674, 774, 219, 840
463, 659, 682, 646, 793
464, 614, 682, 659, 793
465, 634, 732, 695, 918
466, 672, 702, 643, 775
467, 669, 805, 640, 860
468, 721, 823, 657, 892
469, 655, 707, 391, 820
470, 691, 776, 738, 826
471, 99, 663, 100, 802
472, 619, 747, 664, 895
473, 665, 766, 622, 803
474, 476, 554, 706, 762
475, 552, 712, 482, 795
476, 67, 705, 640, 716
477, 641, 810, 713, 868
478, 338, 74, 301, 740
479, 597, 730, 571, 829
480, 659, 731, 314, 749
481, 572, 658, 757, 790
482, 660, 636, 735, 826
483, 636, 673, 656, 717
484, 626, 692, 649, 782
485, 666, 733, 681, 843
486, 611, 764, 658, 790
487, 222, 761, 652, 906
488, 652, 738, 620, 810
489, 623, 781, 698, 815
490, 234, 718, 230, 842
491, 126, 729, 131, 814
492, 654, 610, 744, 835
493, 597, 682, 730, 829
494, 131, 126, 122, 729
495, 641, 769, 732, 810
496, 646, 682, 659, 902
497, 633, 711, 667, 838
498, 427, 475, 428, 719
499, 402, 723, 728, 898
500, 391, 104, 655, 907
501, 625, 737, 745, 908
502, 628, 655, 663, 824
503, 648, 878, 642, 916
504, 704, 762, 617, 784
505, 615, 746, 838, 887
506, 709, 738, 634, 909
507, 402, 723, 191, 728
508, 625, 737, 691, 745
509, 603, 577, 679, 818
510, 327, 328, 326, 681
511, 632, 750, 688, 765
512, 79, 695, 415, 749
513, 693, 769, 641, 810
514, 31, 295, 705, 740
515, 233, 720, 665, 766
516, 149, 383, 148, 850
517, 583, 594, 675, 730
518, 285, 822, 284, 832
519, 368, 367, 777, 789
520, 469, 651, 726, 870
521, 270, 213, 212, 669
522, 638, 769, 693, 810
523, 280, 279, 278, 714
524, 746, 776, 635, 887
525, 157, 683, 406, 722
526, 644, 611, 686, 889
527, 670, 698, 226, 863
528, 233, 665, 720, 859
529, 603, 579, 577, 818
530, 345, 352, 743, 865
531, 611, 714, 686, 846
532, 647, 715, 334, 742
533, 469, 726, 831, 870
534, 621, 754, 736, 793
535, 609, 732, 769, 810
536, 612, 688, 676, 807
537, 323, 324, 322, 801
538, 771, 878, 642, 914
539, 328, 681, 327, 715
540, 422, 437, 230, 718
541, 585, 682, 75, 730
542, 475, 428, 719, 855
543, 661, 611, 714, 727
544, 338, 301, 302, 648
545, 640, 805, 758, 860
546, 624, 827, 662, 905
547, 324, 725, 322, 801
548, 521, 523, 549, 756
549, 464, 508, 67, 696
550, 416, 423, 212, 799
551, 619, 705, 770, 783
552, 642, 770, 705, 783
553, 175, 693, 176, 815
554, 147, 132, 366, 814
555, 670, 863, 226, 903
556, 98, 100, 398, 873
557, 622, 720, 724, 777
558, 593, 788, 499, 817
559, 665, 677, 610, 835
560, 617, 724, 657, 756
561, 669, 678, 635, 811
562, 628, 663, 655, 907
563, 611, 764, 790, 877
564, 664, 699, 632, 809
565, 604, 646, 579, 788
566, 697, 758, 642, 770
567, 630, 755, 300, 859
568, 656, 767, 365, 791
569, 639, 741, 690, 765
570, 613, 827, 690, 853
571, 616, 673, 656, 763
572, 306, 286, 771, 775
573, 141, 656, 109, 883
574, 129, 792, 130, 882
575, 394, 688, 119, 807
576, 270, 669, 212, 861
577, 691, 738, 717, 826
578, 187, 857, 713, 868
579, 624, 710, 827, 905
580, 632, 688, 676, 765
581, 677, 744, 610, 835
582, 686, 767, 628, 846
583, 40, 96, 754, 788
584, 214, 699, 207, 809
585, 399, 647, 334, 742
586, 172, 174, 806, 815
587, 450, 239, 452, 800
588, 619, 705, 716, 747
589, 392, 241, 443, 688
590, 648, 768, 878, 916
591, 649, 766, 665, 803
592, 129, 134, 792, 882
593, 625, 745, 691, 844
594, 374, 458, 780, 820
595, 651, 831, 726, 870
596, 367, 630, 300, 859
597, 631, 721, 657, 784
598, 647, 715, 894, 901
599, 358, 698, 134, 863
600, 238, 341, 809, 858
601, 601, 675, 595, 753
602, 734, 797, 379, 814
603, 656, 717, 616, 824
604, 626, 782, 649, 812
605, 619, 699, 664, 787
606, 126, 685, 127, 729
607, 408, 302, 715, 880
608, 186, 404, 713, 761
609, 707, 780, 458, 820
610, 642, 648, 740, 878
611, 117, 688, 392, 836
612, 132, 127, 126, 685
613, 621, 646, 754, 793
614, 130, 792, 711, 882
615, 280, 278, 405, 767
616, 129, 134, 130, 792
617, 286, 771, 775, 886
618, 280, 686, 279, 714
619, 663, 695, 621, 794
620, 339, 99, 97, 754
621, 386, 693, 701, 857
622, 601, 595, 559, 753
623, 171, 172, 140, 660
624, 394, 676, 418, 852
625, 283, 285, 284, 832
626, 300, 463, 755, 789
627, 648, 768, 702, 878
628, 660, 735, 769, 826
629, 715, 648, 894, 901
630, 624, 689, 662, 827
631, 622, 808, 687, 872
632, 726, 795, 478, 831
633, 549, 706, 554, 762
634, 298, 696, 678, 834
635, 611, 714, 670, 877
636, 67, 696, 508, 716
637, 72, 878, 771, 914
638, 667, 711, 633, 816
639, 768, 702, 878, 916
640, 355, 759, 666, 843
641, 617, 630, 724, 756
642, 644, 736, 611, 889
643, 298, 477, 678, 696
644, 172, 806, 660, 815
645, 662, 689, 624, 785
646, 501, 682, 319, 739
647, 79, 38, 415, 695
648, 622, 777, 674, 900
649, 640, 716, 705, 747
650, 571, 730, 757, 829
651, 166, 766, 376, 850
652, 700, 713, 638, 913
653, 369, 777, 706, 789
654, 658, 760, 611, 790
655, 615, 746, 667, 838
656, 640, 747, 705, 770
657, 619, 705, 747, 770
658, 657, 721, 617, 784
659, 97, 754, 99, 802
660, 636, 735, 717, 922
661, 227, 694, 228, 718
662, 622, 674, 724, 808
663, 394, 241, 119, 688
664, 610, 721, 657, 892
665, 621, 731, 695, 802
666, 573, 658, 818, 829
667, 593, 604, 788, 817
668, 289, 222, 411, 652
669, 621, 671, 663, 794
670, 409, 742, 708, 876
671, 141, 779, 656, 883
672, 316, 682, 486, 902
673, 365, 656, 141, 767
674, 664, 716, 304, 847
675, 227, 189, 228, 694
676, 731, 754, 646, 788
677, 386, 693, 249, 701
678, 609, 717, 735, 922
679, 270, 811, 669, 861
680, 282, 279, 686, 727
681, 631, 801, 672, 879
682, 82, 28, 672, 702
683, 658, 736, 611, 760
684, 617, 721, 657, 724
685, 715, 742, 647, 894
686, 347, 689, 441, 785
687, 205, 193, 708, 876
688, 633, 750, 745, 838
689, 289, 652, 411, 749
690, 683, 406, 722, 799
691, 640, 737, 696, 747
692, 659, 682, 614, 739
693, 714, 727, 474, 839
694, 618, 648, 768, 880
695, 277, 767, 650, 791
696, 618, 725, 715, 801
697, 654, 744, 269, 835
698, 612, 750, 688, 807
699, 399, 354, 334, 647
700, 255, 774, 219, 775
701, 663, 695, 794, 918
702, 686, 714, 611, 727
703, 623, 660, 698, 769
704, 365, 767, 382, 791
705, 648, 642, 783, 916
706, 635, 798, 746, 887
707, 613, 710, 690, 827
708, 612, 662, 750, 807
709, 109, 656, 365, 763
710, 711, 816, 667, 854
711, 141, 365, 109, 656
712, 621, 646, 731, 754
713, 233, 231, 720, 766
714, 172, 660, 171, 815
715, 294, 640, 67, 758
716, 645, 722, 697, 853
717, 648, 618, 715, 880
718, 645, 697, 772, 853
719, 669, 678, 640, 798
720, 101, 100, 663, 907
721, 469, 726, 651, 845
722, 437, 378, 703, 752
723, 394, 418, 241, 852
724, 688, 750, 662, 807
725, 616, 763, 680, 821
726, 627, 647, 759, 804
727, 597, 571, 569, 829
728, 695, 732, 621, 794
729, 732, 794, 695, 918
730, 623, 698, 735, 769
731, 563, 479, 822, 839
732, 338, 648, 302, 880
733, 657, 756, 724, 875
734, 277, 410, 650, 903
735, 713, 810, 638, 868
736, 713, 857, 641, 868
737, 572, 574, 658, 790
738, 660, 735, 698, 769
739, 345, 743, 208, 785
740, 205, 708, 699, 876
741, 642, 705, 740, 783
742, 437, 422, 378, 752
743, 358, 139, 134, 698
744, 637, 837, 753, 855
745, 277, 650, 410, 791
746, 622, 724, 687, 808
747, 670, 764, 637, 781
748, 616, 821, 680, 881
749, 469, 845, 651, 870
750, 612, 676, 729, 807
751, 667, 711, 615, 838
752, 618, 715, 681, 901
753, 572, 790, 757, 904
754, 339, 671, 754, 893
755, 683, 853, 827, 864
756, 213, 811, 678, 860
757, 99, 100, 98, 802
758, 189, 842, 694, 865
759, 648, 642, 740, 783
760, 682, 730, 614, 739
761, 298, 464, 477, 696
762, 217, 218, 231, 766
763, 321, 879, 725, 911
764, 399, 647, 742, 819
765, 217, 218, 766, 841
766, 692, 841, 872, 912
767, 679, 736, 671, 754
768, 28, 27, 672, 801
769, 173, 660, 172, 806
770, 706, 777, 630, 789
771, 780, 800, 267, 847
772, 764, 781, 670, 888
773, 166, 751, 149, 856
774, 617, 704, 672, 774
775, 286, 256, 771, 886
776, 402, 728, 163, 898
777, 575, 818, 760, 822
778, 681, 715, 647, 901
779, 111, 372, 113, 673
780, 648, 742, 715, 894
781, 692, 782, 626, 853
782, 106, 779, 655, 907
783, 391, 655, 820, 907
784, 733, 823, 721, 892
785, 345, 352, 208, 743
786, 158, 683, 694, 799
787, 683, 722, 157, 796
788, 608, 804, 687, 812
789, 663, 824, 655, 918
790, 583, 594, 595, 675
791, 326, 362, 725, 849
792, 409, 302, 708, 742
793, 347, 208, 348, 743
794, 692, 872, 645, 912
795, 672, 704, 631, 879
796, 827, 853, 613, 864
797, 160, 157, 406, 722
798, 636, 698, 660, 735
799, 674, 808, 622, 872
800, 679, 754, 311, 788
801, 697, 722, 613, 853
802, 730, 739, 488, 828
803, 697, 613, 772, 853
804, 628, 663, 794, 824
805, 227, 861, 694, 897
806, 465, 267, 780, 800
807, 207, 205, 247, 787
808, 463, 87, 511, 789
809, 450, 668, 239, 800
810, 457, 666, 355, 759
811, 361, 73, 36, 830
812, 727, 822, 504, 839
813, 709, 830, 652, 906
814, 626, 649, 751, 812
815, 125, 380, 807, 884
816, 233, 665, 388, 766
817, 612, 662, 689, 827
818, 643, 775, 771, 886
819, 646, 788, 604, 817
820, 345, 842, 352, 865
821, 553, 755, 511, 789
822, 39, 80, 38, 802
823, 648, 715, 618, 768
824, 616, 763, 821, 881
825, 321, 725, 322, 911
826, 91, 679, 560, 813
827, 106, 655, 779, 883
828, 680, 688, 633, 836
829, 659, 621, 731, 749
830, 692, 841, 782, 872
831, 227, 718, 445, 897
832, 607, 745, 750, 838
833, 388, 766, 665, 850
834, 620, 737, 678, 887
835, 617, 672, 721, 808
836, 671, 736, 679, 893
837, 535, 789, 756, 871
838, 158, 406, 683, 799
839, 237, 216, 257, 797
840, 660, 769, 693, 806
841, 290, 675, 701, 837
842, 420, 667, 346, 816
843, 619, 716, 705, 921
844, 566, 719, 584, 753
845, 354, 647, 168, 843
846, 552, 89, 482, 712
847, 667, 718, 615, 854
848, 233, 720, 232, 859
849, 399, 168, 354, 647
850, 618, 768, 702, 880
851, 127, 729, 685, 851
852, 693, 769, 638, 806
853, 534, 871, 786, 923
854, 296, 289, 415, 749
855, 194, 214, 341, 699
856, 233, 231, 232, 720
857, 690, 853, 827, 891
858, 477, 640, 294, 860
859, 321, 801, 725, 879
860, 614, 682, 793, 829
861, 366, 400, 147, 814
862, 720, 766, 218, 841
863, 290, 701, 675, 828
864, 462, 355, 666, 843
865, 622, 724, 665, 803
866, 104, 106, 655, 907
867, 661, 727, 714, 839
868, 106, 748, 655, 883
869, 547, 511, 87, 789
870, 657, 823, 629, 892
871, 501, 682, 488, 730
872, 507, 813, 644, 832
873, 200, 676, 851, 876
874, 617, 724, 674, 808
875, 646, 621, 731, 793
876, 206, 677, 192, 734
877, 218, 720, 231, 766
878, 686, 727, 644, 832
879, 663, 671, 621, 802
880, 629, 831, 681, 849
881, 614, 739, 730, 828
882, 160, 796, 722, 912
883, 382, 767, 277, 791
884, 656, 673, 636, 791
885, 642, 723, 697, 772
886, 200, 851, 146, 876
887, 40, 96, 731, 754
888, 640, 678, 669, 860
889, 622, 720, 777, 900
890, 619, 787, 716, 921
891, 280, 282, 279, 686
892, 683, 613, 853, 864
893, 439, 478, 726, 795
894, 585, 602, 597, 730
895, 584, 753, 719, 904
896, 640, 696, 716, 747
897, 611, 650, 714, 846
898, 612, 689, 662, 807
899, 722, 805, 184, 898
900, 430, 744, 654, 773
901, 374, 820, 780, 873
902, 642, 758, 697, 914
903, 490, 712, 543, 911
904, 339, 220, 99, 671
905, 626, 751, 856, 896
906, 664, 716, 619, 787
907, 158, 406, 157, 683
908, 322, 725, 321, 801
909, 344, 671, 220, 832
910, 194, 207, 214, 699
911, 610, 786, 651, 892
912, 126, 685, 729, 814
913, 551, 514, 64, 773
914, 677, 734, 206, 850
915, 636, 791, 673, 882
916, 586, 760, 661, 839
917, 644, 760, 736, 818
918, 610, 657, 786, 892
919, 407, 304, 664, 787
920, 243, 780, 707, 800
921, 639, 685, 741, 851
922, 657, 721, 631, 823
923, 553, 789, 535, 871
924, 330, 681, 843, 849
925, 205, 193, 409, 708
926, 430, 773, 654, 923
927, 477, 464, 67, 640
928, 583, 675, 601, 757
929, 356, 852, 341, 858
930, 520, 522, 521, 784
931, 248, 266, 247, 787
932, 619, 716, 664, 747
933, 163, 898, 728, 912
934, 736, 760, 658, 818
935, 655, 844, 634, 918
936, 646, 793, 682, 829
937, 157, 722, 160, 796
938, 173, 172, 174, 806
939, 248, 708, 266, 787
940, 660, 638, 769, 806
941, 158, 694, 683, 865
942, 100, 663, 820, 873
943, 760, 818, 644, 822
944, 111, 673, 113, 763
945, 692, 782, 645, 872
946, 695, 749, 652, 830
947, 737, 834, 696, 909
948, 668, 745, 625, 844
949, 642, 770, 690, 772
950, 101, 663, 778, 907
951, 193, 409, 708, 876
952, 295, 878, 72, 914
953, 628, 778, 663, 907
954, 213, 461, 678, 811
955, 362, 712, 725, 849
956, 186, 713, 180, 868
957, 410, 863, 650, 903
958, 300, 87, 463, 789
959, 336, 408, 302, 715
960, 572, 658, 573, 829
961, 657, 610, 786, 875
962, 736, 764, 684, 793
963, 144, 131, 143, 814
964, 594, 564, 484, 730
965, 622, 649, 782, 803
966, 270, 212, 423, 861
967, 151, 166, 149, 856
968, 149, 166, 383, 850
969, 69, 595, 675, 753
970, 621, 671, 794, 889
971, 692, 766, 377, 856
972, 674, 777, 203, 900
973, 608, 687, 768, 872
974, 419, 723, 697, 914
975, 690, 770, 642, 783
976, 94, 311, 754, 788
977, 249, 701, 693, 910
978, 215, 664, 240, 800
979, 757, 790, 637, 904
980, 132, 127, 685, 851
981, 420, 346, 447, 816
982, 168, 647, 399, 819
983, 715, 768, 648, 901
984, 665, 724, 630, 875
985, 618, 801, 715, 880
986, 227, 228, 445, 718
987, 794, 824, 663, 918
988, 606, 603, 591, 788
989, 629, 733, 666, 892
990, 237, 379, 192, 797
991, 713, 868, 638, 913
992, 722, 799, 165, 805
993, 618, 721, 672, 808
994, 524, 657, 756, 784
995, 641, 652, 732, 749
996, 716, 787, 68, 921
997, 212, 805, 669, 860
998, 220, 671, 344, 778
999, 618, 768, 687, 808
1000, 675, 601, 757, 904
1001, 786, 871, 654, 923
1002, 745, 750, 632, 895
1003, 678, 696, 640, 737
1004, 626, 689, 653, 751
1005, 665, 720, 630, 724
1006, 630, 859, 665, 875
1007, 502, 476, 706, 762
1008, 653, 689, 612, 884
1009, 481, 488, 739, 828
1010, 590, 813, 818, 822
1011, 402, 191, 163, 728
1012, 202, 713, 222, 761
1013, 513, 310, 519, 704
1014, 632, 699, 676, 852
1015, 344, 778, 671, 832
1016, 219, 774, 255, 840
1017, 465, 780, 243, 800
1018, 755, 789, 553, 871
1019, 615, 711, 667, 854
1020, 621, 749, 659, 899
1021, 671, 663, 794, 889
1022, 644, 813, 507, 822
1023, 69, 559, 595, 753
1024, 647, 759, 168, 843
1025, 39, 38, 79, 731
1026, 392, 117, 241, 688
1027, 113, 763, 673, 821
1028, 643, 687, 808, 872
1029, 455, 654, 835, 859
1030, 532, 535, 756, 871
1031, 630, 720, 665, 859
1032, 121, 729, 394, 807
1033, 148, 206, 734, 850
1034, 610, 892, 744, 915
1035, 185, 165, 799, 805
1036, 210, 815, 781, 910
1037, 680, 852, 443, 858
1038, 212, 201, 805, 860
1039, 436, 714, 661, 869
1040, 410, 791, 650, 863
1041, 208, 743, 347, 785
1042, 486, 316, 319, 682
1043, 622, 782, 841, 872
1044, 522, 523, 521, 756
1045, 328, 327, 334, 715
1046, 222, 652, 289, 906
1047, 616, 717, 673, 881
1048, 124, 874, 123, 882
1049, 585, 597, 682, 730
1050, 321, 322, 364, 911
1051, 132, 133, 127, 851
1052, 347, 348, 441, 689
1053, 215, 664, 800, 809
1054, 658, 764, 736, 793
1055, 269, 654, 430, 744
1056, 744, 892, 870, 915
1057, 535, 706, 756, 789
1058, 212, 799, 669, 805
1059, 124, 711, 874, 882
1060, 634, 695, 663, 918
1061, 543, 712, 529, 825
1062, 729, 814, 653, 884
1063, 238, 356, 341, 858
1064, 795, 831, 629, 849
1065, 655, 707, 634, 844
1066, 680, 633, 821, 836
1067, 585, 442, 75, 682
1068, 168, 759, 647, 819
1069, 532, 553, 535, 871
1070, 151, 149, 751, 856
1071, 702, 768, 648, 880
1072, 215, 407, 240, 664
1073, 738, 810, 609, 826
1074, 586, 581, 661, 760
1075, 176, 806, 693, 868
1076, 126, 132, 685, 814
1077, 622, 687, 724, 803
1078, 462, 355, 457, 666
1079, 100, 820, 663, 907
1080, 118, 385, 125, 662
1081, 618, 702, 672, 801
1082, 649, 626, 751, 856
1083, 186, 202, 404, 761
1084, 592, 427, 566, 753
1085, 96, 80, 39, 754
1086, 723, 771, 256, 886
1087, 649, 766, 622, 782
1088, 752, 806, 703, 826
1089, 723, 772, 642, 916
1090, 431, 744, 651, 870
1091, 778, 794, 663, 889
1092, 114, 392, 821, 836
1093, 140, 660, 173, 752
1094, 684, 769, 641, 862
1095, 658, 611, 736, 764
1096, 697, 184, 805, 898
1097, 640, 737, 747, 798
1098, 243, 465, 707, 780
1099, 687, 803, 782, 812
1100, 759, 797, 627, 814
1101, 373, 382, 277, 791
1102, 173, 140, 172, 660
1103, 625, 745, 668, 908
1104, 608, 687, 782, 812
1105, 637, 764, 757, 924
1106, 711, 816, 395, 874
1107, 641, 862, 739, 899
1108, 739, 862, 614, 899
1109, 610, 733, 721, 892
1110, 706, 756, 617, 762
1111, 671, 778, 663, 889
1112, 419, 771, 723, 914
1113, 626, 751, 653, 812
1114, 101, 102, 100, 907
1115, 633, 816, 711, 874
1116, 392, 443, 393, 680
1117, 361, 374, 780, 873
1118, 618, 768, 715, 901
1119, 160, 161, 796, 912
1120, 34, 847, 696, 917
1121, 120, 125, 380, 807
1122, 239, 800, 668, 809
1123, 389, 388, 665, 850
1124, 495, 845, 469, 870
1125, 232, 720, 367, 859
1126, 644, 818, 813, 822
1127, 652, 830, 296, 906
1128, 362, 725, 712, 911
1129, 663, 695, 634, 873
1130, 235, 239, 668, 809
1131, 712, 825, 543, 911
1132, 636, 717, 656, 922
1133, 443, 424, 393, 680
1134, 457, 666, 759, 797
1135, 513, 519, 520, 704
1136, 637, 764, 670, 877
1137, 501, 319, 505, 739
1138, 266, 787, 708, 921
1139, 310, 704, 513, 762
1140, 361, 374, 73, 780
1141, 684, 736, 611, 764
1142, 510, 367, 368, 789
1143, 424, 680, 443, 858
1144, 525, 657, 524, 784
1145, 710, 770, 747, 798
1146, 710, 746, 607, 905
1147, 475, 837, 264, 855
1148, 388, 166, 376, 850
1149, 389, 665, 835, 850
1150, 141, 767, 656, 779
1151, 620, 834, 737, 909
1152, 377, 692, 265, 766
1153, 637, 753, 719, 855
1154, 123, 874, 673, 882
1155, 75, 682, 501, 730
1156, 241, 443, 688, 852
1157, 105, 779, 106, 907
1158, 78, 554, 516, 706
1159, 615, 776, 691, 826
1160, 642, 758, 705, 770
1161, 191, 728, 723, 886
1162, 592, 85, 427, 753
1163, 193, 742, 409, 876
1164, 690, 741, 612, 765
1165, 711, 838, 633, 881
1166, 626, 782, 812, 891
1167, 628, 794, 778, 889
1168, 690, 741, 639, 894
1169, 94, 754, 96, 788
1170, 690, 639, 783, 894
1171, 385, 662, 118, 836
1172, 570, 572, 573, 829
1173, 449, 448, 182, 897
1174, 418, 394, 375, 676
1175, 561, 442, 585, 682
1176, 31, 30, 295, 740
1177, 645, 782, 692, 853
1178, 651, 773, 431, 845
1179, 689, 743, 624, 785
1180, 373, 365, 382, 791
1181, 304, 240, 407, 664
1182, 612, 689, 807, 884
1183, 118, 662, 125, 807
1184, 693, 641, 857, 868
1185, 212, 669, 213, 860
1186, 234, 346, 667, 785
1187, 649, 766, 692, 856
1188, 623, 698, 660, 815
1189, 610, 651, 744, 892
1190, 664, 716, 847, 908
1191, 623, 781, 764, 888
1192, 395, 420, 447, 816
1193, 162, 722, 898, 912
1194, 421, 230, 234, 854
1195, 660, 806, 693, 815
1196, 728, 872, 841, 912
1197, 119, 807, 688, 836
1198, 114, 117, 392, 836
1199, 111, 763, 113, 821
1200, 346, 667, 785, 816
1201, 299, 709, 696, 834
1202, 388, 376, 766, 850
1203, 392, 680, 393, 821
1204, 652, 713, 641, 810
1205, 212, 416, 799, 805
1206, 620, 652, 761, 906
1207, 240, 664, 304, 847
1208, 119, 688, 117, 836
1209, 651, 744, 431, 773
1210, 664, 747, 716, 908
1211, 704, 762, 308, 774
1212, 676, 688, 632, 852
1213, 615, 691, 717, 826
1214, 653, 751, 689, 884
1215, 559, 69, 432, 753
1216, 557, 773, 651, 845
1217, 736, 794, 684, 889
1218, 413, 280, 405, 885
1219, 402, 412, 191, 723
1220, 750, 765, 632, 895
1221, 573, 579, 570, 829
1222, 625, 707, 668, 844
1223, 701, 828, 386, 857
1224, 488, 505, 481, 739
1225, 621, 695, 663, 802
1226, 619, 783, 708, 921
1227, 389, 388, 233, 665
1228, 660, 752, 140, 792
1229, 210, 357, 815, 910
1230, 186, 713, 202, 761
1231, 40, 94, 96, 788
1232, 193, 195, 742, 876
1233, 483, 339, 311, 893
1234, 549, 554, 537, 762
1235, 708, 783, 740, 921
1236, 621, 684, 736, 794
1237, 234, 785, 667, 842
1238, 676, 639, 699, 765
1239, 111, 109, 365, 763
1240, 520, 513, 704, 762
1241, 516, 554, 549, 706
1242, 419, 697, 225, 914
1243, 615, 752, 703, 826
1244, 780, 847, 267, 917
1245, 611, 790, 760, 877
1246, 547, 553, 511, 789
1247, 709, 696, 834, 909
1248, 524, 756, 522, 784
1249, 490, 543, 825, 911
1250, 200, 146, 170, 876
1251, 610, 677, 665, 803
1252, 444, 125, 385, 662
1253, 96, 39, 731, 754
1254, 634, 830, 780, 873
1255, 580, 583, 601, 757
1256, 104, 105, 106, 907
1257, 105, 778, 183, 779
1258, 627, 804, 685, 812
1259, 691, 737, 607, 745
1260, 653, 626, 812, 891
1261, 702, 771, 306, 878
1262, 635, 694, 669, 861
1263, 318, 739, 659, 866
1264, 483, 311, 679, 893
1265, 264, 837, 781, 855
1266, 164, 452, 707, 748
1267, 685, 741, 653, 812
1268, 643, 768, 687, 872
1269, 697, 723, 642, 914
1270, 609, 769, 735, 826
1271, 503, 279, 474, 714
1272, 202, 197, 222, 713
1273, 100, 102, 820, 907
1274, 616, 763, 656, 883
1275, 764, 781, 623, 924
1276, 714, 869, 670, 877
1277, 618, 681, 733, 901
1278, 642, 772, 690, 783
1279, 630, 724, 720, 777
1280, 670, 877, 764, 888
1281, 710, 607, 750, 905
1282, 149, 734, 145, 751
1283, 566, 582, 584, 719
1284, 691, 737, 625, 909
1285, 574, 760, 658, 790
1286, 697, 805, 722, 898
1287, 484, 69, 595, 675
1288, 580, 757, 601, 904
1289, 607, 746, 710, 798
1290, 465, 243, 267, 800
1291, 628, 663, 778, 794
1292, 439, 726, 515, 795
1293, 611, 760, 661, 877
1294, 679, 754, 671, 893
1295, 326, 681, 329, 849
1296, 419, 403, 697, 723
1297, 169, 819, 742, 876
1298, 657, 724, 721, 875
1299, 187, 197, 713, 866
1300, 582, 584, 719, 904
1301, 691, 625, 844, 909
1302, 95, 499, 788, 817
1303, 78, 476, 554, 706
1304, 673, 711, 636, 882
1305, 681, 715, 618, 725
1306, 633, 745, 680, 881
1307, 614, 757, 658, 764
1308, 614, 739, 701, 862
1309, 540, 795, 726, 848
1310, 458, 243, 465, 707
1311, 557, 651, 533, 845
1312, 444, 662, 385, 816
1313, 696, 737, 678, 834
1314, 432, 69, 480, 753
1315, 282, 686, 283, 727
1316, 91, 591, 560, 679
1317, 170, 194, 341, 699
1318, 615, 838, 711, 881
1319, 608, 782, 687, 872
1320, 652, 761, 713, 810
1321, 616, 745, 668, 844
1322, 474, 714, 279, 727
1323, 476, 537, 554, 762
1324, 219, 775, 674, 886
1325, 572, 576, 790, 904
1326, 603, 679, 591, 788
1327, 705, 716, 32, 921
1328, 220, 671, 339, 893
1329, 670, 869, 714, 903
1330, 113, 673, 115, 821
1331, 552, 512, 89, 712
1332, 624, 785, 743, 842
1333, 631, 657, 823, 833
1334, 454, 68, 787, 921
1335, 240, 800, 664, 847
1336, 120, 807, 380, 884
1337, 148, 206, 192, 734
1338, 68, 32, 716, 921
1339, 455, 755, 654, 859
1340, 634, 780, 820, 873
1341, 112, 763, 111, 821
1342, 110, 108, 763, 890
1343, 112, 111, 113, 821
1344, 646, 754, 679, 788
1345, 164, 450, 452, 748
1346, 115, 821, 673, 874
1347, 470, 67, 705, 758
1348, 609, 810, 738, 918
1349, 145, 149, 148, 734
1350, 616, 668, 748, 844
1351, 540, 833, 795, 848
1352, 501, 505, 488, 739
1353, 739, 857, 701, 862
1354, 643, 808, 674, 872
1355, 616, 655, 748, 883
1356, 420, 234, 346, 667
1357, 389, 665, 233, 859
1358, 657, 721, 610, 875
1359, 631, 825, 712, 911
1360, 105, 778, 779, 907
1361, 697, 723, 645, 772
1362, 502, 762, 706, 840
1363, 301, 266, 248, 708
1364, 28, 27, 82, 672
1365, 673, 874, 711, 882
1366, 113, 123, 115, 673
1367, 607, 745, 737, 908
1368, 526, 524, 657, 786
1369, 668, 632, 745, 858
1370, 710, 798, 746, 864
1371, 678, 811, 669, 860
1372, 656, 763, 109, 883
1373, 723, 771, 642, 914
1374, 330, 831, 332, 849
1375, 645, 872, 728, 912
1376, 707, 748, 668, 844
1377, 173, 752, 660, 806
1378, 212, 185, 416, 805
1379, 534, 786, 773, 923
1380, 668, 707, 625, 800
1381, 634, 707, 655, 820
1382, 390, 693, 386, 857
1383, 350, 226, 863, 903
1384, 705, 758, 642, 914
1385, 292, 675, 484, 730
1386, 607, 747, 737, 798
1387, 687, 768, 643, 808
1388, 90, 682, 561, 817
1389, 597, 569, 585, 682
1390, 220, 832, 671, 893
1391, 653, 612, 729, 884
1392, 551, 64, 429, 773
1393, 610, 665, 724, 803
1394, 627, 797, 734, 814
1395, 626, 796, 692, 853
1396, 685, 804, 741, 812
1397, 674, 777, 617, 840
1398, 728, 898, 645, 912
1399, 263, 666, 797, 870
1400, 720, 841, 218, 900
1401, 69, 675, 480, 753
1402, 141, 107, 779, 883
1403, 226, 698, 358, 863
1404, 670, 611, 877, 888
1405, 647, 733, 681, 901
1406, 291, 386, 701, 828
1407, 141, 109, 107, 883
1408, 164, 452, 391, 707
1409, 652, 641, 732, 810
1410, 659, 739, 614, 899
1411, 626, 853, 782, 891
1412, 467, 213, 461, 678
1413, 782, 853, 772, 891
1414, 235, 239, 450, 668
1415, 660, 698, 636, 792
1416, 680, 745, 632, 858
1417, 621, 732, 695, 749
1418, 108, 883, 763, 890
1419, 638, 703, 806, 826
1420, 365, 141, 382, 767
1421, 115, 673, 123, 874
1422, 93, 704, 309, 879
1423, 137, 685, 132, 759
1424, 263, 797, 258, 870
1425, 583, 730, 675, 757
1426, 577, 560, 679, 813
1427, 616, 745, 680, 890
1428, 609, 732, 810, 918
1429, 771, 878, 702, 916
1430, 249, 693, 815, 910
1431, 657, 631, 784, 833
1432, 616, 668, 745, 890
1433, 696, 709, 299, 917
1434, 655, 616, 748, 844
1435, 289, 652, 296, 906
1436, 331, 831, 478, 849
1437, 64, 773, 514, 845
1438, 210, 357, 171, 815
1439, 627, 734, 803, 812
1440, 178, 806, 176, 868
1441, 294, 477, 67, 640
1442, 772, 782, 645, 853
1443, 608, 687, 804, 901
1444, 572, 757, 658, 829
1445, 710, 827, 613, 864
1446, 34, 451, 33, 847
1447, 736, 684, 846, 889
1448, 207, 194, 205, 699
1449, 624, 842, 743, 865
1450, 467, 213, 678, 860
1451, 577, 813, 679, 818
1452, 332, 831, 330, 843
1453, 193, 195, 409, 742
1454, 40, 731, 313, 902
1455, 343, 832, 220, 893
1456, 180, 404, 182, 700
1457, 649, 803, 734, 812
1458, 512, 712, 552, 795
1459, 620, 678, 737, 834
1460, 203, 674, 728, 886
1461, 609, 738, 717, 824
1462, 468, 780, 267, 917
1463, 194, 205, 699, 876
1464, 216, 677, 253, 744
1465, 609, 846, 824, 922
1466, 419, 403, 225, 697
1467, 611, 736, 684, 846
1468, 501, 75, 442, 682
1469, 632, 688, 680, 852
1470, 212, 213, 201, 860
1471, 470, 758, 705, 914
1472, 142, 134, 129, 882
1473, 203, 674, 246, 777
1474, 381, 386, 828, 857
1475, 632, 809, 668, 908
1476, 390, 249, 386, 693
1477, 618, 687, 721, 808
1478, 739, 866, 641, 899
1479, 191, 723, 412, 886
1480, 379, 797, 400, 814
1481, 392, 393, 112, 821
1482, 444, 785, 662, 816
1483, 781, 910, 623, 924
1484, 578, 760, 727, 822
1485, 118, 662, 807, 836
1486, 82, 306, 28, 702
1487, 573, 572, 574, 658
1488, 536, 871, 534, 923
1489, 110, 128, 108, 890
1490, 368, 777, 369, 789
1491, 624, 746, 710, 905
1492, 683, 796, 157, 896
1493, 643, 672, 775, 808
1494, 638, 776, 703, 826
1495, 723, 872, 772, 916
1496, 615, 792, 752, 826
1497, 645, 772, 723, 872
1498, 555, 543, 529, 825
1499, 183, 105, 103, 778
1500, 614, 764, 658, 793
1501, 256, 723, 419, 771
1502, 578, 822, 727, 839
1503, 221, 781, 670, 855
1504, 178, 177, 176, 806
1505, 204, 218, 841, 900
1506, 668, 745, 632, 908
1507, 533, 538, 845, 848
1508, 199, 697, 184, 805
1509, 126, 366, 132, 814
1510, 183, 779, 778, 885
1511, 527, 833, 540, 848
1512, 660, 792, 636, 826
1513, 35, 709, 73, 780
1514, 490, 825, 459, 911
1515, 608, 872, 768, 916
1516, 199, 224, 697, 805
1517, 622, 782, 687, 803
1518, 422, 230, 421, 854
1519, 622, 720, 665, 724
1520, 609, 794, 824, 846
1521, 648, 783, 768, 916
1522, 314, 731, 659, 902
1523, 690, 710, 613, 770
1524, 706, 617, 777, 840
1525, 119, 118, 807, 836
1526, 342, 692, 312, 796
1527, 621, 794, 736, 889
1528, 677, 734, 627, 797
1529, 605, 790, 719, 867
1530, 616, 680, 763, 890
1531, 668, 748, 450, 890
1532, 583, 571, 730, 757
1533, 442, 561, 90, 682
1534, 127, 394, 121, 729
1535, 234, 667, 420, 854
1536, 105, 103, 778, 907
1537, 621, 736, 671, 889
1538, 628, 655, 779, 907
1539, 641, 857, 739, 862
1540, 533, 845, 651, 848
1541, 637, 781, 764, 924
1542, 372, 123, 113, 673
1543, 233, 388, 376, 766
1544, 641, 769, 693, 862
1545, 612, 653, 729, 741
1546, 465, 458, 707, 780
1547, 235, 668, 446, 858
1548, 668, 745, 680, 858
1549, 664, 632, 895, 908
1550, 609, 735, 846, 922
1551, 437, 718, 703, 897
1552, 573, 658, 574, 818
1553, 697, 722, 645, 898
1554, 610, 724, 687, 803
1555, 616, 717, 691, 844
1556, 241, 117, 119, 688
1557, 717, 738, 609, 826
1558, 727, 760, 578, 839
1559, 673, 821, 763, 881
1560, 677, 734, 649, 803
1561, 636, 863, 735, 922
1562, 224, 758, 697, 805
1563, 314, 317, 659, 749
1564, 251, 386, 249, 701
1565, 659, 866, 739, 899
1566, 712, 823, 725, 849
1567, 156, 158, 157, 683
1568, 627, 734, 677, 803
1569, 407, 454, 304, 787
1570, 657, 848, 786, 892
1571, 507, 485, 813, 832
1572, 563, 822, 578, 839
1573, 203, 728, 674, 900
1574, 671, 754, 621, 802
1575, 783, 894, 768, 916
1576, 658, 614, 793, 829
1577, 595, 601, 583, 675
1578, 155, 157, 796, 896
1579, 643, 771, 702, 916
1580, 263, 666, 457, 797
1581, 215, 800, 239, 809
1582, 635, 718, 694, 897
1583, 566, 427, 66, 719
1584, 615, 703, 776, 826
1585, 710, 746, 624, 864
1586, 561, 585, 569, 682
1587, 610, 724, 665, 875
1588, 644, 832, 813, 893
1589, 561, 682, 569, 817
1590, 309, 307, 672, 774
1591, 330, 328, 354, 681
1592, 612, 750, 710, 765
1593, 277, 275, 410, 903
1594, 390, 693, 857, 868
1595, 773, 786, 654, 923
1596, 251, 701, 249, 910
1597, 158, 694, 271, 799
1598, 512, 543, 490, 712
1599, 516, 549, 535, 706
1600, 563, 578, 596, 839
1601, 658, 760, 574, 818
1602, 152, 151, 751, 856
1603, 616, 680, 745, 881
1604, 154, 865, 156, 896
1605, 397, 136, 792, 854
1606, 236, 367, 720, 777
1607, 717, 738, 691, 844
1608, 67, 508, 33, 716
1609, 329, 326, 328, 681
1610, 725, 801, 631, 879
1611, 794, 846, 684, 889
1612, 688, 750, 633, 836
1613, 768, 783, 648, 894
1614, 225, 199, 224, 697
1615, 629, 848, 657, 892
1616, 525, 784, 529, 833
1617, 185, 799, 416, 805
1618, 700, 761, 404, 919
1619, 180, 700, 182, 913
1620, 756, 789, 630, 871
1621, 68, 471, 32, 921
1622, 649, 692, 766, 782
1623, 676, 699, 639, 876
1624, 721, 724, 610, 875
1625, 389, 835, 665, 859
1626, 225, 697, 224, 758
1627, 302, 301, 248, 708
1628, 647, 742, 819, 894
1629, 718, 746, 694, 842
1630, 650, 735, 863, 922
1631, 672, 774, 307, 775
1632, 614, 701, 739, 828
1633, 647, 819, 804, 894
1634, 343, 344, 220, 832
1635, 610, 687, 733, 915
1636, 337, 801, 702, 880
1637, 593, 41, 499, 788
1638, 169, 195, 742, 819
1639, 490, 363, 712, 911
1640, 624, 694, 746, 842
1641, 291, 381, 386, 828
1642, 309, 704, 308, 774
1643, 684, 793, 764, 862
1644, 116, 836, 821, 874
1645, 235, 450, 446, 668
1646, 232, 367, 300, 859
1647, 238, 341, 214, 809
1648, 608, 741, 690, 894
1649, 331, 332, 831, 849
1650, 617, 756, 657, 784
1651, 174, 172, 175, 815
1652, 690, 770, 613, 772
1653, 154, 743, 865, 896
1654, 158, 683, 156, 865
1655, 645, 728, 723, 898
1656, 457, 147, 400, 797
1657, 524, 525, 526, 657
1658, 263, 457, 258, 797
1659, 480, 753, 675, 837
1660, 455, 835, 389, 859
1661, 314, 79, 349, 749
1662, 627, 759, 666, 797
1663, 610, 721, 687, 724
1664, 291, 701, 290, 828
1665, 330, 681, 354, 843
1666, 342, 312, 159, 796
1667, 114, 116, 821, 874
1668, 331, 478, 795, 849
1669, 455, 654, 755, 923
1670, 550, 548, 434, 845
1671, 683, 156, 865, 896
1672, 687, 724, 721, 808
1673, 114, 821, 116, 836
1674, 623, 660, 769, 815
1675, 623, 769, 684, 862
1676, 446, 668, 450, 890
1677, 711, 792, 636, 882
1678, 625, 800, 780, 847
1679, 531, 825, 784, 920
1680, 271, 423, 799, 861
1681, 610, 744, 677, 915
1682, 424, 393, 680, 890
1683, 612, 690, 827, 891
1684, 516, 706, 535, 789
1685, 623, 735, 684, 769
1686, 219, 674, 203, 886
1687, 674, 774, 617, 808
1688, 311, 472, 679, 788
1689, 192, 206, 216, 677
1690, 702, 878, 337, 880
1691, 137, 685, 759, 819
1692, 665, 859, 654, 875
1693, 629, 681, 733, 823
1694, 610, 803, 687, 915
1695, 609, 735, 684, 846
1696, 290, 701, 252, 837
1697, 140, 752, 397, 792
1698, 609, 684, 794, 846
1699, 572, 576, 574, 790
1700, 476, 370, 502, 706
1701, 680, 745, 668, 890
1702, 468, 465, 267, 780
1703, 271, 423, 416, 799
1704, 704, 879, 93, 920
1705, 609, 684, 735, 769
1706, 629, 795, 726, 831
1707, 249, 693, 175, 815
1708, 608, 894, 783, 916
1709, 351, 203, 777, 900
1710, 608, 690, 772, 783
1711, 123, 673, 372, 882
1712, 645, 692, 796, 853
1713, 272, 861, 227, 897
1714, 831, 870, 651, 892
1715, 621, 736, 684, 793
1716, 444, 347, 441, 785
1717, 298, 299, 696, 834
1718, 675, 730, 614, 757
1719, 608, 783, 772, 916
1720, 120, 122, 121, 729
1721, 40, 313, 95, 902
1722, 342, 692, 796, 912
1723, 216, 206, 253, 677
1724, 467, 678, 477, 860
1725, 120, 122, 729, 884
1726, 485, 813, 832, 893
1727, 457, 759, 147, 797
1728, 436, 274, 503, 714
1729, 469, 831, 263, 870
1730, 611, 650, 846, 888
1731, 312, 796, 692, 856
1732, 624, 743, 689, 827
1733, 609, 738, 824, 918
1734, 708, 742, 639, 876
1735, 119, 117, 118, 836
1736, 658, 757, 614, 829
1737, 649, 734, 677, 850
1738, 260, 221, 226, 670
1739, 593, 499, 567, 817
1740, 225, 697, 758, 914
1741, 752, 792, 660, 826
1742, 675, 753, 601, 904
1743, 701, 623, 910, 924
1744, 298, 678, 245, 834
1745, 608, 772, 782, 872
1746, 662, 633, 750, 836
1747, 619, 708, 699, 787
1748, 269, 455, 654, 835
1749, 249, 175, 250, 910
1750, 91, 560, 438, 813
1751, 424, 680, 858, 890
1752, 219, 254, 775, 886
1753, 249, 815, 175, 910
1754, 646, 731, 659, 793
1755, 659, 731, 621, 793
1756, 456, 700, 404, 919
1757, 719, 753, 637, 904
1758, 337, 878, 74, 880
1759, 620, 738, 691, 776
1760, 635, 694, 861, 897
1761, 177, 806, 178, 913
1762, 586, 661, 581, 867
1763, 178, 806, 868, 913
1764, 633, 680, 821, 881
1765, 253, 744, 677, 835
1766, 310, 308, 704, 762
1767, 796, 856, 312, 896
1768, 578, 588, 760, 822
1769, 583, 564, 594, 730
1770, 612, 710, 690, 765
1771, 458, 391, 707, 820
1772, 120, 729, 807, 884
1773, 206, 253, 677, 835
1774, 235, 809, 668, 858
1775, 655, 748, 707, 844
1776, 283, 832, 686, 885
1777, 269, 654, 455, 923
1778, 526, 657, 525, 833
1779, 630, 789, 755, 871
1780, 491, 719, 855, 869
1781, 451, 716, 33, 847
1782, 522, 525, 524, 784
1783, 651, 786, 533, 848
1784, 661, 760, 581, 790
1785, 399, 742, 195, 819
1786, 78, 706, 516, 789
1787, 736, 846, 611, 889
1788, 623, 693, 769, 862
1789, 81, 28, 337, 801
1790, 607, 798, 737, 887
1791, 152, 151, 150, 751
1792, 318, 316, 317, 659
1793, 139, 196, 171, 698
1794, 635, 694, 718, 746
1795, 613, 669, 799, 805
1796, 621, 732, 749, 899
1797, 675, 701, 837, 924
1798, 32, 705, 67, 716
1799, 28, 702, 337, 801
1800, 136, 711, 130, 792
1801, 612, 807, 729, 884
1802, 200, 676, 375, 851
1803, 82, 286, 306, 775
1804, 290, 251, 252, 701
1805, 632, 664, 809, 908
1806, 203, 728, 191, 886
1807, 385, 816, 662, 836
1808, 441, 689, 401, 884
1809, 760, 790, 661, 877
1810, 626, 827, 683, 853
1811, 645, 782, 772, 872
1812, 216, 489, 257, 744
1813, 607, 838, 750, 905
1814, 121, 120, 729, 807
1815, 492, 436, 661, 869
1816, 441, 401, 380, 884
1817, 698, 735, 636, 863
1818, 608, 690, 783, 894
1819, 628, 686, 846, 889
1820, 633, 838, 745, 881
1821, 699, 708, 639, 876
1822, 368, 367, 236, 777
1823, 467, 245, 298, 678
1824, 690, 710, 612, 827
1825, 221, 670, 260, 855
1826, 169, 742, 195, 876
1827, 360, 695, 38, 802
1828, 136, 711, 792, 854
1829, 490, 89, 512, 712
1830, 194, 193, 205, 876
1831, 435, 598, 562, 839
1832, 704, 631, 879, 920
1833, 613, 722, 697, 805
1834, 615, 717, 691, 881
1835, 493, 269, 455, 923
1836, 470, 294, 67, 758
1837, 622, 728, 674, 872
1838, 633, 874, 711, 881
1839, 417, 832, 283, 885
1840, 619, 770, 690, 783
1841, 630, 654, 755, 859
1842, 276, 275, 277, 903
1843, 630, 755, 654, 871
1844, 413, 686, 280, 885
1845, 26, 879, 825, 920
1846, 280, 283, 282, 686
1847, 655, 820, 663, 918
1848, 597, 583, 571, 730
1849, 726, 845, 538, 848
1850, 217, 204, 218, 841
1851, 642, 771, 723, 916
1852, 252, 837, 701, 910
1853, 608, 782, 772, 891
1854, 613, 799, 722, 805
1855, 623, 701, 693, 862
1856, 162, 898, 163, 912
1857, 295, 470, 705, 914
1858, 639, 804, 819, 894
1859, 657, 629, 823, 833
1860, 71, 709, 299, 834
1861, 639, 742, 708, 894
1862, 719, 790, 661, 867
1863, 397, 792, 752, 854
1864, 273, 867, 719, 869
1865, 401, 150, 145, 751
1866, 318, 659, 317, 866
1867, 475, 427, 85, 753
1868, 226, 196, 358, 698
1869, 81, 801, 337, 880
1870, 768, 894, 648, 901
1871, 31, 740, 705, 921
1872, 378, 703, 752, 806
1873, 659, 749, 317, 866
1874, 676, 699, 632, 765
1875, 326, 362, 325, 725
1876, 748, 883, 108, 890
1877, 382, 278, 277, 767
1878, 643, 872, 674, 886
1879, 614, 764, 793, 862
1880, 666, 831, 462, 843
1881, 373, 372, 365, 791
1882, 556, 784, 520, 920
1883, 291, 251, 290, 701
1884, 621, 671, 736, 754
1885, 282, 283, 284, 727
1886, 758, 805, 224, 860
1887, 692, 796, 626, 856
1888, 793, 862, 684, 899
1889, 710, 798, 747, 895
1890, 213, 270, 461, 811
1891, 524, 786, 528, 871
1892, 622, 841, 728, 872
1893, 781, 837, 637, 855
1894, 418, 375, 200, 676
1895, 693, 701, 623, 910
1896, 334, 715, 336, 742
1897, 661, 839, 436, 867
1898, 717, 824, 656, 922
1899, 639, 819, 742, 894
1900, 305, 286, 256, 771
1901, 675, 614, 730, 828
1902, 206, 835, 677, 850
1903, 312, 265, 377, 692
1904, 512, 552, 542, 795
1905, 643, 702, 768, 916
1906, 176, 175, 249, 693
1907, 535, 523, 532, 756
1908, 269, 744, 253, 835
1909, 624, 683, 827, 864
1910, 305, 256, 419, 771
1911, 586, 578, 760, 839
1912, 255, 219, 254, 775
1913, 211, 703, 378, 806
1914, 725, 823, 681, 849
1915, 530, 540, 726, 848
1916, 767, 779, 353, 885
1917, 609, 824, 717, 922
1918, 613, 770, 710, 798
1919, 724, 756, 630, 875
1920, 622, 665, 720, 766
1921, 376, 377, 265, 766
1922, 525, 657, 784, 833
1923, 187, 713, 181, 868
1924, 308, 762, 414, 774
1925, 651, 870, 744, 892
1926, 674, 617, 774, 840
1927, 525, 531, 529, 784
1928, 687, 782, 622, 872
1929, 582, 719, 605, 790
1930, 577, 560, 591, 679
1931, 505, 319, 318, 739
1932, 557, 773, 534, 786
1933, 708, 742, 648, 894
1934, 228, 189, 229, 842
1935, 211, 437, 378, 703
1936, 243, 707, 452, 800
1937, 536, 755, 871, 923
1938, 710, 607, 798, 895
1939, 611, 661, 714, 877
1940, 605, 586, 581, 867
1941, 613, 799, 669, 864
1942, 98, 360, 802, 873
1943, 593, 567, 604, 817
1944, 482, 712, 335, 795
1945, 629, 823, 733, 892
1946, 703, 806, 211, 913
1947, 439, 77, 478, 795
1948, 634, 844, 780, 909
1949, 614, 757, 764, 924
1950, 634, 780, 707, 820
1951, 659, 731, 646, 902
1952, 358, 134, 142, 863
1953, 660, 806, 752, 826
1954, 825, 879, 92, 911
1955, 510, 87, 300, 789
1956, 219, 203, 209, 886
1957, 637, 790, 764, 877
1958, 304, 716, 68, 847
1959, 681, 733, 647, 843
1960, 82, 672, 307, 775
1961, 711, 874, 673, 881
1962, 634, 844, 738, 918
1963, 409, 302, 248, 708
1964, 683, 743, 624, 827
1965, 362, 325, 725, 911
1966, 617, 762, 704, 774
1967, 324, 408, 715, 880
1968, 686, 611, 846, 889
1969, 224, 805, 201, 860
1970, 630, 871, 654, 875
1971, 169, 399, 195, 819
1972, 316, 314, 659, 902
1973, 41, 95, 499, 788
1974, 182, 700, 456, 811
1975, 405, 767, 353, 885
1976, 608, 768, 894, 916
1977, 633, 662, 750, 905
1978, 223, 761, 222, 906
1979, 345, 785, 234, 842
1980, 387, 748, 108, 890
1981, 630, 654, 859, 875
1982, 677, 803, 649, 850
1983, 393, 128, 110, 890
1984, 467, 245, 678, 919
1985, 194, 699, 170, 876
1986, 654, 773, 651, 786
1987, 158, 189, 227, 694
1988, 683, 722, 613, 799
1989, 450, 748, 387, 890
1990, 682, 817, 486, 902
1991, 29, 702, 306, 878
1992, 526, 657, 833, 848
1993, 653, 812, 734, 814
1994, 706, 777, 370, 840
1995, 454, 471, 68, 921
1996, 298, 477, 467, 678
1997, 437, 703, 211, 897
1998, 147, 137, 132, 759
1999, 747, 798, 607, 895
2000, 666, 831, 629, 892
2001, 674, 775, 774, 808
2002, 436, 274, 714, 869
2003, 564, 602, 303, 730
2004, 710, 765, 750, 895
2005, 582, 719, 790, 904
2006, 415, 695, 37, 830
2007, 591, 91, 472, 679
2008, 628, 767, 686, 885
2009, 345, 208, 347, 785
2010, 628, 767, 656, 922
2011, 693, 806, 638, 868
2012, 654, 744, 651, 773
2013, 632, 852, 680, 858
2014, 303, 484, 564, 730
2015, 234, 345, 346, 785
2016, 643, 771, 723, 886
2017, 607, 746, 798, 887
2018, 628, 846, 767, 922
2019, 569, 817, 682, 829
2020, 635, 669, 811, 861
2021, 245, 834, 678, 919
2022, 320, 187, 857, 866
2023, 370, 502, 706, 840
2024, 615, 792, 711, 854
2025, 520, 784, 704, 920
2026, 666, 627, 797, 915
2027, 342, 796, 159, 912
2028, 784, 825, 631, 920
2029, 311, 94, 472, 788
2030, 685, 729, 653, 741
2031, 252, 701, 251, 910
2032, 265, 692, 342, 841
2033, 587, 566, 66, 719
2034, 84, 548, 726, 845
2035, 614, 793, 659, 899
2036, 310, 513, 487, 762
2037, 691, 745, 607, 838
2038, 413, 283, 280, 686
2039, 263, 831, 666, 870
2040, 298, 299, 464, 696
2041, 626, 743, 683, 827
2042, 693, 769, 660, 815
2043, 36, 73, 35, 709
2044, 177, 211, 806, 913
2045, 189, 694, 158, 865
2046, 625, 909, 696, 917
2047, 653, 729, 685, 814
2048, 616, 691, 745, 844
2049, 734, 812, 627, 814
2050, 650, 767, 846, 922
2051, 26, 92, 825, 879
2052, 555, 531, 556, 825
2053, 121, 394, 119, 807
2054, 65, 544, 425, 923
2055, 260, 855, 670, 869
2056, 651, 726, 831, 892
2057, 644, 671, 736, 889
2058, 612, 741, 690, 891
2059, 478, 440, 726, 831
2060, 515, 726, 540, 795
2061, 653, 751, 734, 812
2062, 65, 755, 544, 923
2063, 778, 832, 344, 885
2064, 469, 262, 495, 870
2065, 570, 579, 568, 829
2066, 645, 723, 697, 898
2067, 671, 644, 736, 893
2068, 377, 312, 692, 856
2069, 448, 897, 211, 913
2070, 418, 676, 200, 852
2071, 639, 804, 685, 819
2072, 646, 658, 793, 829
2073, 216, 253, 489, 744
2074, 744, 870, 677, 915
2075, 610, 687, 721, 733
2076, 526, 786, 657, 848
2077, 656, 767, 628, 779
2078, 200, 375, 146, 851
2079, 633, 750, 838, 905
2080, 490, 543, 459, 825
2081, 520, 521, 513, 762
2082, 331, 330, 332, 849
2083, 707, 780, 634, 844
2084, 655, 656, 779, 883
2085, 613, 690, 772, 853
2086, 467, 678, 461, 919
2087, 685, 804, 759, 819
2088, 445, 718, 437, 897
2089, 350, 226, 358, 863
2090, 645, 898, 722, 912
2091, 825, 879, 631, 920
2092, 626, 856, 796, 896
2093, 431, 495, 262, 870
2094, 586, 839, 661, 867
2095, 615, 752, 792, 854
2096, 390, 857, 188, 868
2097, 600, 589, 76, 813
2098, 618, 702, 801, 880
2099, 641, 693, 857, 862
2100, 657, 871, 756, 875
2101, 734, 751, 649, 812
2102, 665, 766, 649, 850
2103, 413, 283, 686, 885
2104, 409, 336, 302, 742
2105, 131, 122, 143, 884
2106, 326, 329, 362, 849
2107, 439, 515, 77, 795
2108, 148, 383, 206, 850
2109, 674, 872, 728, 886
2110, 707, 780, 625, 800
2111, 696, 909, 709, 917
2112, 235, 215, 239, 809
2113, 739, 828, 701, 857
2114, 279, 276, 278, 714
2115, 613, 683, 799, 864
2116, 608, 772, 872, 916
2117, 246, 777, 674, 840
2118, 607, 746, 838, 905
2119, 142, 371, 863, 882
2120, 537, 476, 88, 762
2121, 657, 629, 833, 848
2122, 648, 878, 702, 880
2123, 135, 397, 136, 792
2124, 664, 895, 747, 908
2125, 655, 634, 820, 918
2126, 615, 691, 838, 881
2127, 759, 804, 647, 819
2128, 618, 733, 681, 823
2129, 64, 431, 773, 845
2130, 441, 348, 401, 689
2131, 27, 309, 672, 879
2132, 662, 750, 688, 836
2133, 94, 311, 96, 754
2134, 84, 434, 548, 845
2135, 139, 140, 135, 792
2136, 203, 219, 246, 674
2137, 701, 857, 693, 862
2138, 616, 763, 748, 890
2139, 672, 617, 774, 808
2140, 628, 779, 778, 907
2141, 485, 507, 285, 832
2142, 182, 404, 456, 700
2143, 657, 786, 871, 875
2144, 683, 865, 743, 896
2145, 520, 704, 519, 920
2146, 246, 674, 219, 840
2147, 659, 793, 621, 899
2148, 229, 230, 718, 842
2149, 533, 557, 534, 786
2150, 141, 353, 767, 779
2151, 84, 469, 434, 845
2152, 260, 670, 261, 869
2153, 271, 799, 694, 861
2154, 630, 756, 706, 789
2155, 436, 492, 661, 867
2156, 265, 766, 692, 841
2157, 643, 768, 872, 916
2158, 704, 784, 631, 920
2159, 384, 395, 816, 874
2160, 628, 656, 824, 922
2161, 271, 694, 227, 861
2162, 664, 800, 668, 908
2163, 639, 741, 685, 804
2164, 697, 723, 403, 898
2165, 685, 759, 627, 814
2166, 475, 753, 433, 837
2167, 181, 713, 186, 868
2168, 263, 462, 457, 666
2169, 668, 800, 664, 809
2170, 618, 681, 725, 823
2171, 700, 703, 635, 897
2172, 491, 719, 273, 867
2173, 639, 708, 783, 894
2174, 631, 823, 712, 833
2175, 86, 436, 839, 867
2176, 703, 776, 638, 913
2177, 515, 439, 84, 726
2178, 791, 863, 371, 882
2179, 618, 721, 687, 733
2180, 586, 578, 581, 760
2181, 458, 374, 242, 820
2182, 373, 277, 410, 791
2183, 668, 809, 664, 908
2184, 136, 395, 711, 854
2185, 428, 66, 427, 719
2186, 417, 344, 832, 885
2187, 292, 675, 730, 828
2188, 461, 678, 811, 919
2189, 641, 732, 684, 899
2190, 654, 871, 755, 923
2191, 502, 88, 476, 762
2192, 114, 115, 116, 874
2193, 229, 230, 228, 718
2194, 636, 656, 791, 922
2195, 158, 227, 271, 694
2196, 656, 779, 628, 824
2197, 655, 779, 656, 824
2198, 655, 628, 779, 824
2199, 208, 152, 348, 743
2200, 478, 440, 439, 726
2201, 613, 669, 798, 864
2202, 27, 672, 801, 879
2203, 200, 341, 356, 852
2204, 644, 832, 671, 889
2205, 675, 828, 701, 924
2206, 706, 762, 617, 840
2207, 419, 287, 771, 914
2208, 668, 616, 748, 890
2209, 700, 638, 776, 913
2210, 416, 185, 165, 799
2211, 635, 703, 700, 776
2212, 220, 344, 101, 778
2213, 633, 838, 667, 905
2214, 446, 858, 668, 890
2215, 84, 726, 469, 845
2216, 320, 857, 739, 866
2217, 677, 870, 797, 915
2218, 557, 514, 551, 773
2219, 709, 780, 634, 830
2220, 569, 568, 817, 829
2221, 169, 851, 819, 876
2222, 623, 701, 862, 924
2223, 260, 226, 261, 670
2224, 695, 802, 360, 873
2225, 577, 591, 603, 679
2226, 694, 624, 746, 864
2227, 637, 757, 904, 924
2228, 351, 203, 246, 777
2229, 97, 80, 754, 802
2230, 303, 602, 75, 730
2231, 71, 709, 834, 906
2232, 163, 728, 167, 912
2233, 211, 897, 703, 913
2234, 41, 40, 95, 788
2235, 623, 735, 698, 888
2236, 25, 26, 825, 920
2237, 465, 374, 458, 780
2238, 177, 211, 378, 806
2239, 206, 268, 835, 850
2240, 244, 404, 761, 919
2241, 619, 708, 787, 921
2242, 140, 173, 397, 752
2243, 135, 136, 130, 792
2244, 531, 556, 825, 920
2245, 446, 450, 387, 890
2246, 534, 528, 786, 871
2247, 35, 299, 709, 917
2248, 353, 779, 183, 885
2249, 251, 291, 386, 701
2250, 542, 529, 712, 833
2251, 165, 722, 406, 799
2252, 98, 398, 360, 873
2253, 462, 666, 263, 831
2254, 571, 757, 572, 829
2255, 84, 548, 515, 726
2256, 139, 135, 134, 792
2257, 40, 96, 39, 731
2258, 228, 229, 718, 842
2259, 82, 309, 307, 672
2260, 621, 754, 731, 802
2261, 390, 176, 693, 868
2262, 624, 662, 785, 905
2263, 396, 294, 758, 860
2264, 544, 518, 425, 923
2265, 272, 227, 445, 897
2266, 627, 759, 685, 804
2267, 781, 815, 623, 910
2268, 253, 269, 430, 744
2269, 93, 879, 26, 920
2270, 301, 453, 266, 921
2271, 449, 182, 456, 811
2272, 616, 673, 763, 881
2273, 763, 883, 748, 890
2274, 403, 184, 199, 697
2275, 604, 579, 603, 788
2276, 231, 218, 232, 720
2277, 469, 509, 263, 831
2278, 324, 326, 325, 725
2279, 636, 791, 863, 922
2280, 355, 168, 759, 843
2281, 593, 565, 41, 788
2282, 571, 572, 570, 829
2283, 607, 750, 745, 895
2284, 660, 769, 638, 826
2285, 295, 30, 72, 878
2286, 742, 819, 639, 876
2287, 700, 776, 703, 913
2288, 491, 273, 719, 869
2289, 623, 862, 764, 924
2290, 158, 271, 406, 799
2291, 641, 749, 732, 899
2292, 205, 409, 248, 708
2293, 662, 633, 816, 905
2294, 301, 740, 453, 921
2295, 445, 228, 437, 718
2296, 222, 289, 288, 906
2297, 575, 578, 588, 760
2298, 811, 861, 449, 897
2299, 179, 182, 448, 913
2300, 179, 448, 211, 913
2301, 421, 234, 420, 854
2302, 185, 199, 184, 805
2303, 642, 878, 771, 916
2304, 665, 835, 654, 859
2305, 614, 862, 793, 899
2306, 684, 621, 793, 899
2307, 413, 417, 283, 885
2308, 722, 796, 645, 912
2309, 622, 674, 728, 900
2310, 381, 828, 739, 857
2311, 531, 784, 556, 920
2312, 660, 638, 806, 826
2313, 625, 737, 696, 909
2314, 832, 885, 778, 889
2315, 261, 670, 226, 903
2316, 665, 649, 803, 850
2317, 366, 379, 400, 814
2318, 181, 187, 186, 713
2319, 695, 732, 652, 749
2320, 160, 406, 165, 722
2321, 762, 774, 617, 840
2322, 616, 745, 691, 881
2323, 35, 709, 780, 917
2324, 26, 92, 25, 825
2325, 607, 737, 747, 908
2326, 745, 838, 691, 881
2327, 160, 161, 159, 796
2328, 136, 420, 395, 854
2329, 667, 816, 633, 905
2330, 693, 623, 815, 910
2331, 837, 910, 781, 924
2332, 556, 531, 520, 784
2333, 644, 686, 832, 889
2334, 81, 323, 801, 880
2335, 242, 820, 374, 873
2336, 671, 832, 778, 889
2337, 190, 728, 203, 900
2338, 617, 721, 724, 808
2339, 76, 589, 460, 813
2340, 451, 68, 716, 847
2341, 620, 709, 834, 909
2342, 363, 89, 490, 712
2343, 337, 702, 29, 878
2344, 316, 314, 317, 659
2345, 257, 744, 431, 870
2346, 396, 224, 201, 860
2347, 679, 818, 813, 893
2348, 144, 192, 379, 734
2349, 135, 140, 397, 792
2350, 144, 734, 379, 814
2351, 137, 759, 168, 819
2352, 625, 780, 844, 909
2353, 635, 811, 700, 897
2354, 663, 634, 820, 873
2355, 663, 820, 634, 918
2356, 512, 542, 712, 795
2357, 670, 781, 637, 855
2358, 641, 866, 749, 899
2359, 167, 163, 190, 728
2360, 300, 755, 500, 859
2361, 816, 836, 116, 874
2362, 310, 414, 308, 762
2363, 124, 115, 123, 874
2364, 167, 728, 190, 841
2365, 398, 242, 374, 873
2366, 458, 452, 243, 707
2367, 463, 511, 544, 755
2368, 306, 29, 28, 702
2369, 229, 234, 230, 842
2370, 312, 342, 265, 692
2371, 314, 349, 317, 749
2372, 114, 821, 115, 874
2373, 725, 823, 712, 911
2374, 813, 818, 644, 893
2375, 324, 323, 408, 880
2376, 590, 813, 577, 818
2377, 621, 732, 684, 794
2378, 648, 783, 708, 894
2379, 609, 684, 732, 794
2380, 467, 461, 245, 919
2381, 187, 198, 197, 866
2382, 541, 77, 515, 795
2383, 562, 86, 435, 839
2384, 330, 329, 328, 681
2385, 184, 162, 165, 898
2386, 745, 895, 632, 908
2387, 472, 91, 311, 679
2388, 655, 663, 820, 907
2389, 661, 867, 492, 869
2390, 259, 758, 470, 914
2391, 524, 523, 522, 756
2392, 353, 105, 183, 779
2393, 384, 816, 116, 874
2394, 668, 800, 625, 908
2395, 460, 813, 589, 822
2396, 739, 857, 641, 866
2397, 634, 780, 709, 909
2398, 633, 662, 816, 836
2399, 184, 697, 403, 898
2400, 524, 532, 756, 871
2401, 381, 481, 739, 828
2402, 340, 220, 339, 893
2403, 609, 810, 769, 826
2404, 452, 458, 391, 707
2405, 482, 89, 335, 712
2406, 562, 86, 839, 867
2407, 451, 304, 68, 847
2408, 625, 847, 780, 917
2409, 581, 582, 605, 790
2410, 480, 675, 290, 837
2411, 650, 863, 791, 922
2412, 664, 847, 800, 908
2413, 396, 758, 224, 860
2414, 587, 426, 599, 867
2415, 481, 293, 488, 828
2416, 620, 834, 709, 906
2417, 257, 489, 431, 744
2418, 542, 712, 795, 833
2419, 466, 219, 255, 840
2420, 463, 544, 65, 755
2421, 486, 682, 90, 817
2422, 162, 722, 165, 898
2423, 613, 722, 683, 853
2424, 309, 93, 308, 704
2425, 683, 626, 796, 896
2426, 616, 748, 763, 883
2427, 184, 165, 722, 898
2428, 519, 704, 496, 920
2429, 625, 800, 847, 908
2430, 649, 782, 803, 812
2431, 705, 758, 640, 770
2432, 625, 780, 909, 917
2433, 506, 781, 221, 855
2434, 456, 811, 700, 919
2435, 541, 552, 482, 795
2436, 358, 196, 139, 698
2437, 80, 360, 38, 802
2438, 663, 802, 695, 873
2439, 625, 780, 707, 844
2440, 353, 405, 141, 767
2441, 408, 338, 302, 880
2442, 626, 683, 796, 853
2443, 616, 691, 717, 881
2444, 526, 528, 524, 786
2445, 653, 812, 741, 891
2446, 772, 853, 690, 891
2447, 384, 395, 447, 816
2448, 138, 133, 137, 819
2449, 666, 870, 831, 892
2450, 390, 188, 181, 868
2451, 72, 771, 287, 914
2452, 530, 726, 538, 848
2453, 631, 712, 823, 911
2454, 709, 909, 780, 917
2455, 726, 848, 629, 892
2456, 128, 387, 108, 890
2457, 329, 681, 330, 849
2458, 629, 831, 726, 892
2459, 202, 186, 197, 713
2460, 484, 292, 69, 675
2461, 414, 774, 762, 840
2462, 370, 706, 369, 777
2463, 651, 848, 726, 892
2464, 203, 191, 209, 886
2465, 772, 783, 642, 916
2466, 624, 683, 864, 865
2467, 397, 752, 422, 854
2468, 451, 847, 34, 917
2469, 676, 639, 851, 876
2470, 786, 848, 651, 892
2471, 397, 422, 421, 854
2472, 390, 176, 249, 693
2473, 332, 462, 831, 843
2474, 265, 217, 766, 841
2475, 691, 737, 620, 887
2476, 623, 684, 735, 888
2477, 623, 769, 693, 815
2478, 458, 242, 391, 820
2479, 282, 474, 279, 727
2480, 491, 426, 719, 867
2481, 592, 559, 432, 753
2482, 82, 27, 309, 672
2483, 190, 841, 728, 900
2484, 684, 732, 621, 899
2485, 592, 432, 85, 753
2486, 215, 214, 207, 809
2487, 340, 343, 220, 893
2488, 633, 673, 874, 881
2489, 669, 799, 694, 864
2490, 728, 841, 167, 912
2491, 608, 768, 687, 901
2492, 632, 668, 809, 858
2493, 443, 852, 356, 858
2494, 331, 332, 478, 831
2495, 86, 436, 435, 839
2496, 258, 797, 257, 870
2497, 81, 337, 323, 880
2498, 620, 761, 700, 919
2499, 203, 190, 191, 728
2500, 557, 514, 773, 845
2501, 138, 819, 169, 851
2502, 410, 371, 791, 863
2503, 672, 774, 775, 808
2504, 651, 845, 726, 848
2505, 265, 342, 217, 841
2506, 155, 796, 312, 896
2507, 725, 879, 631, 911
2508, 624, 842, 746, 905
2509, 251, 249, 250, 910
2510, 120, 118, 125, 807
2511, 79, 415, 349, 749
2512, 539, 551, 429, 773
2513, 637, 753, 675, 904
2514, 440, 469, 726, 831
2515, 667, 746, 842, 905
2516, 719, 867, 661, 869
2517, 543, 512, 529, 712
2518, 675, 904, 757, 924
2519, 618, 721, 733, 823
2520, 195, 399, 334, 742
2521, 154, 743, 352, 865
2522, 71, 830, 709, 906
2523, 620, 678, 834, 919
2524, 223, 761, 834, 919
2525, 247, 407, 207, 787
2526, 237, 257, 258, 797
2527, 629, 823, 712, 849
2528, 378, 752, 173, 806
2529, 215, 240, 239, 800
2530, 426, 587, 66, 719
2531, 162, 163, 161, 912
2532, 572, 757, 580, 904
2533, 223, 834, 761, 906
2534, 624, 743, 683, 865
2535, 455, 500, 755, 859
2536, 410, 142, 371, 863
2537, 37, 361, 830, 873
2538, 424, 443, 356, 858
2539, 628, 824, 794, 846
2540, 274, 276, 714, 903
2541, 691, 620, 776, 887
2542, 108, 748, 387, 883
2543, 305, 306, 286, 771
2544, 618, 733, 687, 901
2545, 64, 431, 429, 773
2546, 297, 71, 299, 834
2547, 587, 719, 426, 867
2548, 723, 728, 645, 872
2549, 153, 856, 152, 896
2550, 292, 730, 293, 828
2551, 100, 102, 242, 820
2552, 614, 675, 757, 924
2553, 384, 385, 116, 816
2554, 727, 760, 644, 822
2555, 37, 830, 695, 873
2556, 130, 136, 395, 711
2557, 637, 904, 675, 924
2558, 133, 819, 138, 851
2559, 694, 842, 624, 865
2560, 445, 437, 211, 897
2561, 167, 841, 190, 900
2562, 439, 9, 515, 84
2563, 116, 816, 385, 836
2564, 336, 334, 327, 715
2565, 159, 157, 160, 796
2566, 483, 311, 91, 679
2567, 311, 339, 97, 754
2568, 622, 766, 720, 841
2569, 726, 795, 629, 848
2570, 620, 761, 834, 906
2571, 624, 864, 694, 865
2572, 694, 864, 683, 865
2573, 37, 695, 360, 873
2574, 703, 897, 700, 913
2575, 290, 675, 292, 828
2576, 643, 775, 674, 808
2577, 719, 637, 790, 904
2578, 675, 753, 637, 837
2579, 300, 463, 500, 755
2580, 604, 565, 593, 788
2581, 557, 533, 538, 845
2582, 475, 433, 264, 837
2583, 683, 743, 626, 896
2584, 81, 323, 322, 801
2585, 38, 360, 37, 695
2586, 335, 795, 712, 849
2587, 456, 404, 244, 919
2588, 675, 614, 828, 924
2589, 324, 408, 327, 715
2590, 694, 799, 669, 861
2591, 529, 512, 542, 712
2592, 747, 770, 640, 798
2593, 667, 746, 718, 842
2594, 608, 690, 741, 891
2595, 627, 803, 677, 915
2596, 124, 711, 395, 874
2597, 411, 317, 749, 866
2598, 371, 372, 791, 882
2599, 96, 97, 80, 754
2600, 665, 803, 677, 850
2601, 607, 737, 691, 887
2602, 629, 681, 823, 849
2603, 236, 720, 218, 900
2604, 261, 869, 670, 903
2605, 566, 584, 592, 753
2606, 134, 135, 130, 792
2607, 712, 823, 629, 833
2608, 496, 519, 310, 704
2609, 778, 779, 628, 885
2610, 703, 718, 635, 897
2611, 267, 800, 240, 847
2612, 145, 148, 144, 734
2613, 350, 863, 410, 903
2614, 413, 405, 353, 885
2615, 391, 820, 102, 907
2616, 661, 760, 727, 839
2617, 613, 798, 710, 864
2618, 146, 851, 169, 876
2619, 239, 243, 452, 800
2620, 155, 159, 312, 796
2621, 455, 755, 65, 923
2622, 112, 110, 111, 763
2623, 827, 853, 626, 891
2624, 108, 109, 110, 763
2625, 491, 273, 426, 867
2626, 35, 299, 71, 709
2627, 670, 855, 637, 877
2628, 368, 236, 369, 777
2629, 181, 186, 180, 868
2630, 728, 872, 723, 886
2631, 84, 9, 515, 548
2632, 626, 689, 743, 827
2633, 350, 410, 275, 903
2634, 26, 93, 309, 879
2635, 673, 821, 633, 874
2636, 502, 414, 762, 840
2637, 623, 862, 684, 888
2638, 225, 758, 259, 914
2639, 246, 370, 777, 840
2640, 238, 235, 446, 858
2641, 267, 240, 304, 847
2642, 648, 740, 708, 783
2643, 107, 106, 105, 779
2644, 75, 501, 488, 730
2645, 769, 810, 638, 826
2646, 643, 674, 775, 886
2647, 442, 90, 486, 682
2648, 106, 387, 748, 883
2649, 694, 799, 683, 864
2650, 138, 169, 146, 851
2651, 126, 127, 121, 729
2652, 455, 65, 425, 923
2653, 106, 779, 107, 883
2654, 415, 38, 37, 695
2655, 108, 109, 763, 883
2656, 620, 737, 691, 909
2657, 620, 691, 738, 909
2658, 271, 227, 272, 861
2659, 688, 807, 662, 836
2660, 684, 862, 764, 888
2661, 223, 834, 245, 919
2662, 631, 823, 725, 911
2663, 292, 484, 303, 730
2664, 55, 592, 432, 85
2665, 403, 199, 225, 697
2666, 77, 331, 478, 795
2667, 273, 492, 867, 869
2668, 238, 809, 235, 858
2669, 232, 218, 367, 720
2670, 256, 412, 723, 886
2671, 228, 230, 437, 718
2672, 646, 817, 682, 902
2673, 677, 797, 627, 915
2674, 55, 592, 559, 432
2675, 530, 527, 540, 848
2676, 645, 796, 692, 912
2677, 451, 68, 33, 716
2678, 159, 155, 157, 796
2679, 824, 846, 628, 922
2680, 206, 268, 253, 835
2681, 623, 764, 862, 888
2682, 442, 319, 501, 682
2683, 154, 152, 743, 896
2684, 580, 571, 583, 757
2685, 538, 726, 548, 845
2686, 285, 507, 284, 822
2687, 530, 540, 515, 726
2688, 537, 521, 549, 762
2689, 480, 69, 290, 675
2690, 574, 581, 760, 790
2691, 768, 608, 894, 901
2692, 159, 796, 161, 912
2693, 419, 412, 403, 723
2694, 342, 841, 692, 912
2695, 223, 222, 288, 906
2696, 622, 841, 720, 900
2697, 749, 866, 659, 899
2698, 547, 511, 17, 87
2699, 723, 643, 872, 916
2700, 324, 325, 322, 725
2701, 71, 36, 709, 830
2702, 719, 855, 869, 877
2703, 575, 574, 760, 818
2704, 126, 121, 122, 729
2705, 265, 217, 231, 766
2706, 293, 730, 488, 828
2707, 400, 379, 237, 797
2708, 641, 684, 862, 899
2709, 795, 833, 629, 848
2710, 618, 687, 768, 901
2711, 332, 330, 333, 843
2712, 643, 723, 872, 886
2713, 543, 558, 459, 825
2714, 534, 536, 528, 871
2715, 628, 779, 767, 885
2716, 124, 130, 395, 711
2717, 29, 337, 28, 702
2718, 611, 684, 764, 888
2719, 164, 387, 450, 748
2720, 270, 423, 449, 861
2721, 633, 821, 673, 881
2722, 636, 863, 791, 882
2723, 306, 771, 72, 878
2724, 373, 371, 372, 791
2725, 573, 577, 579, 818
2726, 296, 415, 37, 830
2727, 625, 696, 847, 917
2728, 64, 495, 431, 845
2729, 97, 99, 98, 802
2730, 270, 449, 811, 861
2731, 313, 79, 314, 731
2732, 442, 486, 319, 682
2733, 424, 128, 393, 890
2734, 631, 879, 825, 911
2735, 106, 387, 164, 748
2736, 607, 691, 838, 887
2737, 870, 892, 666, 915
2738, 83, 539, 429, 773
2739, 318, 320, 739, 866
2740, 256, 412, 419, 723
2741, 767, 791, 656, 922
2742, 661, 719, 869, 877
2743, 236, 777, 720, 900
2744, 315, 486, 817, 902
2745, 644, 671, 832, 893
2746, 603, 606, 565, 788
2747, 714, 869, 274, 903
2748, 46, 76, 600, 589
2749, 489, 253, 430, 744
2750, 639, 741, 804, 894
2751, 509, 462, 263, 831
2752, 587, 599, 605, 867
2753, 219, 209, 254, 886
2754, 463, 17, 511, 87
2755, 592, 54, 427, 85
2756, 32, 31, 705, 921
2757, 675, 837, 637, 924
2758, 32, 67, 33, 716
2759, 577, 590, 560, 813
2760, 320, 198, 187, 866
2761, 637, 837, 781, 924
2762, 498, 606, 472, 788
2763, 804, 894, 608, 901
2764, 362, 712, 363, 911
2765, 449, 861, 272, 897
2766, 682, 817, 646, 829
2767, 597, 602, 564, 730
2768, 19, 546, 494, 516
2769, 165, 162, 160, 722
2770, 154, 208, 352, 743
2771, 639, 819, 685, 851
2772, 53, 66, 566, 427
2773, 289, 349, 415, 749
2774, 473, 561, 567, 817
2775, 255, 307, 774, 775
2776, 236, 218, 204, 900
2777, 313, 731, 314, 902
2778, 78, 370, 476, 706
2779, 154, 352, 156, 865
2780, 536, 755, 553, 871
2781, 305, 419, 287, 771
2782, 440, 509, 469, 831
2783, 74, 337, 29, 878
2784, 483, 438, 340, 893
2785, 183, 344, 417, 885
2786, 210, 781, 359, 910
2787, 667, 842, 785, 905
2788, 396, 294, 224, 758
2789, 81, 322, 321, 801
2790, 430, 431, 744, 773
2791, 624, 785, 842, 905
2792, 197, 186, 187, 713
2793, 738, 844, 634, 909
2794, 15, 65, 544, 425
2795, 661, 869, 714, 877
2796, 16, 65, 463, 544
2797, 438, 813, 340, 893
2798, 295, 72, 287, 914
2799, 71, 834, 297, 906
2800, 35, 780, 73, 917
2801, 561, 569, 568, 817
2802, 381, 293, 481, 828
2803, 723, 771, 643, 916
2804, 463, 511, 16, 544
2805, 223, 202, 222, 761
2806, 508, 464, 299, 696
2807, 444, 385, 447, 816
2808, 701, 910, 837, 924
2809, 106, 108, 387, 883
2810, 244, 404, 202, 761
2811, 608, 772, 690, 891
2812, 210, 359, 357, 910
2813, 453, 740, 31, 921
2814, 502, 466, 414, 840
2815, 183, 778, 344, 885
2816, 189, 229, 842, 865
2817, 332, 333, 462, 843
2818, 31, 295, 470, 705
2819, 551, 12, 64, 514
2820, 460, 507, 813, 822
2821, 281, 389, 233, 859
2822, 650, 791, 767, 922
2823, 532, 523, 524, 756
2824, 572, 580, 576, 904
2825, 95, 315, 817, 902
2826, 335, 712, 362, 849
2827, 257, 431, 262, 870
2828, 647, 894, 804, 901
2829, 427, 566, 54, 592
2830, 425, 544, 15, 518
2831, 195, 334, 336, 742
2832, 562, 839, 586, 867
2833, 587, 605, 719, 867
2834, 589, 47, 460, 822
2835, 233, 376, 231, 766
2836, 83, 773, 430, 923
2837, 124, 123, 129, 882
2838, 241, 418, 443, 852
2839, 610, 677, 803, 915
2840, 113, 115, 114, 821
2841, 547, 494, 546, 789
2842, 225, 224, 259, 758
2843, 167, 204, 841, 900
2844, 167, 190, 204, 900
2845, 76, 460, 507, 813
2846, 821, 836, 633, 874
2847, 624, 827, 710, 864
2848, 178, 868, 180, 913
2849, 575, 573, 574, 818
2850, 677, 835, 665, 850
2851, 390, 178, 176, 868
2852, 338, 337, 74, 880
2853, 785, 816, 667, 905
2854, 668, 858, 680, 890
2855, 375, 127, 133, 851
2856, 208, 154, 152, 743
2857, 269, 389, 455, 835
2858, 436, 86, 492, 867
2859, 292, 303, 293, 730
2860, 819, 851, 639, 876
2861, 422, 173, 378, 752
2862, 607, 710, 750, 895
2863, 485, 832, 343, 893
2864, 191, 190, 163, 728
2865, 524, 528, 532, 871
2866, 154, 156, 155, 896
2867, 593, 2, 41, 565
2868, 589, 563, 47, 822
2869, 506, 264, 221, 781
2870, 470, 67, 32, 705
2871, 261, 226, 350, 903
2872, 355, 333, 168, 843
2873, 439, 440, 84, 726
2874, 197, 198, 411, 866
2875, 504, 727, 284, 822
2876, 152, 153, 151, 856
2877, 493, 83, 430, 923
2878, 58, 484, 594, 564
2879, 498, 565, 606, 788
2880, 569, 570, 568, 829
2881, 582, 790, 576, 904
2882, 487, 513, 537, 762
2883, 561, 567, 62, 473
2884, 610, 733, 892, 915
2885, 162, 402, 163, 898
2886, 391, 242, 102, 820
2887, 695, 830, 634, 873
2888, 526, 525, 527, 833
2889, 59, 303, 564, 602
2890, 431, 489, 430, 744
2891, 357, 172, 171, 815
2892, 578, 563, 588, 822
2893, 666, 892, 733, 915
2894, 492, 274, 436, 869
2895, 212, 201, 185, 805
2896, 312, 856, 153, 896
2897, 638, 868, 806, 913
2898, 289, 411, 349, 749
2899, 608, 812, 782, 891
2900, 455, 389, 281, 859
2901, 563, 48, 479, 596
2902, 490, 459, 363, 911
2903, 32, 33, 68, 716
2904, 662, 816, 785, 905
2905, 331, 795, 335, 849
2906, 608, 804, 741, 894
2907, 378, 173, 174, 806
2908, 28, 81, 27, 801
2909, 620, 834, 761, 919
2910, 150, 151, 149, 751
2911, 537, 88, 487, 762
2912, 352, 842, 229, 865
2913, 462, 333, 355, 843
2914, 503, 276, 279, 714
2915, 27, 801, 321, 879
2916, 607, 895, 745, 908
2917, 455, 281, 500, 859
2918, 34, 696, 299, 917
2919, 150, 149, 145, 751
2920, 76, 438, 600, 813
2921, 559, 56, 69, 595
2922, 611, 846, 684, 888
2923, 645, 796, 722, 853
2924, 411, 317, 349, 749
2925, 629, 795, 712, 833
2926, 551, 429, 13, 539
2927, 30, 740, 74, 878
2928, 571, 570, 569, 829
2929, 177, 174, 176, 806
2930, 37, 361, 36, 830
2931, 295, 259, 470, 914
2932, 151, 377, 166, 856
2933, 266, 454, 787, 921
2934, 382, 405, 278, 767
2935, 48, 70, 479, 596
2936, 296, 830, 71, 906
2937, 484, 595, 57, 594
2938, 429, 12, 64, 551
2939, 546, 516, 535, 789
2940, 352, 345, 229, 842
2941, 274, 275, 276, 903
2942, 409, 195, 336, 742
2943, 218, 236, 367, 720
2944, 559, 69, 56, 432
2945, 526, 833, 527, 848
2946, 74, 453, 301, 740
2947, 264, 506, 475, 855
2948, 114, 116, 117, 836
2949, 290, 69, 292, 675
2950, 126, 131, 366, 814
2951, 582, 566, 587, 719
2952, 701, 828, 614, 924
2953, 193, 169, 195, 876
2954, 27, 81, 321, 801
2955, 362, 335, 89, 712
2956, 177, 179, 211, 913
2957, 417, 285, 283, 832
2958, 144, 379, 131, 814
2959, 53, 66, 587, 566
2960, 541, 515, 540, 795
2961, 276, 503, 274, 714
2962, 31, 453, 30, 740
2963, 635, 861, 811, 897
2964, 556, 517, 555, 825
2965, 336, 327, 408, 715
2966, 383, 166, 388, 850
2967, 567, 499, 473, 817
2968, 333, 354, 168, 843
2969, 180, 182, 179, 913
2970, 246, 370, 369, 777
2971, 282, 284, 504, 727
2972, 381, 739, 320, 857
2973, 75, 60, 585, 602
2974, 144, 148, 192, 734
2975, 479, 460, 47, 822
2976, 101, 778, 103, 907
2977, 712, 795, 629, 849
2978, 564, 583, 597, 730
2979, 442, 585, 61, 561
2980, 141, 107, 353, 779
2981, 392, 112, 114, 821
2982, 191, 412, 209, 886
2983, 469, 263, 262, 870
2984, 298, 297, 299, 834
2985, 605, 582, 587, 719
2986, 722, 796, 683, 853
2987, 223, 297, 834, 906
2988, 232, 281, 233, 859
2989, 530, 548, 538, 726
2990, 533, 530, 538, 848
2991, 84, 440, 469, 726
2992, 628, 778, 885, 889
2993, 264, 781, 506, 855
2994, 598, 586, 562, 839
2995, 550, 11, 514, 845
2996, 608, 741, 804, 812
2997, 289, 296, 288, 906
2998, 565, 498, 41, 788
2999, 756, 871, 630, 875
3000, 310, 23, 513, 519
3001, 448, 449, 272, 897
3002, 563, 479, 47, 822
3003, 518, 536, 534, 923
3004, 545, 25, 517, 920
3005, 719, 790, 637, 877
3006, 362, 89, 363, 712
3007, 309, 308, 307, 774
3008, 416, 165, 406, 799
3009, 310, 487, 414, 762
3010, 485, 340, 813, 893
3011, 638, 806, 703, 913
3012, 746, 667, 838, 905
3013, 691, 844, 738, 909
3014, 491, 719, 428, 855
3015, 244, 761, 223, 919
3016, 286, 82, 307, 775
3017, 428, 475, 506, 855
3018, 603, 565, 604, 788
3019, 66, 428, 491, 719
3020, 342, 159, 161, 912
3021, 313, 40, 39, 731
3022, 511, 553, 536, 755
3023, 137, 168, 138, 819
3024, 77, 541, 482, 795
3025, 137, 355, 168, 759
3026, 459, 825, 92, 911
3027, 491, 426, 66, 719
3028, 526, 533, 786, 848
3029, 124, 395, 384, 874
3030, 439, 515, 8, 77
3031, 661, 790, 719, 877
3032, 303, 59, 75, 602
3033, 468, 73, 780, 917
3034, 95, 315, 473, 817
3035, 343, 417, 344, 832
3036, 589, 46, 76, 460
3037, 607, 838, 746, 887
3038, 83, 539, 773, 923
3039, 169, 138, 399, 819
3040, 628, 885, 686, 889
3041, 311, 97, 96, 754
3042, 189, 352, 229, 865
3043, 30, 453, 74, 740
3044, 310, 308, 93, 704
3045, 110, 109, 111, 763
3046, 32, 471, 31, 921
3047, 686, 885, 832, 889
3048, 473, 499, 95, 817
3049, 76, 438, 45, 600
3050, 188, 320, 187, 857
3051, 719, 637, 855, 877
3052, 359, 781, 264, 837
3053, 36, 35, 71, 709
3054, 508, 299, 34, 696
3055, 601, 753, 584, 904
3056, 520, 531, 522, 784
3057, 433, 753, 480, 837
3058, 609, 794, 732, 918
3059, 390, 386, 188, 857
3060, 32, 31, 470, 705
3061, 735, 846, 650, 888
3062, 483, 340, 339, 893
3063, 438, 560, 600, 813
3064, 574, 576, 581, 790
3065, 538, 548, 550, 845
3066, 546, 547, 18, 494
3067, 457, 355, 147, 759
3068, 247, 266, 454, 787
3069, 614, 862, 701, 924
3070, 116, 385, 118, 836
3071, 495, 434, 469, 845
3072, 370, 78, 369, 706
3073, 77, 515, 8, 541
3074, 41, 94, 40, 788
3075, 121, 119, 120, 807
3076, 232, 300, 281, 859
3077, 335, 331, 77, 795
3078, 410, 371, 373, 791
3079, 605, 562, 586, 867
3080, 391, 102, 104, 907
3081, 435, 70, 598, 839
3082, 542, 527, 529, 833
3083, 534, 528, 533, 786
3084, 285, 343, 485, 832
3085, 596, 598, 70, 839
3086, 290, 292, 291, 828
3087, 342, 167, 841, 912
3088, 604, 567, 568, 817
3089, 764, 877, 611, 888
3090, 101, 103, 102, 907
3091, 520, 519, 556, 920
3092, 90, 561, 473, 817
3093, 177, 178, 179, 913
3094, 434, 11, 550, 845
3095, 313, 39, 79, 731
3096, 178, 180, 179, 913
3097, 461, 811, 456, 919
3098, 424, 858, 446, 890
3099, 382, 141, 405, 767
3100, 396, 477, 294, 860
3101, 83, 13, 429, 539
3102, 255, 254, 307, 775
3103, 325, 362, 363, 911
3104, 497, 825, 517, 920
3105, 517, 825, 556, 920
3106, 432, 480, 433, 753
3107, 576, 582, 581, 790
3108, 136, 397, 421, 854
3109, 628, 846, 794, 889
3110, 383, 268, 206, 850
3111, 315, 486, 90, 817
3112, 364, 459, 92, 911
3113, 120, 119, 118, 807
3114, 465, 73, 374, 780
3115, 589, 590, 588, 822
3116, 608, 741, 812, 891
3117, 552, 482, 7, 541
3118, 29, 306, 72, 878
3119, 494, 547, 87, 789
3120, 476, 21, 554, 537
3121, 435, 70, 49, 598
3122, 371, 142, 129, 882
3123, 607, 747, 895, 908
3124, 287, 419, 225, 914
3125, 596, 49, 70, 598
3126, 271, 416, 406, 799
3127, 229, 345, 234, 842
3128, 120, 380, 122, 884
3129, 485, 340, 438, 813
3130, 52, 426, 599, 587
3131, 670, 869, 855, 877
3132, 90, 442, 61, 561
3133, 781, 837, 359, 910
3134, 80, 98, 360, 802
3135, 666, 797, 870, 915
3136, 589, 813, 590, 822
3137, 243, 240, 267, 800
3138, 575, 590, 577, 818
3139, 199, 201, 224, 805
3140, 221, 264, 210, 781
3141, 435, 436, 474, 839
3142, 260, 261, 273, 869
3143, 244, 223, 245, 919
3144, 584, 601, 559, 753
3145, 572, 571, 580, 757
3146, 270, 456, 461, 811
3147, 455, 500, 65, 755
3148, 622, 728, 841, 900
3149, 539, 534, 773, 923
3150, 470, 259, 294, 758
3151, 201, 213, 396, 860
3152, 552, 6, 482, 89
3153, 217, 342, 167, 841
3154, 303, 488, 293, 730
3155, 155, 312, 153, 896
3156, 633, 836, 816, 874
3157, 513, 521, 537, 762
3158, 194, 170, 193, 876
3159, 418, 200, 356, 852
3160, 265, 231, 376, 766
3161, 72, 305, 287, 771
3162, 183, 103, 344, 778
3163, 561, 62, 90, 473
3164, 77, 482, 335, 795
3165, 281, 300, 500, 859
3166, 71, 296, 36, 830
3167, 238, 214, 235, 809
3168, 266, 471, 454, 921
3169, 735, 684, 846, 888
3170, 154, 153, 152, 896
3171, 600, 438, 45, 560
3172, 425, 14, 83, 923
3173, 143, 380, 401, 884
3174, 320, 381, 481, 739
3175, 37, 360, 361, 873
3176, 537, 476, 21, 88
3177, 466, 246, 219, 840
3178, 539, 557, 551, 773
3179, 247, 454, 407, 787
3180, 515, 548, 530, 726
3181, 273, 492, 426, 867
3182, 578, 574, 581, 760
3183, 457, 400, 258, 797
3184, 168, 399, 138, 819
3185, 422, 397, 173, 752
3186, 484, 58, 303, 564
3187, 609, 824, 794, 918
3188, 64, 514, 11, 845
3189, 433, 475, 85, 753
3190, 506, 221, 260, 855
3191, 27, 26, 309, 879
3192, 25, 93, 26, 920
3193, 430, 83, 429, 773
3194, 468, 35, 73, 917
3195, 539, 83, 14, 923
3196, 480, 290, 252, 837
3197, 112, 113, 114, 821
3198, 474, 282, 504, 727
3199, 590, 589, 600, 813
3200, 189, 158, 156, 865
3201, 244, 202, 223, 761
3202, 78, 554, 20, 516
3203, 543, 555, 558, 825
3204, 250, 252, 251, 910
3205, 347, 444, 346, 785
3206, 424, 446, 128, 890
3207, 315, 90, 473, 817
3208, 565, 2, 41, 498
3209, 381, 291, 293, 828
3210, 368, 78, 494, 789
3211, 558, 4, 543, 459
3212, 167, 204, 217, 841
3213, 654, 871, 786, 875
3214, 72, 306, 305, 771
3215, 384, 447, 385, 816
3216, 497, 517, 25, 920
3217, 223, 297, 245, 834
3218, 425, 518, 14, 923
3219, 468, 73, 465, 780
3220, 78, 19, 494, 516
3221, 430, 429, 431, 773
3222, 51, 562, 599, 867
3223, 60, 75, 585, 442
3224, 527, 525, 529, 833
3225, 476, 554, 20, 78
3226, 578, 575, 574, 760
3227, 494, 547, 18, 87
3228, 371, 123, 372, 882
3229, 460, 284, 507, 822
3230, 136, 421, 420, 854
3231, 467, 396, 213, 860
3232, 614, 764, 862, 924
3233, 347, 346, 345, 785
3234, 485, 343, 340, 893
3235, 115, 384, 116, 874
3236, 333, 330, 354, 843
3237, 175, 172, 357, 815
3238, 525, 522, 531, 784
3239, 146, 169, 170, 876
3240, 424, 356, 238, 858
3241, 101, 344, 103, 778
3242, 261, 274, 869, 903
3243, 23, 310, 513, 487
3244, 512, 6, 552, 89
3245, 137, 147, 355, 759
3246, 318, 198, 320, 866
3247, 377, 153, 312, 856
3248, 26, 321, 92, 879
3249, 533, 528, 526, 786
3250, 426, 52, 66, 587
3251, 43, 472, 606, 591
3252, 557, 538, 514, 845
3253, 513, 537, 22, 487
3254, 586, 596, 578, 839
3255, 650, 846, 735, 922
3256, 398, 374, 361, 873
3257, 539, 14, 518, 923
3258, 359, 264, 433, 837
3259, 316, 486, 315, 902
3260, 434, 64, 11, 845
3261, 256, 209, 412, 886
3262, 383, 388, 268, 850
3263, 511, 536, 544, 755
3264, 93, 496, 704, 920
3265, 500, 463, 65, 755
3266, 107, 105, 353, 779
3267, 582, 576, 584, 904
3268, 539, 534, 557, 773
3269, 161, 163, 167, 912
3270, 517, 497, 558, 825
3271, 487, 537, 22, 88
3272, 378, 174, 177, 806
3273, 303, 75, 488, 730
3274, 235, 214, 215, 809
3275, 37, 36, 296, 830
3276, 133, 138, 146, 851
3277, 413, 353, 183, 885
3278, 446, 387, 128, 890
3279, 359, 837, 252, 910
3280, 116, 118, 117, 836
3281, 97, 98, 80, 802
3282, 316, 315, 314, 902
3283, 595, 57, 69, 484
3284, 381, 320, 188, 857
3285, 553, 547, 535, 789
3286, 199, 185, 201, 805
3287, 478, 332, 440, 831
3288, 178, 181, 180, 868
3289, 190, 203, 351, 900
3290, 270, 449, 456, 811
3291, 424, 238, 446, 858
3292, 479, 504, 284, 822
3293, 370, 466, 502, 840
3294, 379, 366, 131, 814
3295, 271, 272, 423, 861
3296, 223, 288, 297, 906
3297, 532, 536, 553, 871
3298, 493, 455, 425, 923
3299, 498, 472, 94, 788
3300, 51, 86, 562, 867
3301, 298, 245, 297, 834
3302, 261, 275, 274, 903
3303, 451, 267, 304, 847
3304, 459, 4, 543, 490
3305, 272, 449, 423, 861
3306, 243, 239, 240, 800
3307, 108, 107, 109, 883
3308, 502, 414, 88, 762
3309, 35, 34, 299, 917
3310, 559, 592, 584, 753
3311, 400, 237, 258, 797
3312, 258, 262, 263, 870
3313, 496, 310, 93, 704
3314, 77, 7, 482, 541
3315, 558, 497, 459, 825
3316, 541, 542, 552, 795
3317, 142, 350, 358, 863
3318, 255, 308, 414, 774
3319, 438, 91, 44, 560
3320, 224, 294, 259, 758
3321, 526, 527, 530, 848
3322, 105, 104, 103, 907
3323, 356, 443, 418, 852
3324, 375, 133, 146, 851
3325, 209, 256, 254, 886
3326, 490, 5, 512, 89
3327, 497, 25, 825, 920
3328, 417, 343, 285, 832
3329, 445, 211, 448, 897
3330, 505, 318, 320, 739
3331, 545, 25, 1, 517
3332, 545, 519, 496, 920
3333, 91, 591, 44, 560
3334, 526, 530, 533, 848
3335, 342, 161, 167, 912
3336, 95, 313, 315, 902
3337, 556, 519, 545, 920
3338, 331, 329, 330, 849
3339, 497, 25, 92, 825
3340, 491, 428, 260, 855
3341, 292, 293, 291, 828
3342, 318, 317, 198, 866
3343, 433, 85, 432, 753
3344, 246, 369, 351, 777
3345, 468, 451, 34, 917
3346, 390, 181, 178, 868
3347, 183, 417, 413, 885
3348, 561, 568, 567, 817
3349, 122, 380, 143, 884
3350, 545, 496, 25, 920
3351, 459, 364, 363, 911
3352, 43, 472, 591, 91
3353, 255, 307, 308, 774
3354, 360, 398, 361, 873
3355, 532, 528, 536, 871
3356, 108, 106, 107, 883
3357, 461, 456, 244, 919
3358, 51, 599, 426, 867
3359, 499, 2, 41, 593
3360, 381, 188, 386, 857
3361, 286, 307, 254, 775
3362, 335, 362, 329, 849
3363, 115, 124, 384, 874
3364, 142, 410, 350, 863
3365, 184, 403, 402, 898
3366, 438, 76, 485, 813
3367, 315, 313, 314, 902
3368, 546, 535, 547, 789
3369, 517, 558, 555, 825
3370, 573, 575, 577, 818
3371, 258, 257, 262, 870
3372, 453, 31, 471, 921
3373, 56, 55, 559, 432
3374, 499, 567, 63, 593
3375, 448, 272, 445, 897
3376, 284, 460, 479, 822
3377, 539, 518, 534, 923
3378, 261, 350, 275, 903
3379, 236, 351, 777, 900
3380, 359, 433, 252, 837
3381, 268, 389, 269, 835
3382, 260, 428, 506, 855
3383, 467, 477, 396, 860
3384, 414, 487, 88, 762
3385, 264, 359, 210, 781
3386, 543, 5, 512, 490
3387, 364, 325, 363, 911
3388, 184, 402, 162, 898
3389, 189, 156, 352, 865
3390, 377, 151, 153, 856
3391, 425, 15, 14, 518
3392, 566, 54, 53, 427
3393, 515, 8, 9, 439
3394, 510, 368, 87, 789
3395, 246, 466, 370, 840
3396, 461, 244, 245, 919
3397, 320, 481, 505, 739
3398, 288, 296, 71, 906
3399, 359, 250, 357, 910
3400, 84, 10, 9, 548
3401, 154, 155, 153, 896
3402, 411, 198, 317, 866
3403, 338, 323, 337, 880
3404, 71, 297, 288, 906
3405, 580, 601, 584, 904
3406, 371, 129, 123, 882
3407, 86, 51, 426, 867
3408, 550, 514, 538, 845
3409, 511, 16, 17, 463
3410, 94, 41, 498, 788
3411, 540, 542, 541, 795
3412, 76, 507, 485, 813
3413, 408, 323, 338, 880
3414, 453, 471, 266, 921
3415, 537, 21, 22, 88
3416, 268, 269, 253, 835
3417, 287, 259, 295, 914
3418, 589, 47, 46, 460
3419, 170, 169, 193, 876
3420, 58, 59, 303, 564
3421, 274, 273, 261, 869
3422, 498, 565, 42, 606
3423, 252, 433, 480, 837
3424, 12, 11, 64, 514
3425, 589, 588, 563, 822
3426, 27, 321, 26, 879
3427, 29, 30, 74, 878
3428, 86, 50, 51, 562
3429, 274, 492, 273, 869
3430, 351, 369, 236, 777
3431, 462, 509, 332, 831
3432, 17, 18, 547, 87
3433, 509, 440, 332, 831
3434, 517, 25, 1, 497
3435, 474, 70, 435, 839
3436, 104, 102, 103, 907
3437, 55, 54, 592, 85
3438, 23, 310, 496, 519
3439, 494, 87, 368, 789
3440, 434, 11, 10, 550
3441, 560, 590, 600, 813
3442, 250, 359, 252, 910
3443, 29, 72, 30, 878
3444, 473, 567, 63, 499
3445, 545, 24, 1, 496
3446, 49, 50, 435, 598
3447, 565, 42, 2, 498
3448, 236, 204, 351, 900
3449, 70, 48, 49, 596
3450, 429, 13, 12, 551
3451, 585, 61, 60, 442
3452, 580, 584, 576, 904
3453, 598, 596, 586, 839
3454, 15, 65, 16, 544
3455, 78, 20, 19, 516
3456, 61, 62, 90, 561
3457, 190, 351, 204, 900
3458, 225, 259, 287, 914
3459, 45, 46, 76, 600
3460, 83, 14, 13, 539
3461, 35, 468, 34, 917
3462, 92, 459, 497, 825
3463, 497, 3, 517, 558
3464, 1, 25, 545, 496
3465, 493, 425, 83, 923
3466, 591, 44, 43, 91
3467, 53, 66, 52, 587
3468, 63, 62, 567, 473
3469, 56, 57, 69, 595
3470, 599, 562, 605, 867
3471, 495, 64, 434, 845
3472, 77, 8, 7, 541
3473, 86, 426, 492, 867
3474, 331, 335, 329, 849
3475, 545, 517, 556, 920
3476, 3, 4, 558, 459
3477, 513, 22, 23, 487
3478, 496, 545, 24, 519
3479, 44, 45, 438, 560
3480, 472, 498, 42, 606
3481, 426, 51, 52, 599
3482, 479, 47, 48, 563
3483, 20, 21, 554, 476
3484, 558, 497, 3, 459
3485, 512, 5, 6, 89
3486, 472, 42, 43, 606
3487, 499, 63, 2, 593
3488, 4, 5, 543, 490
3489, 60, 75, 59, 602
3490, 93, 25, 496, 920
3491, 24, 23, 496, 519
3492, 482, 7, 6, 552
3493, 1, 3, 517, 497
3494, 484, 57, 58, 594
3495, 18, 19, 546, 494
3496, 718, 776, 746, 615
3497, 746, 776, 718, 635
3498, 825, 531, 529, 555
3499, 825, 529, 531, 784
3500, 751, 348, 401, 150
3501, 751, 401, 348, 689
3502, 789, 367, 300, 510
3503, 789, 300, 367, 630
3504, 908, 716, 696, 747
3505, 908, 696, 716, 847
3506, 734, 143, 814, 144
3507, 734, 814, 143, 653
3508, 770, 805, 697, 758
3509, 697, 805, 770, 613
3510, 876, 200, 699, 170
3511, 876, 699, 200, 676
3512, 836, 680, 392, 821
3513, 836, 392, 680, 688
3514, 822, 575, 590, 588
3515, 822, 590, 575, 818
3516, 788, 902, 817, 646
3517, 817, 902, 788, 95
3518, 817, 579, 829, 568
3519, 817, 829, 579, 646
3520, 733, 627, 687, 901
3521, 733, 687, 627, 915
3522, 832, 822, 507, 285
3523, 832, 507, 822, 644
3524, 802, 39, 754, 731
3525, 802, 754, 39, 80
3526, 811, 182, 897, 449
3527, 811, 897, 182, 700
3528, 591, 788, 472, 606
3529, 472, 788, 591, 679
3530, 912, 160, 162, 722
3531, 912, 162, 160, 161
3532, 814, 143, 884, 131
3533, 814, 884, 143, 653
3534, 893, 311, 754, 339
3535, 893, 754, 311, 679
3536, 802, 100, 873, 663
3537, 802, 873, 100, 98
3538, 132, 759, 814, 147
3539, 814, 759, 132, 685
3540, 871, 657, 524, 786
3541, 871, 524, 657, 756
3542, 68, 787, 304, 454
3543, 304, 787, 68, 716
3544, 830, 73, 709, 780
3545, 830, 709, 73, 36
3546, 839, 479, 504, 70
3547, 839, 504, 479, 822
3548, 787, 248, 205, 247
3549, 787, 205, 248, 708
3550, 861, 212, 799, 669
3551, 861, 799, 212, 423
3552, 479, 596, 839, 563
3553, 839, 596, 479, 70
3554, 897, 182, 913, 448
3555, 897, 913, 182, 700
3556, 797, 216, 192, 237
3557, 797, 192, 216, 677
3558, 805, 165, 184, 185
3559, 805, 184, 165, 722
3560, 921, 301, 708, 266
3561, 921, 708, 301, 740
3562, 814, 812, 685, 653
3563, 814, 685, 812, 627
3564, 887, 615, 691, 838
3565, 887, 691, 615, 776
3566, 756, 549, 535, 523
3567, 756, 535, 549, 706
3568, 850, 389, 268, 835
3569, 850, 268, 389, 388
3570, 829, 730, 614, 682
3571, 829, 614, 730, 757
3572, 130, 882, 124, 129
3573, 124, 882, 130, 711
3574, 851, 132, 819, 685
3575, 851, 819, 132, 133
3576, 137, 819, 132, 685
3577, 137, 132, 819, 133
3578, 921, 783, 705, 619
3579, 921, 705, 783, 740
3580, 868, 188, 187, 857
3581, 868, 187, 188, 181
3582, 886, 286, 254, 775
3583, 886, 254, 286, 256
3584, 679, 893, 91, 483
3585, 679, 91, 893, 813
3586, 438, 91, 893, 483
3587, 438, 893, 91, 813
3588, 797, 147, 814, 759
3589, 797, 814, 147, 400
3590, 870, 845, 431, 495
3591, 870, 431, 845, 651
3592, 782, 841, 766, 622
3593, 766, 841, 782, 692
3594, 896, 157, 156, 155
3595, 896, 156, 157, 683
3596, 716, 508, 847, 696
3597, 716, 847, 508, 33
3598, 34, 847, 508, 696
3599, 34, 508, 847, 33
3600, 923, 269, 430, 493
3601, 923, 430, 269, 654
3602, 911, 322, 325, 725
3603, 911, 325, 322, 364
3604, 816, 346, 444, 785
3605, 816, 444, 346, 447
3606, 910, 175, 357, 815
3607, 910, 357, 175, 250
3608, 884, 441, 125, 380
3609, 884, 125, 441, 689
3610, 903, 888, 863, 650
3611, 903, 863, 888, 670
3612, 698, 888, 863, 670
3613, 369, 789, 78, 368
3614, 78, 789, 369, 706
3615, 267, 917, 451, 468
3616, 451, 917, 267, 847
3617, 839, 504, 474, 70
3618, 839, 474, 504, 727
3619, 786, 557, 651, 533
3620, 786, 651, 557, 773
3621, 833, 540, 542, 527
3622, 833, 542, 540, 795
3623, 911, 321, 92, 364
3624, 911, 92, 321, 879
3625, 581, 867, 790, 605
3626, 790, 867, 581, 661
3627, 434, 548, 10, 84
3628, 10, 548, 434, 550
3629, 402, 723, 403, 412
3630, 403, 723, 402, 898
3631, 869, 491, 260, 855
3632, 869, 260, 491, 273
3633, 562, 435, 50, 598
3634, 562, 50, 435, 86
3635, 873, 242, 100, 398
3636, 873, 100, 242, 820
3637, 255, 840, 414, 466
3638, 414, 840, 255, 774
3639, 494, 516, 789, 78
3640, 789, 516, 494, 546
3641, 893, 818, 736, 679
3642, 893, 736, 818, 644
3643, 923, 544, 536, 755
3644, 923, 536, 544, 518
3645, 888, 781, 698, 623
3646, 888, 698, 781, 670
3647, 888, 863, 735, 698
3648, 888, 735, 863, 650

*NSET, NSET=CONSTRAINT_1
1, 3, 4, 5, 6, 7, 8, 9, 10, 11, 12, 13, 14, 15, 16, 17
18, 19, 20, 21, 22, 23, 24, 511, 512, 513, 514, 515, 516, 517, 518, 519
520, 521, 522, 523, 524, 525, 526, 527, 528, 529, 530, 531, 532, 533, 534, 535
536, 537, 538, 539, 540, 541, 542, 543, 544, 545, 546, 547, 548, 549, 550, 551
552, 553, 554, 555, 556, 557, 558

*NSET, NSET=CONSTRAINT_2
2, 42, 43, 44, 45, 46, 47, 48, 49, 50, 51, 52, 53, 54, 55, 56
57, 58, 59, 60, 61, 62, 63, 559, 560, 561, 562, 563, 564, 565, 566, 567
568, 569, 570, 571, 572, 573, 574, 575, 576, 577, 578, 579, 580, 581, 582, 583
584, 585, 586, 587, 588, 589, 590, 591, 592, 593, 594, 595, 596, 597, 598, 599
600, 601, 602, 603, 604, 605, 606

*NSET, NSET=DLOAD_1
271, 272, 406, 416, 423, 448, 449

*MATERIAL, NAME=STRUCTURAL_STEEL
*ELASTIC
200000.000000, 0.300000

*SOLID SECTION, ELSET=ALL_ELEMENTS, MATERIAL=STRUCTURAL_STEEL

*BOUNDARY
CONSTRAINT_1, 1, 3

*BOUNDARY
CONSTRAINT_2, 1, 3

*STEP, NLGEOM=NO
*STATIC
0.1, 1.0

*CLOAD
DLOAD_1, 3, -5000.000000

*NODE FILE
U, RF
*EL FILE
S, E

*END STEP
