*HEADING
Cylindrical mast domain fixed at base, under combined gravity self-weight and lateral wind distributed force. Tests topology under biaxial loading on a non-box domain.

*NODE, NSET=ALL_NODES
1, 20.000000, 0.000000, 0.000000
2, 20.000000, 0.000000, 150.000000
3, 19.021130, 6.180340, 0.000000
4, 16.180340, 11.755705, 0.000000
5, 11.755705, 16.180340, 0.000000
6, 6.180340, 19.021130, 0.000000
7, -0.000000, 20.000000, 0.000000
8, -6.180340, 19.021130, 0.000000
9, -11.755705, 16.180340, 0.000000
10, -16.180340, 11.755705, 0.000000
11, -19.021130, 6.180340, 0.000000
12, -20.000000, -0.000000, 0.000000
13, -19.021130, -6.180340, 0.000000
14, -16.180340, -11.755705, 0.000000
15, -11.755705, -16.180340, 0.000000
16, -6.180340, -19.021130, 0.000000
17, 0.000000, -20.000000, 0.000000
18, 6.180340, -19.021130, 0.000000
19, 11.755705, -16.180340, 0.000000
20, 16.180340, -11.755705, 0.000000
21, 19.021130, -6.180340, 0.000000
22, 20.000000, 0.000000, 6.250000
23, 20.000000, 0.000000, 12.500000
24, 20.000000, 0.000000, 18.750000
25, 20.000000, 0.000000, 25.000000
26, 20.000000, 0.000000, 31.250000
27, 20.000000, 0.000000, 37.500000
28, 20.000000, 0.000000, 43.750000
29, 20.000000, 0.000000, 50.000000
30, 20.000000, 0.000000, 56.250000
31, 20.000000, 0.000000, 62.500000
32, 20.000000, 0.000000, 68.750000
33, 20.000000, 0.000000, 75.000000
34, 20.000000, 0.000000, 81.250000
35, 20.000000, 0.000000, 87.500000
36, 20.000000, 0.000000, 93.750000
37, 20.000000, 0.000000, 100.000000
38, 20.000000, 0.000000, 106.250000
39, 20.000000, 0.000000, 112.500000
40, 20.000000, 0.000000, 118.750000
41, 20.000000, 0.000000, 125.000000
42, 20.000000, 0.000000, 131.250000
43, 20.000000, 0.000000, 137.500000
44, 20.000000, 0.000000, 143.750000
45, 19.021130, 6.180340, 150.000000
46, 16.180340, 11.755705, 150.000000
47, 11.755705, 16.180340, 150.000000
48, 6.180340, 19.021130, 150.000000
49, -0.000000, 20.000000, 150.000000
50, -6.180340, 19.021130, 150.000000
51, -11.755705, 16.180340, 150.000000
52, -16.180340, 11.755705, 150.000000
53, -19.021130, 6.180340, 150.000000
54, -20.000000, -0.000000, 150.000000
55, -19.021130, -6.180340, 150.000000
56, -16.180340, -11.755705, 150.000000
57, -11.755705, -16.180340, 150.000000
58, -6.180340, -19.021130, 150.000000
59, 0.000000, -20.000000, 150.000000
60, 6.180340, -19.021130, 150.000000
61, 11.755705, -16.180340, 150.000000
62, 16.180340, -11.755705, 150.000000
63, 19.021130, -6.180340, 150.000000
64, 19.268740, -5.358700, 78.125366
65, 19.267553, 5.362961, 90.625023
66, 19.267578, 5.362875, 59.375000
67, 19.267578, -5.362875, 53.125000
68, 19.269045, -5.357600, 103.124710
69, -19.778221, 2.970184, 144.382889
70, -19.756403, 3.112006, 5.243302
71, 19.267578, 5.362875, 115.625000
72, 19.267578, 5.362875, 34.375000
73, 19.264639, -5.373425, 34.374931
74, -9.076333, -17.821901, 144.602356
75, -10.192912, -17.207689, 5.390332
76, 19.269993, -5.354191, 121.876289
77, -3.161441, 19.748552, 144.611511
78, -3.128689, 19.753767, 5.413452
79, 9.175451, -17.771074, 5.275729
80, 9.098848, -17.810417, 144.426071
81, 19.267578, 5.362875, 78.125000
82, 19.267578, 5.362875, 103.125000
83, 19.267578, 5.362875, 46.875000
84, 19.267523, -5.363073, 65.625420
85, 19.267618, -5.362734, 90.625374
86, 19.267578, 5.362875, 128.125000
87, 19.267578, 5.362875, 21.875000
88, 19.264114, -5.375307, 21.874342
89, 9.175680, 17.770956, 144.560059
90, 9.189131, 17.764006, 5.213499
91, -17.800989, -9.117278, 5.432337
92, -17.858686, -9.003738, 144.404617
93, -14.142136, 14.142136, 144.586548
94, -14.116682, 14.167543, 5.431643
95, 19.267578, -5.362875, 134.375000
96, 19.289532, -5.283365, 9.513288
97, 19.267578, 5.362875, 140.625000
98, 19.267578, 5.362875, 9.375000
99, 17.820131, -9.079810, 144.586548
100, 19.268133, -5.360881, 71.878586
101, 19.267681, -5.362507, 84.375061
102, 17.123890, -10.333072, 87.500008
103, 17.124382, -10.332258, 68.753571
104, 17.123663, -10.333448, 62.502487
105, 17.123842, -10.333152, 93.750381
106, 17.124454, -10.332136, 81.249474
107, 19.267578, 5.362875, 84.375000
108, 19.267578, 5.362875, 71.875000
109, 19.267725, 5.362347, 65.622009
110, 19.267578, 5.362875, 53.125000
111, 17.123203, 10.334209, 49.999592
112, 17.123518, 10.333691, 68.746185
113, 17.123781, 10.333254, 87.500000
114, 17.123766, 10.333278, 93.750572
115, 17.123714, 10.333364, 43.749195
116, 13.724556, 14.547734, 46.873867
117, 13.725878, -14.546487, 65.630119
118, 13.725987, -14.546384, 84.374702
119, 13.724338, -14.547940, 59.379917
120, 13.725068, 14.547251, 40.623142
121, 9.320364, 17.695503, 43.748291
122, 9.320305, 17.695534, 37.496666
123, 4.232268, 19.547070, 40.622574
124, 4.232853, 19.546942, 46.874729
125, -1.166298, 19.965965, 43.748650
126, -1.166147, 19.965973, 50.001190
127, 13.725401, 14.546936, 90.625458
128, -1.166317, 19.965963, 37.496277
129, -6.479623, 18.921270, 40.622372
130, -6.479612, 18.921274, 34.369587
131, -11.318019, 16.489464, 37.495567
132, 9.320853, -17.695246, 62.508362
133, 9.317059, -17.697243, 56.257793
134, 4.231582, -19.547218, 59.386021
135, 4.228511, -19.547882, 53.134892
136, -1.167802, -19.965878, 56.263557
137, -1.171246, -19.965675, 50.011814
138, -1.163808, -19.966110, 62.515221
139, -6.478399, -18.921690, 59.391769
140, -6.475008, -18.922850, 65.643906
141, -11.314546, -16.491848, 62.520794
142, -11.311164, -16.494167, 68.773300
143, -15.322355, -12.854005, 65.649109
144, -15.320673, -12.856009, 71.902138
145, -18.208172, -8.274207, 68.778397
146, -18.206553, -8.277768, 75.030151
147, -19.760056, -3.088726, 71.907104
148, -19.759399, -3.092919, 78.159637
149, -19.864618, 2.323125, 75.036407
150, -15.324515, -12.851429, 59.397285
151, -19.864189, 2.326791, 68.783791
152, -18.512657, 7.568458, 71.913017
153, -19.864868, 2.320989, 81.288872
154, -19.759037, -3.095229, 84.411873
155, -19.865339, 2.316951, 87.541336
156, -19.758064, -3.101431, 90.666107
157, -19.865757, 2.313382, 93.794647
158, -19.757153, -3.107235, 96.917984
159, -19.865908, 2.312080, 100.047890
160, -19.757025, -3.108044, 103.172775
161, -19.866449, 2.307420, 106.301361
162, -19.756111, -3.113854, 109.425697
163, -18.198503, -8.295448, 100.043022
164, -19.867027, 2.302434, 112.555840
165, -18.519121, 7.552625, 109.431816
166, -18.520830, 7.548433, 115.686256
167, -15.814739, 12.243121, 112.562508
168, -19.756031, -3.114359, 115.680618
169, -18.516325, 7.559477, 90.671333
170, -15.817727, 12.239262, 118.816795
171, -11.951605, 16.036182, 115.692383
172, -11.948875, 16.038216, 109.438507
173, -7.209372, 18.655428, 112.567780
174, -11.318869, 16.488882, 31.242668
175, -15.327335, 12.848065, 34.369709
176, -15.327151, 12.848286, 40.622726
177, -18.212414, 8.264864, 37.495720
178, -18.196424, -8.300009, 112.550377
179, -18.195276, -8.302525, 118.804825
180, -15.301062, -12.879345, 115.674988
181, -15.317755, -12.859486, 78.153465
182, -18.212717, 8.264196, 31.242516
183, -19.762154, 3.075275, 34.369766
184, -7.212346, 18.654278, 118.821388
185, -18.511320, 7.571723, 65.660469
186, -15.802983, 12.258292, 68.790024
187, -7.206357, 18.656591, 106.314293
188, -6.467981, -18.925253, 71.895729
189, 13.725377, 14.546960, 96.876328
190, -19.762060, 3.075867, 40.622513
191, -19.862766, -2.338917, 37.496311
192, -19.862728, -2.339235, 31.243088
193, -18.506956, -7.582388, 34.369759
194, -15.299317, -12.881416, 121.928848
195, -11.282886, -16.513525, 118.798683
196, -11.286115, -16.511318, 112.545067
197, -6.440585, -18.934595, 115.668198
198, -6.444273, -18.933340, 109.414986
199, -1.126834, -19.968231, 112.538582
200, -1.123115, -19.968441, 118.791634
201, -1.130398, -19.968029, 106.285774
202, 4.224868, -19.548670, 46.883335
203, -18.506849, -7.582648, 28.116282
204, -15.793805, -12.270115, 31.243143
205, -1.941473, 19.905544, 115.697319
206, -1.944441, 19.905254, 121.950539
207, -19.755625, -3.116940, 121.934723
208, -6.479209, 18.921412, 28.116041
209, 9.321105, 17.695112, 93.750893
210, 9.321611, 17.694845, 87.499962
211, 4.234155, 19.546659, 90.624939
212, 4.233521, 19.546797, 84.373810
213, 4.231766, 19.547178, 53.126579
214, -15.793949, -12.269929, 24.989107
215, -11.922229, -16.058035, 28.116352
216, -7.213736, 18.653740, 125.075790
217, 4.269021, -19.539076, 109.408630
218, -1.157953, 19.966450, 56.250961
219, -15.794070, -12.269773, 37.496929
220, 3.468442, 19.696951, 118.827209
221, -19.862703, -2.339453, 24.989338
222, 3.465471, 19.697475, 125.080353
223, -1.164283, 19.966082, 87.499672
224, -2.105614, 19.888851, 81.218048
225, -11.280516, -16.515144, 125.052803
226, -11.318288, 16.489281, 24.988993
227, -15.804916, 12.255800, 75.042046
228, 9.326037, -17.692514, 68.758614
229, -6.479027, 18.921474, 53.127140
230, 9.321165, 17.695080, 100.002220
231, -19.862799, -2.338633, 43.749527
232, -19.762070, 3.075812, 46.876057
233, -1.174550, -19.965481, 43.760254
234, 4.222243, -19.549236, 40.631207
235, 9.312479, -17.699654, 43.754608
236, 3.885995, 19.618843, 78.203461
237, 4.233681, 19.546762, 59.379215
238, -1.166012, 19.965981, 62.504948
239, 4.265547, -19.539833, 103.156494
240, -1.133809, -19.967836, 100.033325
241, 8.624294, 18.044987, 121.956085
242, 9.309807, -17.701059, 37.502663
243, 4.219286, -19.549875, 34.379208
244, 9.307272, -17.702393, 31.250490
245, 4.230981, -19.547348, 28.130552
246, 9.307772, -17.702129, 24.996944
247, 4.230452, -19.547462, 21.870491
248, 8.621593, 18.046278, 128.209793
249, -15.297276, -12.883840, 128.183578
250, -6.478887, 18.921522, 21.862120
251, -1.165494, 19.966011, 24.988819
252, -11.935440, -16.048216, 21.866138
253, -19.873865, 2.242653, 62.668949
254, 8.626162, 18.044094, 115.703293
255, -11.946041, 16.040327, 103.184662
256, 4.262139, -19.540577, 96.904305
257, -1.137141, -19.967646, 93.781174
258, -6.485072, -18.919403, 46.889027
259, -6.476986, 18.922174, 84.373878
260, -11.943642, 16.042114, 71.920845
261, -18.733431, 7.004180, 59.571846
262, -6.449944, -18.931408, 96.910072
263, -6.453102, -18.930332, 90.657806
264, -1.140391, -19.967461, 87.528961
265, 9.352036, -17.678785, 106.279564
266, 9.354573, -17.677443, 112.531631
267, -19.851515, -2.432559, 49.852345
268, -1.164590, 19.966064, 18.734844
269, 4.233661, 19.546768, 21.862391
270, 3.462166, 19.698055, 131.334106
271, 9.308061, -17.701977, 18.742130
272, -15.795777, -12.267576, 18.734001
273, -11.318353, 16.489235, 18.734379
274, -2.183712, 19.880428, 93.685829
275, -11.326091, -16.483921, 131.471207
276, 4.209585, -19.551966, 15.620108
277, -6.456071, -18.929319, 84.405685
278, -1.150877, -19.966860, 81.272377
279, -11.286291, -16.511198, 106.291924
280, 13.722263, -14.549896, 53.129013
281, 4.236832, 19.546080, 65.631134
282, -1.165906, 19.965988, 68.756767
283, -11.296737, -16.504053, 87.533989
284, 9.322083, 17.694597, 56.252571
285, -6.414069, -18.943592, 128.190170
286, -18.507393, -7.581317, 46.876331
287, -15.328012, 12.847260, 21.861725
288, 13.717024, -14.554836, 40.625690
289, 13.712647, -14.558960, 28.120680
290, 13.752272, -14.521537, 109.402519
291, 13.755388, -14.518584, 115.654221
292, -11.204379, 16.566891, 65.635872
293, -7.324318, -18.610598, 40.607269
294, 9.358940, -17.675131, 118.783432
295, 13.725651, 14.546701, 103.127769
296, 13.725529, 14.546816, 34.370907
297, -18.522423, 7.544526, 121.940865
298, -15.819118, 12.237463, 125.070923
299, -18.523392, 7.542146, 128.195465
300, -15.820983, 12.235052, 131.325989
301, 13.746475, -14.527024, 121.901428
302, 9.359444, -17.674864, 125.036194
303, 13.747741, -14.525826, 128.155869
304, 9.358530, -17.675348, 131.289993
305, 14.200878, -14.083148, 134.560196
306, 13.144959, 15.073488, 118.833405
307, -2.063679, -19.893246, 31.225307
308, -1.189467, -19.964598, 18.750004
309, -6.429337, -18.938417, 134.432037
310, 4.234596, 19.546564, 15.587962
311, 9.326015, 17.692524, 18.735483
312, -15.370096, -12.796881, 134.431259
313, -18.208790, -8.272847, 131.303299
314, -18.545691, 7.487148, 134.358398
315, -15.362517, 12.805977, 15.695828
316, -18.213491, 8.262491, 18.734341
317, -1.192879, -19.964394, 12.495328
318, 13.750001, -14.523686, 103.150696
319, 9.320671, 17.695341, 31.244513
320, 13.727320, 14.545126, 28.118418
321, 13.727357, -14.545091, 78.124817
322, -11.926952, -16.054525, 15.679660
323, -18.202818, -8.285976, 87.535828
324, 8.558305, 18.076378, 134.353363
325, 13.123066, 15.092552, 131.339828
326, -19.868187, 2.292411, 131.320312
327, 4.279076, -19.536875, 128.165070
328, 4.282686, -19.536085, 134.418839
329, 9.330043, -17.690401, 81.251633
330, 9.330559, -17.690130, 87.501160
331, 17.140789, -10.305017, 112.523827
332, 12.447018, 15.654768, 138.335403
333, 13.152463, 15.066941, 112.579842
334, 8.630318, 18.042107, 109.450905
335, 3.458813, 19.698645, 137.588577
336, -1.952504, 19.904465, 134.458420
337, -11.959147, -16.030558, 43.804668
338, -11.365377, -16.456858, 50.017754
339, -6.193044, -19.016998, 24.895664
340, 16.707747, 10.993236, 134.468781
341, -18.213528, 8.262410, 12.479030
342, -19.772163, 3.010245, 15.719277
343, -6.364679, 18.960243, 100.030228
344, -11.678514, 16.236141, 97.006477
345, -1.158749, 19.966404, 103.229622
346, -15.724861, 12.358347, 100.030914
347, -18.507467, -7.581139, 53.129105
348, -11.939562, 16.045151, 78.171112
349, -15.810985, 12.247971, 81.292168
350, -6.243491, 19.000496, 75.024101
351, -11.565540, 16.316809, 11.750741
352, -16.036337, -11.951399, 11.751543
353, -18.507324, -7.581487, 15.607072
354, -19.803705, 2.795223, 53.071850
355, -18.296892, 8.076122, 49.874298
356, -16.039051, 11.947756, 138.295883
357, -11.958033, 16.031389, 134.456360
358, -1.335999, 19.955328, 12.451013
359, -18.191563, -8.310658, 137.569397
360, -19.868578, 2.289016, 137.575974
361, 9.300108, -17.706158, 12.490256
362, 13.710518, -14.560966, 15.613562
363, 13.709167, -14.562237, 9.360768
364, 9.326275, 17.692389, 12.481032
365, 13.731539, 14.541143, 15.608509
366, 13.731709, 14.540981, 9.354212
367, 4.190917, -19.555977, 9.136346
368, -0.525934, -19.993084, 6.007877
369, 3.304196, 19.725168, 9.077440
370, -6.460111, -18.927942, 78.153015
371, -1.146991, -19.967083, 75.025093
372, -11.304818, -16.498518, 75.035835
373, -1.156279, -19.966547, 68.773399
374, 17.122879, 10.334748, 74.996399
375, 13.725283, 14.547049, 71.869019
376, 13.725264, 14.547067, 78.120232
377, 13.724713, 14.547585, 65.619324
378, 13.725266, 14.547065, 84.375771
379, 13.730659, 14.541974, 21.861706
380, 9.323445, 17.693880, 24.991873
381, 4.233295, 19.546846, 28.117060
382, 17.123949, 10.332975, 81.245430
383, 13.142356, 15.075758, 125.082359
384, 16.709269, 10.990921, 121.961159
385, -6.436081, -18.936127, 121.921150
386, 9.320512, 17.695425, 49.997841
387, 13.726094, 14.546283, 53.123684
388, 17.133526, -10.317086, 106.270210
389, -1.860182, 19.913305, 109.445816
390, 3.490335, 19.693085, 112.581230
391, 4.227679, 19.548061, 106.361732
392, 9.348693, -17.680553, 100.027451
393, 9.338495, -17.685942, 93.774940
394, 13.734561, -14.538288, 96.894974
395, -11.086613, -16.645931, 34.296219
396, 13.721103, -14.550991, 46.875210
397, 17.120420, -10.338820, 43.749191
398, 9.314872, -17.698395, 50.008034
399, 13.714915, -14.556824, 34.371021
400, 17.119270, -10.340724, 37.496731
401, 9.187846, 17.764669, 81.223488
402, 9.245602, 17.734680, 75.017090
403, 9.321498, 17.694906, 62.504330
404, 4.272938, -19.538219, 115.658813
405, 4.275550, -19.537647, 121.909775
406, -18.507202, -7.581786, 40.623158
407, -15.302072, -12.878144, 109.423836
408, -18.196583, -8.299661, 106.299004
409, -15.303325, -12.876656, 103.170731
410, -15.305183, -12.874447, 96.915649
411, -11.289153, -16.509241, 100.037277
412, -18.514378, 7.564244, 78.164429
413, -18.199970, -8.292230, 93.791534
414, -15.308683, -12.870284, 90.662849
415, -15.312106, -12.866211, 84.411263
416, 13.713010, -14.558618, 21.865568
417, 4.253381, -19.542486, 90.651085
418, -18.217346, 8.253987, 43.738094
419, -18.515902, 7.560515, 84.415749
420, -15.810860, 12.248132, 87.546227
421, -15.762393, 12.310441, 93.823105
422, -11.190257, 16.576433, 90.640808
423, -18.484066, 7.638015, 96.930008
424, -18.205332, -8.280452, 81.281578
425, -11.956086, 16.032841, 128.204117
426, -11.954855, 16.033760, 121.950104
427, -7.115047, 18.691605, 131.494766
428, -15.811996, 12.246665, 62.700386
429, -11.934524, 16.048899, 59.414181
430, 17.124001, 10.332890, 100.000893
431, -18.173584, -8.349900, 62.667328
432, -6.499403, -18.914486, 53.137825
433, -1.118670, -19.968689, 125.045586
434, -1.000706, -19.974949, 131.470444
435, -19.753502, -3.130363, 65.664635
436, -15.803766, 12.257283, 106.308174
437, 4.238986, -19.545612, 65.636955
438, 4.241312, -19.545109, 71.885834
439, -6.478710, 18.921583, 46.876812
440, -11.245068, 16.539301, 49.863407
441, -1.165829, 19.965992, 31.240673
442, 13.728916, -14.543619, 90.625854
443, -19.867258, 2.300443, 118.810852
444, 19.267645, -5.362635, 59.375175
445, 17.123699, -10.333387, 56.250000
446, 19.267542, -5.363004, 46.877907
447, 19.266129, -5.368081, 40.628090
448, -6.446844, -18.932465, 103.162292
449, 19.267570, 5.362899, 96.875038
450, 19.267769, -5.362191, 96.876762
451, 17.124731, 10.331677, 37.500546
452, 17.124941, 10.331331, 31.249279
453, 17.125875, 10.329781, 24.997377
454, 17.128395, 10.325604, 18.744619
455, -11.310872, 16.494368, 43.732201
456, 19.268417, -5.359862, 128.124969
457, -18.502901, 7.592275, 103.167877
458, 19.267578, 5.362875, 109.375000
459, 19.267248, 5.364063, 40.623020
460, 19.267578, 5.362875, 28.125000
461, -18.507004, -7.582272, 21.864128
462, 19.265003, -5.372118, 28.127043
463, -15.328429, 12.846760, 28.119123
464, -6.480335, 18.921026, 15.610634
465, -1.589380, -19.936747, 37.578594
466, 3.781409, 19.639271, 96.543900
467, 17.123228, -10.334169, 49.996952
468, 4.232822, 19.546949, 34.370270
469, 19.265762, -5.369392, 15.639879
470, -19.867813, 2.295642, 125.062332
471, -18.195848, -8.301269, 125.058083
472, -19.762072, 3.075791, 28.118166
473, -19.763351, 3.067566, 21.876129
474, -11.321237, -16.487255, 56.275642
475, -18.213585, 8.262283, 24.985508
476, -1.945688, 19.905132, 128.200729
477, 17.123922, 10.333017, 56.246727
478, 17.123951, 10.332973, 62.495041
479, 19.268139, 5.360860, 15.621409
480, -11.292150, -16.507191, 93.782677
481, -19.756758, -3.109744, 128.185242
482, -19.746344, -3.175201, 134.330658
483, -19.862635, -2.340032, 18.735872
484, 17.126270, -10.329128, 74.998711
485, 17.126066, 10.329464, 106.246414
486, -15.347281, 12.824233, 46.879616
487, -11.298182, -16.503063, 81.287704
488, 17.115721, -10.346600, 31.245584
489, 17.116096, -10.345976, 24.991117
490, 17.114983, -10.347819, 18.740423
491, 17.134293, -10.315814, 12.486358
492, 13.725661, 14.546691, 59.374138
493, 13.727585, -14.544876, 71.876160
494, 9.326814, -17.692104, 75.007919
495, 4.172331, 19.559950, 71.878998
496, 9.301000, 17.705688, 68.757042
497, 17.127127, 10.327707, 12.499596
498, 4.239451, -19.545513, 78.126915
499, 4.243128, -19.544714, 84.376442
500, 17.126278, -10.329116, 100.000000
501, 19.269756, -5.355043, 109.375000
502, 19.270950, -5.350747, 115.633820
503, 17.133493, -10.317142, 118.754379
504, 17.132290, -10.319140, 125.000725
505, 17.132896, -10.318133, 131.250000
506, 14.142682, -14.141589, 144.586990
507, 3.198273, 19.742620, 144.410889
508, -9.080088, 17.819990, 144.586731
509, -6.778050, 18.816429, 139.226318
510, -9.080085, 17.819990, 5.413278
511, -14.281389, -14.001496, 5.412893
512, -17.676821, 9.355749, 144.527969
513, -14.141931, -14.142341, 144.586716
514, -11.684985, -16.231485, 139.224991
515, -17.820242, 9.079592, 5.413313
516, -19.753805, -3.128447, 5.413313
517, -19.729586, -3.277719, 144.609650
518, 14.142136, 14.142136, 144.586548
519, 3.128689, -19.753767, 144.586548
520, -3.127388, -19.753973, 144.609299
521, -0.646095, -19.989561, 139.222656
522, 16.699940, 11.005092, 128.210953
523, 19.270876, 5.351010, 134.375000
524, 19.271294, 5.349508, 121.875000
525, 16.701824, 11.002230, 115.708626
526, -7.219762, 18.651409, 93.801010
527, -10.698977, 16.897688, 84.436562
528, -1.144583, 19.967222, 74.999489
529, -6.161519, 19.027235, 68.893524
530, -7.419307, 18.572935, 59.310688
531, -15.306456, -12.872933, 53.151375
532, -15.308138, -12.870933, 46.894489
533, -6.454233, -18.929947, 34.388489
534, -1.140463, -19.967457, 25.003201
535, -7.220465, -18.651136, 18.735056
536, 16.698685, -11.006995, 140.059753
537, 17.531843, -9.624681, 5.869901
538, -19.599260, -3.983591, 59.635281
539, -15.325948, 12.849721, 53.124996
540, 9.368226, -17.670210, 137.542023
541, -19.853792, -2.413904, 12.590133
542, -7.239843, -18.643623, 12.545365
543, 17.530886, 9.626426, 5.874945
544, 16.827873, 10.808454, 140.434860
545, 19.040640, -6.119973, 140.274902
546, -6.470016, 18.924559, 10.197943
547, -10.828775, -16.814804, 10.008674
548, -6.180364, -19.021122, 139.998474
549, -11.755727, 16.180325, 140.012085
550, 17.820131, 9.079810, 145.532288
551, -15.399065, 12.762006, 10.526036
552, -18.548328, -7.480609, 10.535373
553, -15.642553, -12.462365, 139.746246
554, -18.652859, 7.216013, 139.625610
555, 14.142136, -14.142136, 4.165375
556, 14.142136, 14.142136, 4.159784
557, 3.128689, 19.753767, 4.097721
558, 8.150915, 18.263695, 139.446442
559, -19.775536, 2.988009, 10.290918
560, 5.076247, -19.345070, 139.825775
561, -1.155854, 19.966572, 139.829010
562, -19.733585, -3.253556, 139.702576
563, 3.859558, -19.624062, 4.248154
564, 17.535280, 9.618416, 111.076950
565, 14.321095, 13.960883, 107.950905
566, 5.039831, 19.354589, 101.697372
567, 10.048635, 17.292337, 104.823227
568, -1.556726, 19.939323, 98.502518
569, -6.765924, 18.820793, 89.173866
570, -6.848909, 18.790754, 64.121933
571, 12.871039, -15.308048, 139.999634
572, -11.320624, 16.487677, 54.246807
573, -16.219481, 11.701644, 58.160942
574, 19.381451, -4.935521, 4.842064
575, 19.381002, 4.937279, 4.834286
576, -16.299517, -11.589899, 42.294155
577, -19.944729, 1.485874, 57.735123
578, -6.636756, -18.866730, 29.682272
579, -17.844326, -9.032165, 57.734676
580, -11.536943, -16.337042, 39.050228
581, 19.418947, -4.785861, 145.334412
582, -6.592371, 18.882284, 79.707520
583, 19.485144, 4.508790, 145.454315
584, -18.527088, 7.533059, 54.692356
585, -19.749142, -3.157755, 54.694332
586, -5.837985, -19.128981, 8.140196
587, 17.459078, -9.756053, 135.587982
588, -10.136176, -10.136176, 0.000000
589, 9.506704, 9.976672, 0.000000
590, 10.136176, -10.136176, 0.000000
591, -9.947393, 9.870829, 0.000000
592, -14.378448, -2.277524, 0.000000
593, 13.828002, 2.364048, 0.000000
594, -2.242444, -14.158234, 0.000000
595, -1.991546, 14.146295, 0.000000
596, 2.485768, -15.694523, 0.000000
597, 2.806005, -10.208504, 0.000000
598, -4.424021, -8.441026, 0.000000
599, 0.215603, -3.867949, 0.000000
600, -5.570478, -1.992113, 0.000000
601, -1.588771, 2.247133, 0.000000
602, 4.144258, 0.826812, 0.000000
603, 2.750948, 6.852784, 0.000000
604, -7.323891, 3.886152, 0.000000
605, 6.528553, -4.607753, 0.000000
606, 12.683803, -4.290631, 0.000000
607, -3.487564, 8.307955, 0.000000
608, -13.844337, 4.168264, 0.000000
609, 8.982693, 4.541819, 0.000000
610, 4.282588, 13.240314, 0.000000
611, 9.233461, -0.233141, 0.000000
612, 6.672799, -14.248135, 0.000000
613, -7.023807, -13.750482, 0.000000
614, 13.987872, 7.148835, 0.000000
615, -14.158234, -7.213981, 0.000000
616, -6.672510, 13.505310, 0.000000
617, -9.769383, -5.132412, 0.000000
618, -10.059162, -0.237656, 0.000000
619, 0.477937, 10.662382, 0.000000
620, -10.136176, -10.136176, 150.000000
621, 9.506704, 9.976672, 150.000000
622, 10.136176, -10.136176, 150.000000
623, -9.947393, 9.870829, 150.000000
624, -14.378448, -2.277524, 150.000000
625, 13.828002, 2.364048, 150.000000
626, -2.242444, -14.158234, 150.000000
627, -1.991546, 14.146295, 150.000000
628, 2.485768, -15.694523, 150.000000
629, 2.806005, -10.208504, 150.000000
630, -4.424021, -8.441026, 150.000000
631, 0.215603, -3.867949, 150.000000
632, -5.570478, -1.992113, 150.000000
633, -1.588771, 2.247133, 150.000000
634, 4.144258, 0.826812, 150.000000
635, 2.750948, 6.852784, 150.000000
636, -7.323891, 3.886152, 150.000000
637, 6.528553, -4.607753, 150.000000
638, 12.683803, -4.290631, 150.000000
639, -3.487564, 8.307955, 150.000000
640, -13.844337, 4.168264, 150.000000
641, 8.982693, 4.541819, 150.000000
642, 4.282588, 13.240314, 150.000000
643, 9.233461, -0.233141, 150.000000
644, 6.672799, -14.248135, 150.000000
645, -7.023807, -13.750482, 150.000000
646, 13.987872, 7.148835, 150.000000
647, -14.158234, -7.213981, 150.000000
648, -6.672510, 13.505310, 150.000000
649, -9.769383, -5.132412, 150.000000
650, -10.059162, -0.237656, 150.000000
651, 0.477937, 10.662382, 150.000000
652, -0.000128, 0.000051, 92.187630
653, -0.004002, -0.002268, 60.935883
654, 0.001809, 0.001843, 120.316719
655, 0.000240, 0.000841, 35.933281
656, 1.349890, 1.428649, 17.906660
657, 3.956365, -0.540696, 76.561310
658, 4.361923, -1.817865, 134.900970
659, 5.254271, 1.461978, 106.535042
660, 6.153501, 0.839368, 48.435730
661, -6.990297, -0.514512, 47.201889
662, -6.638767, -2.937695, 103.171074
663, -7.039846, 2.411752, 130.779984
664, -7.686168, 1.049466, 71.910187
665, -6.802652, -3.581712, 26.019812
666, -0.419467, 8.302388, 138.512939
667, 5.083086, -6.096459, 26.710512
668, -5.356454, -5.790669, 82.708427
669, -5.551709, 5.934472, 111.339729
670, -1.136090, 8.263389, 27.382263
671, 0.146788, -8.120501, 111.542336
672, 0.058435, -8.450706, 52.602821
673, 4.239491, 7.410200, 128.031586
674, 2.108630, 8.458683, 68.758057
675, -1.459503, 7.979682, 83.218590
676, -1.027278, -8.238855, 69.235298
677, -1.724024, 8.253142, 52.849464
678, -8.087004, -1.811252, 11.555332
679, -2.734920, -7.992469, 128.194824
680, 9.274609, -1.170472, 10.870950
681, 3.312926, -7.841369, 99.983643
682, 1.224881, -8.875587, 13.111464
683, -2.152928, 8.065446, 100.364555
684, -1.319704, 9.173394, 10.675014
685, 0.651817, 9.178558, 42.081333
686, -6.302917, -5.724200, 138.937729
687, 5.227653, -7.470479, 85.775604
688, 4.025695, -8.100794, 42.289017
689, 8.403912, 3.643043, 85.908379
690, 8.458910, 3.749934, 30.088923
691, 9.198443, -1.082915, 66.890106
692, 9.377164, -2.003730, 125.321022
693, -8.965424, -3.472601, 115.401390
694, 8.086712, 5.363098, 96.875763
695, 4.355558, 8.201642, 114.875671
696, -8.250505, 5.131355, 20.246035
697, 8.957120, -3.570343, 114.959099
698, -9.329477, 2.953520, 88.180359
699, -4.676907, 8.794700, 123.021461
700, 7.509783, 6.363699, 57.396561
701, -9.485900, 3.166698, 33.360607
702, 8.571972, -4.456361, 57.063572
703, -7.529010, -6.971498, 93.788826
704, -8.187860, -6.049105, 62.225700
705, 10.006318, -0.531874, 39.153210
706, -9.575210, 2.672740, 56.749062
707, -1.363250, -9.947834, 33.731525
708, 3.954547, -9.642872, 121.031906
709, 10.457867, -0.817338, 20.534231
710, -9.247778, 4.160943, 140.281830
711, 10.033736, -3.580067, 93.376884
712, 10.372486, 2.220742, 140.956406
713, 5.953939, 9.116989, 21.097822
714, -9.157264, -5.087141, 38.741318
715, -6.864759, 7.763147, 64.741516
716, 6.139150, 8.742142, 77.440392
717, 3.950591, -10.255204, 76.917213
718, -8.324989, 6.882337, 41.774647
719, 2.504766, -9.876867, 140.192200
720, -10.139884, -3.746524, 124.588882
721, -1.875764, -10.833883, 22.022160
722, -9.970294, 3.748507, 97.502235
723, 2.915555, -10.545979, 61.169037
724, 6.144118, -9.212767, 129.872894
725, 1.663785, 10.426790, 91.919884
726, 0.432011, 0.333118, 8.816545
727, -4.929702, -10.222259, 119.763634
728, 7.787036, 7.927711, 12.062600
729, 4.326534, 10.612596, 34.058319
730, -5.096199, 9.661201, 74.698517
731, -8.409803, -7.603200, 74.402168
732, 8.708643, -7.596427, 107.040573
733, 0.238845, -11.220067, 92.243286
734, -10.969281, 4.358369, 118.813492
735, -4.549894, -10.175170, 44.845844
736, -8.714615, -6.817410, 53.321602
737, 4.357634, 10.424350, 106.138100
738, -11.553185, -0.237662, 79.746040
739, 6.052244, 9.604456, 48.995396
740, 8.231377, -7.787491, 34.660709
741, 7.738025, -8.939923, 18.907564
742, -2.257689, 11.363014, 19.338272
743, 11.196380, -3.107051, 80.933014
744, -4.259234, 10.594233, 35.103783
745, 1.062519, 11.434280, 60.554337
746, -9.496989, 6.409310, 8.307971
747, 11.665002, -1.563753, 101.609917
748, -3.520487, -10.899411, 104.254341
749, -0.653854, 0.241741, 141.639038
750, 7.530937, -9.264420, 69.038574
751, 8.989393, -7.843659, 49.234440
752, -11.843111, 0.876288, 108.695984
753, 8.934423, 7.594052, 41.288795
754, 11.781758, 1.599373, 132.614517
755, 11.825039, 2.109412, 74.286011
756, 7.825139, 8.745994, 135.825790
757, -11.535828, -3.745522, 19.022423
758, 9.973440, 7.089306, 65.344971
759, -3.045285, 9.462945, 130.932877
760, 11.188032, 4.066453, 112.011589
761, 0.276575, 0.402439, 25.894125
762, 2.563498, 12.178063, 121.701347
763, -0.865495, 0.037067, 52.719181
764, 0.152862, 0.397186, 69.233772
765, -10.080065, 7.187893, 49.845112
766, 9.946395, -6.043615, 139.533691
767, 0.333193, 0.405462, 128.325409
768, -0.243759, -0.084562, 112.244881
769, 0.378519, -0.013996, 83.960587
770, -6.707626, 9.691693, 92.502815
771, -2.929688, 11.969397, 115.889526
772, -1.213160, -12.517663, 84.401497
773, -11.721513, -3.768135, 133.208786
774, -11.847154, 1.055879, 64.664230
775, 9.690390, 5.800925, 121.380585
776, -6.930238, -9.388913, 14.907220
777, -9.195456, 7.967099, 104.385269
778, 0.211723, 0.308229, 100.288979
779, 0.117982, -1.345169, 43.759159
780, 12.687409, 0.930924, 52.938534
781, -9.223996, -7.847830, 108.812683
782, -8.989316, 8.265852, 27.408642
783, 11.848603, -3.261657, 29.412636
784, -6.325023, 10.850478, 142.767853
785, 5.652227, 11.066824, 85.042549
786, 7.777616, -8.848430, 7.917821
787, -12.241289, -3.895114, 31.582672
788, -12.905132, 1.128578, 25.015514
789, -4.266897, -11.527804, 58.308643
790, 11.182225, 5.828679, 104.004219
791, -4.460154, -11.926072, 143.024399
792, -11.382369, -4.526360, 87.477760
793, 12.723415, 1.536542, 60.592339
794, -9.332334, 7.380373, 81.392181
795, -12.324330, -2.538665, 142.565201
796, 6.757346, -10.752224, 114.098450
797, -12.879966, 0.403946, 42.470528
798, -9.313461, -8.387546, 7.552486
799, -11.456093, 6.218490, 126.062668
800, -2.851359, 2.896290, 77.608253
801, 0.203958, 13.085351, 143.502594
802, 2.014953, -13.076227, 6.737794
803, -3.181867, 12.051743, 107.157166
804, -3.040246, -12.716955, 75.649620
805, 3.411223, -12.808811, 106.282219
806, -12.436898, -3.744164, 98.467461
807, 12.683218, -1.905763, 46.009365
808, -3.989455, -3.786778, 19.020288
809, -4.751233, 11.572140, 46.780857
810, 7.662138, -10.568198, 92.337372
811, 11.699155, -5.339836, 73.828186
812, -3.148982, -11.810383, 135.066849
813, -9.832292, 8.579050, 134.164230
814, -11.118698, -6.648997, 45.831280
815, 11.720229, 5.572588, 23.821918
816, -8.064043, 10.067990, 56.528137
817, 4.672846, 11.862806, 98.714317
818, 12.062473, 5.752741, 47.562832
819, -12.487690, 3.431859, 14.404013
820, 10.826881, -7.428369, 120.774498
821, -12.943531, 0.276970, 6.615466
822, -1.612174, -5.409388, 76.336754
823, 5.656653, 7.815196, 143.046967
824, -8.114116, 10.252537, 14.677502
825, 12.214492, 4.551694, 7.108853
826, -13.245306, 0.516831, 50.819569
827, 11.095391, -7.325272, 41.238636
828, 2.402917, 13.075540, 133.932343
829, -6.391187, -10.862113, 28.121357
830, -5.444052, -12.378988, 112.948051
831, -12.037407, 6.071445, 74.799103
832, 7.845677, 10.502488, 27.844194
833, -12.792025, -3.734956, 70.187996
834, 10.048751, -9.123705, 62.315968
835, 6.224923, -11.369707, 54.847939
836, 3.695040, -12.486692, 47.938881
837, -6.528673, -11.764566, 66.249542
838, 10.330526, -8.478112, 98.656059
839, 12.399293, 3.518553, 15.227518
840, 4.579803, -12.309100, 30.366671
841, 0.971412, 13.629341, 6.089652
842, -1.324587, 2.333331, 134.890778
843, 0.304818, 13.172545, 78.288261
844, -5.874022, 1.856786, 123.813759
845, 11.803910, -5.623401, 132.566315
846, 12.562695, 2.972230, 91.757027
847, -2.104477, -6.444083, 6.846652
848, -2.164828, 4.657784, 46.757290
849, 12.946696, -2.032341, 108.657852
850, -7.286405, -10.592100, 87.634438
851, -4.429388, 3.766580, 14.288223
852, -9.498243, -9.733574, 100.720146
853, 0.572068, -13.616000, 116.340721
854, 12.395784, 5.097538, 35.728973
855, 9.120827, 9.139313, 90.941521
856, -5.274704, -3.708507, 32.955349
857, -0.159040, -4.772254, 105.323074
858, 1.259151, -13.463872, 126.290314
859, 12.389353, -5.144535, 15.545318
860, 13.637393, -2.773021, 87.500259
861, 5.504871, 4.181236, 36.336044
862, -0.324925, -13.303869, 39.976898
863, 3.504610, 12.501078, 15.373623
864, -9.573343, -9.009173, 129.134720
865, 13.010315, -0.142498, 119.584442
866, 2.421064, 13.669679, 24.989693
867, 12.757385, 4.924965, 80.604813
868, 3.385734, -4.651550, 65.039642
869, -4.011891, -12.493220, 97.544968
870, -5.511260, 0.696472, 40.165424
871, 5.413173, -2.020273, 32.225121
872, -1.283007, 4.035630, 106.072243
873, -13.677696, -0.451351, 92.540749
874, 5.005522, -3.754037, 15.477818
875, 4.599225, 12.903259, 54.847225
876, -2.564158, -5.688683, 89.082893
877, -8.751746, -9.597103, 21.658499
878, 9.825871, -9.831879, 81.249878
879, 4.627171, -12.914339, 23.541708
880, -12.216619, 6.489384, 112.492111
881, -2.947932, 13.238073, 87.529312
882, -2.360756, -6.270093, 39.537064
883, 5.396313, 4.204430, 5.919942
884, 10.452228, 8.488116, 72.073982
885, -3.437630, -4.747599, 57.271717
886, -4.308174, 4.535906, 117.812820
887, -3.248848, 5.847952, 59.158451
888, 5.617049, -2.235378, 143.487167
889, -11.473213, -7.750915, 80.472588
890, -13.961591, 0.370402, 128.353058
891, -5.358932, -12.424441, 51.265572
892, -5.054680, 12.668712, 136.453461
893, -6.617042, -11.428390, 37.920101
894, -3.258995, 3.011519, 30.932590
895, 10.480438, -9.627426, 24.993206
896, -12.884637, -3.400652, 57.774254
897, -1.875873, -4.394662, 133.923920
898, -11.253378, -8.089516, 119.644157
899, 4.935090, 1.651273, 116.108864
900, -5.068841, 13.141629, 25.112986
901, -8.988769, 10.691103, 118.322701
902, -13.499772, 2.731245, 134.860367
903, -5.255570, -1.086027, 96.425682
904, 2.634022, -13.835158, 68.761528
905, -5.267707, -0.661998, 65.227188
906, 3.848172, 5.213971, 63.025597
907, -2.595814, -4.862041, 116.628471
908, -13.792195, -1.584247, 119.513565
909, 6.029822, 3.354890, 70.953224
910, -4.154442, -12.356791, 9.472002
911, 5.717825, 13.071724, 65.626884
912, -2.628784, 13.302567, 66.410896
913, 3.377902, -4.875287, 125.644875
914, 5.743093, 2.896782, 23.221714
915, -5.672891, 1.296563, 6.039653
916, -6.003122, -2.038909, 109.679466
917, 1.868077, 13.354572, 111.534409
918, -3.042350, 5.166173, 89.125931
919, 5.574867, 13.140118, 40.350681
920, -5.950705, 11.914112, 6.550845
921, 0.557036, 13.874168, 127.700035
922, 1.135333, 13.968534, 48.526371
923, -10.319114, -8.812824, 143.484863
924, -13.037656, -5.404092, 25.270224
925, -13.752501, 1.408907, 102.391159
926, 3.605410, -5.426666, 93.742592
927, 2.034286, -14.250938, 100.030991
928, 5.336992, 13.018108, 72.391853
929, 2.970454, 5.765749, 120.737450
930, 3.894514, 3.521064, 138.471771
931, 2.101097, -4.077412, 21.291292
932, -10.440399, 8.967226, 36.038311
933, -3.923368, -4.415761, 122.940933
934, -12.529054, -6.429948, 13.087785
935, 7.629750, -11.335565, 136.083008
936, 3.221047, -5.142328, 48.005726
937, 5.401743, -1.543746, 88.701447
938, 8.239779, -11.275998, 143.323425
939, -13.130326, -4.543622, 104.851120
940, -0.419978, 13.590117, 30.908138
941, 4.197141, -13.735480, 87.763908
942, 5.253507, 0.751373, 54.912125
943, 4.038522, 3.753755, 43.060726
944, -1.619120, -5.993172, 143.582260
945, -1.996666, 5.392305, 21.698544
946, -1.254815, -6.150618, 28.387854
947, 6.246420, -0.837822, 97.980728
948, -2.448362, 5.898130, 144.125473
949, -6.655098, -12.025184, 80.957443
950, -2.543018, 13.546467, 96.305885
951, -5.813879, -13.050519, 125.537910
952, 2.027477, -13.658500, 17.549604
953, 1.619208, 5.185229, 95.849060
954, -8.056179, 11.748516, 112.104034
955, 11.883333, 7.511216, 144.056686
956, -12.345187, 6.670156, 61.219337
957, 7.463440, 12.343058, 125.710846
958, -5.998237, 0.908815, 82.961708
959, 4.657445, -3.762754, 110.205185
960, 14.186752, 2.628031, 68.370094
961, 14.420217, -0.791245, 34.633705
962, -2.906113, -6.381765, 99.222397
963, 11.831543, 8.496489, 53.275169
964, -12.522605, 6.560723, 68.237579
965, 3.806627, -4.575169, 71.499870
966, -14.083217, -0.065232, 36.273800
967, -8.076547, 11.067535, 98.742706
968, -2.335313, 14.248798, 39.851810
969, -3.588079, 5.625130, 69.883545
970, 5.241510, -3.134659, 6.185061
971, 5.672068, -12.521320, 38.035210
972, 3.975502, 5.660172, 101.822891
973, -12.389529, 6.725246, 92.365204

*ELEMENT, TYPE=C3D4, ELSET=ALL_ELEMENTS
1, 454, 713, 365, 839
2, 136, 135, 137, 672
3, 695, 737, 333, 760
4, 731, 833, 704, 837
5, 684, 726, 601, 883
6, 601, 726, 684, 915
7, 589, 728, 841, 883
8, 84, 691, 793, 834
9, 84, 793, 444, 834
10, 103, 691, 84, 834
11, 312, 686, 812, 864
12, 136, 672, 137, 891
13, 254, 695, 306, 762
14, 135, 672, 136, 835
15, 704, 833, 731, 905
16, 673, 522, 754, 775
17, 680, 786, 96, 859
18, 692, 899, 697, 913
19, 665, 696, 894, 945
20, 654, 708, 697, 913
21, 652, 725, 689, 918
22, 136, 672, 789, 835
23, 655, 705, 688, 871
24, 656, 680, 726, 728
25, 654, 697, 899, 913
26, 425, 699, 759, 799
27, 685, 744, 655, 870
28, 102, 687, 810, 860
29, 652, 689, 725, 953
30, 162, 168, 178, 693
31, 676, 723, 704, 868
32, 654, 697, 708, 907
33, 137, 672, 135, 836
34, 655, 744, 685, 861
35, 162, 693, 178, 752
36, 713, 728, 365, 839
37, 162, 168, 693, 752
38, 103, 750, 691, 834
39, 710, 749, 632, 795
40, 601, 684, 607, 915
41, 691, 793, 702, 906
42, 306, 762, 695, 775
43, 704, 868, 723, 885
44, 178, 752, 693, 781
45, 522, 775, 673, 957
46, 155, 738, 698, 792
47, 492, 875, 700, 911
48, 574, 96, 22, 680
49, 102, 810, 687, 878
50, 678, 682, 726, 808
51, 445, 702, 67, 751
52, 582, 794, 675, 881
53, 492, 403, 875, 911
54, 687, 860, 102, 878
55, 689, 716, 657, 769
56, 459, 705, 807, 818
57, 155, 154, 738, 792
58, 675, 716, 689, 769
59, 459, 753, 705, 818
60, 84, 691, 103, 811
61, 589, 728, 90, 841
62, 582, 675, 794, 843
63, 425, 699, 216, 759
64, 670, 690, 861, 894
65, 136, 789, 723, 835
66, 328, 812, 724, 858
67, 702, 906, 793, 942
68, 673, 754, 522, 756
69, 673, 756, 522, 957
70, 67, 751, 702, 780
71, 691, 750, 103, 811
72, 504, 820, 724, 845
73, 656, 839, 713, 914
74, 688, 705, 655, 779
75, 674, 716, 730, 800
76, 692, 754, 673, 767
77, 328, 724, 812, 935
78, 661, 672, 735, 936
79, 704, 723, 676, 789
80, 677, 745, 218, 816
81, 302, 708, 724, 820
82, 694, 747, 449, 790
83, 229, 677, 218, 816
84, 671, 708, 697, 907
85, 694, 449, 747, 846
86, 102, 118, 810, 878
87, 726, 808, 682, 874
88, 628, 719, 519, 791
89, 704, 789, 676, 837
90, 655, 744, 861, 894
91, 676, 789, 723, 837
92, 723, 837, 138, 904
93, 653, 906, 702, 942
94, 705, 740, 688, 871
95, 673, 754, 692, 775
96, 692, 697, 820, 913
97, 656, 728, 713, 839
98, 632, 650, 710, 795
99, 688, 871, 740, 882
100, 656, 680, 728, 839
101, 655, 871, 688, 882
102, 654, 899, 697, 907
103, 499, 329, 717, 941
104, 456, 42, 41, 754
105, 302, 303, 301, 820
106, 725, 785, 689, 918
107, 729, 861, 744, 894
108, 460, 783, 690, 815
109, 302, 724, 303, 820
110, 686, 773, 553, 923
111, 656, 726, 684, 728
112, 657, 769, 716, 800
113, 675, 716, 769, 800
114, 752, 781, 178, 939
115, 37, 747, 449, 846
116, 696, 782, 894, 945
117, 312, 773, 686, 864
118, 90, 556, 366, 728
119, 663, 710, 686, 842
120, 137, 672, 836, 891
121, 456, 41, 692, 754
122, 697, 708, 671, 796
123, 287, 782, 696, 900
124, 632, 749, 710, 948
125, 565, 333, 737, 760
126, 378, 113, 689, 867
127, 670, 690, 729, 861
128, 90, 589, 556, 728
129, 722, 777, 662, 872
130, 674, 716, 800, 909
131, 708, 820, 697, 913
132, 493, 750, 717, 811
133, 658, 673, 754, 767
134, 656, 808, 726, 874
135, 37, 36, 747, 846
136, 295, 189, 790, 817
137, 675, 689, 785, 918
138, 378, 689, 113, 855
139, 723, 789, 138, 837
140, 661, 735, 672, 736
141, 675, 843, 582, 881
142, 556, 728, 589, 825
143, 705, 779, 688, 936
144, 721, 829, 534, 840
145, 504, 303, 724, 820
146, 582, 794, 730, 843
147, 499, 717, 772, 941
148, 654, 899, 692, 913
149, 460, 690, 783, 961
150, 454, 815, 713, 839
151, 711, 747, 36, 846
152, 683, 722, 662, 872
153, 652, 937, 689, 953
154, 657, 687, 769, 822
155, 43, 712, 754, 766
156, 22, 606, 680, 825
157, 96, 23, 22, 680
158, 658, 754, 692, 767
159, 333, 737, 695, 917
160, 460, 25, 783, 815
161, 660, 779, 705, 936
162, 662, 722, 683, 778
163, 678, 726, 682, 847
164, 657, 717, 687, 822
165, 656, 680, 839, 874
166, 723, 789, 704, 885
167, 686, 710, 663, 773
168, 425, 799, 759, 813
169, 662, 778, 683, 872
170, 287, 696, 273, 900
171, 705, 807, 660, 936
172, 694, 790, 189, 817
173, 658, 754, 673, 930
174, 603, 684, 601, 883
175, 162, 752, 178, 939
176, 204, 829, 787, 893
177, 553, 686, 312, 773
178, 632, 650, 636, 710
179, 672, 723, 702, 885
180, 134, 136, 723, 835
181, 84, 100, 691, 811
182, 459, 705, 753, 854
183, 361, 682, 741, 786
184, 88, 783, 709, 895
185, 754, 756, 673, 930
186, 361, 741, 682, 952
187, 84, 691, 100, 960
188, 688, 235, 827, 836
189, 36, 711, 450, 747
190, 565, 760, 737, 790
191, 43, 766, 754, 845
192, 136, 789, 672, 891
193, 445, 67, 467, 751
194, 668, 687, 772, 822
195, 689, 785, 378, 867
196, 803, 817, 683, 950
197, 527, 770, 794, 881
198, 491, 96, 786, 859
199, 693, 752, 168, 908
200, 378, 785, 689, 855
201, 692, 767, 673, 929
202, 199, 805, 201, 830
203, 689, 855, 725, 953
204, 661, 735, 779, 936
205, 504, 724, 303, 845
206, 229, 218, 677, 922
207, 499, 329, 498, 717
208, 143, 833, 144, 837
209, 632, 710, 636, 948
210, 672, 661, 763, 936
211, 700, 758, 492, 911
212, 504, 692, 820, 845
213, 752, 880, 164, 908
214, 670, 761, 690, 894
215, 499, 717, 498, 772
216, 318, 392, 805, 838
217, 717, 772, 687, 822
218, 260, 730, 715, 912
219, 694, 689, 937, 953
220, 201, 805, 748, 830
221, 691, 811, 100, 960
222, 444, 793, 702, 834
223, 306, 762, 775, 957
224, 665, 894, 761, 945
225, 362, 786, 741, 859
226, 672, 835, 135, 836
227, 694, 855, 689, 953
228, 670, 861, 729, 894
229, 164, 168, 752, 908
230, 442, 102, 118, 810
231, 730, 912, 843, 928
232, 652, 918, 689, 937
233, 601, 603, 607, 684
234, 683, 777, 722, 872
235, 770, 794, 698, 973
236, 37, 449, 36, 846
237, 668, 769, 687, 822
238, 725, 918, 652, 953
239, 709, 859, 88, 895
240, 25, 709, 783, 815
241, 149, 831, 738, 833
242, 606, 574, 22, 680
243, 684, 656, 728, 863
244, 150, 736, 704, 789
245, 345, 817, 803, 950
246, 182, 782, 701, 788
247, 216, 759, 699, 921
248, 444, 67, 702, 780
249, 730, 794, 675, 843
250, 697, 671, 907, 959
251, 687, 717, 657, 743
252, 556, 366, 728, 825
253, 673, 666, 842, 930
254, 260, 715, 730, 964
255, 685, 744, 729, 861
256, 751, 780, 67, 807
257, 189, 694, 430, 790
258, 702, 672, 885, 942
259, 180, 693, 178, 898
260, 144, 833, 731, 837
261, 717, 329, 878, 941
262, 178, 693, 180, 781
263, 669, 695, 872, 917
264, 740, 871, 707, 882
265, 619, 607, 603, 684
266, 574, 680, 606, 786
267, 690, 871, 861, 894
268, 681, 659, 732, 947
269, 693, 180, 781, 898
270, 199, 805, 830, 853
271, 581, 712, 545, 766
272, 685, 718, 744, 870
273, 664, 676, 731, 905
274, 724, 820, 692, 845
275, 318, 805, 732, 838
276, 143, 704, 833, 837
277, 472, 788, 701, 966
278, 146, 833, 738, 889
279, 296, 753, 729, 854
280, 312, 686, 514, 812
281, 184, 206, 699, 771
282, 445, 702, 751, 835
283, 655, 870, 744, 894
284, 149, 148, 147, 833
285, 131, 455, 718, 968
286, 22, 680, 23, 825
287, 680, 656, 726, 874
288, 86, 692, 754, 775
289, 182, 701, 472, 788
290, 155, 154, 153, 738
291, 675, 769, 689, 918
292, 654, 767, 692, 929
293, 677, 763, 706, 765
294, 359, 553, 773, 923
295, 43, 95, 766, 845
296, 143, 704, 431, 833
297, 151, 831, 149, 833
298, 296, 729, 832, 854
299, 88, 25, 709, 783
300, 295, 189, 430, 790
301, 704, 774, 431, 833
302, 41, 692, 86, 865
303, 478, 700, 477, 793
304, 706, 763, 661, 765
305, 730, 674, 800, 969
306, 28, 459, 705, 807
307, 697, 732, 331, 796
308, 148, 738, 146, 833
309, 659, 747, 732, 947
310, 690, 761, 871, 894
311, 519, 719, 628, 938
312, 661, 736, 672, 763
313, 149, 738, 148, 833
314, 218, 745, 677, 875
315, 494, 717, 493, 750
316, 454, 379, 365, 713
317, 142, 372, 188, 837
318, 546, 684, 464, 824
319, 662, 722, 778, 903
320, 696, 788, 316, 819
321, 666, 759, 673, 842
322, 697, 796, 331, 820
323, 307, 534, 829, 840
324, 307, 829, 707, 840
325, 444, 780, 702, 793
326, 361, 741, 362, 786
327, 150, 474, 736, 789
328, 82, 449, 747, 790
329, 445, 751, 280, 835
330, 473, 316, 788, 819
331, 426, 699, 425, 799
332, 619, 684, 603, 841
333, 677, 660, 739, 942
334, 664, 738, 731, 822
335, 490, 88, 859, 895
336, 345, 737, 803, 817
337, 805, 838, 392, 927
338, 372, 804, 188, 837
339, 37, 36, 450, 747
340, 241, 254, 306, 762
341, 504, 456, 76, 692
342, 731, 804, 372, 837
343, 273, 696, 824, 900
344, 206, 762, 699, 771
345, 689, 918, 769, 937
346, 662, 777, 752, 872
347, 472, 787, 788, 966
348, 653, 702, 885, 942
349, 218, 875, 677, 922
350, 558, 823, 801, 828
351, 460, 783, 26, 961
352, 657, 716, 689, 867
353, 686, 749, 710, 795
354, 456, 692, 504, 845
355, 658, 673, 842, 930
356, 717, 743, 687, 878
357, 664, 800, 738, 822
358, 504, 692, 76, 820
359, 142, 731, 372, 837
360, 558, 756, 823, 828
361, 278, 772, 498, 804
362, 677, 809, 229, 922
363, 460, 854, 690, 961
364, 692, 775, 86, 865
365, 683, 722, 770, 953
366, 688, 827, 751, 836
367, 673, 759, 699, 767
368, 316, 696, 475, 788
369, 656, 709, 839, 914
370, 420, 794, 770, 973
371, 677, 763, 765, 848
372, 676, 868, 704, 905
373, 704, 868, 885, 905
374, 729, 753, 296, 919
375, 475, 696, 287, 782
376, 514, 686, 553, 923
377, 721, 840, 534, 879
378, 661, 765, 763, 848
379, 131, 718, 932, 968
380, 661, 706, 736, 763
381, 679, 663, 767, 933
382, 456, 754, 692, 845
383, 689, 716, 675, 785
384, 656, 713, 863, 945
385, 464, 684, 742, 824
386, 673, 756, 666, 930
387, 724, 812, 719, 897
388, 681, 732, 659, 857
389, 431, 774, 435, 833
390, 291, 331, 796, 820
391, 730, 800, 716, 843
392, 498, 772, 717, 804
393, 657, 687, 743, 769
394, 697, 907, 899, 959
395, 184, 206, 216, 699
396, 102, 105, 711, 810
397, 418, 765, 232, 797
398, 831, 833, 151, 964
399, 102, 810, 711, 860
400, 656, 839, 709, 874
401, 829, 856, 787, 893
402, 666, 673, 759, 828
403, 444, 67, 445, 702
404, 673, 767, 658, 842
405, 623, 710, 512, 784
406, 473, 788, 757, 819
407, 730, 674, 912, 928
408, 254, 333, 306, 695
409, 726, 808, 656, 851
410, 713, 728, 656, 863
411, 535, 776, 721, 952
412, 675, 785, 725, 918
413, 611, 680, 606, 825
414, 674, 909, 800, 969
415, 200, 853, 727, 858
416, 664, 731, 833, 905
417, 431, 774, 704, 896
418, 666, 756, 673, 828
419, 180, 830, 781, 898
420, 373, 837, 188, 904
421, 430, 694, 449, 790
422, 198, 201, 748, 830
423, 316, 287, 475, 696
424, 478, 492, 477, 700
425, 229, 809, 677, 816
426, 701, 788, 787, 966
427, 673, 767, 699, 929
428, 219, 787, 714, 893
429, 660, 705, 779, 943
430, 703, 876, 698, 903
431, 681, 732, 747, 947
432, 664, 731, 676, 822
433, 742, 863, 713, 945
434, 660, 677, 739, 848
435, 82, 449, 37, 747
436, 188, 837, 804, 904
437, 678, 808, 726, 851
438, 84, 444, 104, 834
439, 662, 872, 752, 916
440, 331, 732, 697, 849
441, 200, 858, 727, 951
442, 388, 732, 747, 838
443, 182, 183, 472, 701
444, 478, 758, 700, 793
445, 678, 776, 682, 808
446, 412, 419, 153, 794
447, 364, 841, 728, 863
448, 472, 701, 183, 966
449, 589, 825, 728, 883
450, 177, 718, 418, 797
451, 302, 301, 708, 820
452, 492, 700, 478, 758
453, 216, 699, 206, 921
454, 657, 743, 689, 769
455, 473, 757, 483, 819
456, 530, 816, 745, 912
457, 703, 792, 698, 876
458, 654, 692, 767, 913
459, 502, 39, 849, 865
460, 206, 699, 762, 921
461, 695, 762, 254, 917
462, 688, 827, 235, 971
463, 669, 695, 768, 872
464, 696, 782, 475, 788
465, 388, 747, 68, 838
466, 141, 150, 704, 789
467, 514, 312, 553, 686
468, 467, 751, 67, 807
469, 683, 903, 722, 953
470, 259, 527, 582, 881
471, 420, 527, 770, 794
472, 460, 690, 452, 815
473, 137, 836, 735, 891
474, 107, 846, 689, 860
475, 658, 724, 719, 897
476, 296, 832, 452, 854
477, 654, 692, 899, 929
478, 388, 68, 500, 838
479, 660, 677, 763, 942
480, 134, 135, 136, 835
481, 113, 689, 107, 846
482, 794, 881, 770, 918
483, 701, 744, 870, 894
484, 671, 830, 805, 853
485, 810, 878, 118, 941
486, 306, 695, 525, 775
487, 683, 778, 722, 903
488, 530, 715, 816, 912
489, 655, 707, 871, 882
490, 545, 581, 44, 712
491, 28, 459, 807, 818
492, 657, 800, 716, 909
493, 145, 143, 431, 833
494, 742, 824, 696, 900
495, 502, 849, 697, 865
496, 695, 737, 872, 917
497, 537, 491, 96, 786
498, 689, 107, 860, 867
499, 76, 456, 41, 692
500, 638, 712, 581, 766
501, 218, 745, 530, 816
502, 412, 153, 738, 794
503, 738, 822, 800, 958
504, 659, 768, 695, 872
505, 527, 794, 582, 881
506, 460, 25, 26, 783
507, 90, 728, 364, 841
508, 452, 690, 460, 854
509, 174, 208, 744, 900
510, 306, 241, 762, 957
511, 23, 680, 96, 859
512, 664, 676, 764, 822
513, 574, 606, 537, 786
514, 655, 779, 705, 943
515, 677, 739, 700, 942
516, 861, 871, 655, 894
517, 174, 744, 782, 900
518, 699, 767, 759, 844
519, 701, 788, 782, 894
520, 430, 114, 449, 694
521, 459, 27, 28, 705
522, 719, 724, 658, 935
523, 734, 164, 880, 908
524, 334, 737, 333, 917
525, 284, 492, 403, 875
526, 418, 718, 765, 797
527, 663, 842, 686, 897
528, 700, 875, 745, 911
529, 445, 834, 702, 835
530, 84, 793, 691, 960
531, 146, 738, 148, 889
532, 663, 773, 710, 902
533, 361, 682, 786, 802
534, 677, 660, 763, 848
535, 736, 763, 706, 885
536, 295, 790, 737, 817
537, 138, 723, 136, 789
538, 208, 744, 900, 940
539, 361, 682, 802, 952
540, 273, 696, 287, 824
541, 84, 103, 100, 811
542, 659, 695, 737, 872
543, 665, 788, 701, 894
544, 220, 254, 762, 917
545, 745, 816, 715, 912
546, 665, 808, 696, 945
547, 362, 491, 786, 859
548, 454, 379, 713, 815
549, 333, 695, 254, 917
550, 313, 720, 471, 890
551, 138, 134, 136, 723
552, 731, 738, 668, 822
553, 232, 797, 765, 826
554, 688, 740, 707, 882
555, 155, 792, 698, 873
556, 663, 679, 767, 897
557, 719, 812, 724, 935
558, 682, 776, 678, 847
559, 444, 30, 780, 793
560, 43, 545, 712, 766
561, 107, 689, 113, 867
562, 265, 318, 392, 805
563, 743, 769, 687, 937
564, 615, 91, 798, 821
565, 689, 769, 743, 937
566, 738, 668, 822, 958
567, 615, 798, 617, 821
568, 738, 833, 731, 889
569, 673, 775, 692, 929
570, 843, 912, 528, 928
571, 657, 689, 743, 867
572, 700, 477, 793, 963
573, 426, 216, 425, 699
574, 475, 782, 182, 788
575, 219, 204, 787, 893
576, 693, 734, 669, 880
577, 680, 726, 728, 883
578, 455, 809, 718, 968
579, 102, 711, 105, 860
580, 687, 878, 810, 941
581, 767, 844, 699, 929
582, 464, 546, 358, 684
583, 669, 872, 803, 917
584, 653, 885, 868, 905
585, 452, 815, 690, 832
586, 829, 840, 721, 946
587, 328, 812, 719, 935
588, 629, 719, 628, 791
589, 200, 727, 385, 951
590, 676, 664, 764, 905
591, 710, 749, 686, 842
592, 528, 843, 730, 912
593, 88, 489, 783, 895
594, 445, 119, 834, 835
595, 685, 870, 655, 943
596, 292, 260, 715, 912
597, 331, 697, 502, 849
598, 313, 773, 720, 890
599, 695, 760, 525, 775
600, 358, 464, 684, 742
601, 373, 138, 837, 904
602, 686, 795, 773, 923
603, 652, 698, 876, 903
604, 704, 736, 150, 896
605, 435, 774, 431, 896
606, 445, 444, 702, 834
607, 723, 132, 834, 904
608, 392, 838, 810, 927
609, 302, 724, 708, 858
610, 359, 773, 795, 923
611, 313, 471, 720, 864
612, 677, 700, 887, 942
613, 73, 488, 740, 783
614, 684, 607, 915, 920
615, 365, 728, 713, 863
616, 750, 834, 132, 904
617, 165, 777, 752, 925
618, 198, 199, 201, 830
619, 698, 794, 770, 918
620, 689, 846, 694, 937
621, 657, 743, 717, 811
622, 480, 263, 850, 869
623, 683, 803, 737, 817
624, 192, 787, 472, 966
625, 116, 739, 121, 753
626, 669, 752, 777, 872
627, 358, 742, 684, 863
628, 146, 731, 833, 889
629, 43, 95, 545, 766
630, 73, 783, 740, 961
631, 546, 684, 824, 920
632, 681, 838, 805, 927
633, 693, 669, 752, 880
634, 121, 753, 739, 919
635, 659, 681, 857, 947
636, 373, 138, 140, 837
637, 720, 773, 313, 864
638, 248, 324, 828, 957
639, 86, 692, 41, 754
640, 84, 100, 32, 960
641, 73, 740, 400, 961
642, 457, 777, 165, 925
643, 137, 233, 735, 836
644, 430, 189, 114, 694
645, 661, 779, 763, 936
646, 710, 813, 666, 842
647, 740, 827, 400, 961
648, 656, 684, 726, 851
649, 444, 30, 67, 780
650, 313, 471, 481, 890
651, 426, 699, 799, 901
652, 388, 68, 747, 849
653, 23, 825, 680, 839
654, 263, 733, 850, 869
655, 670, 690, 761, 914
656, 659, 737, 695, 760
657, 523, 754, 712, 756
658, 388, 747, 732, 849
659, 440, 809, 229, 816
660, 114, 449, 694, 846
661, 359, 553, 312, 773
662, 84, 31, 793, 960
663, 729, 744, 670, 894
664, 488, 289, 740, 895
665, 887, 653, 906, 969
666, 703, 698, 792, 873
667, 671, 697, 796, 959
668, 229, 218, 530, 816
669, 760, 849, 39, 865
670, 41, 76, 692, 865
671, 652, 769, 918, 937
672, 178, 898, 693, 908
673, 73, 488, 400, 740
674, 795, 923, 686, 944
675, 162, 164, 168, 752
676, 470, 734, 799, 908
677, 701, 744, 718, 870
678, 27, 447, 28, 705
679, 696, 819, 316, 824
680, 452, 832, 690, 854
681, 291, 503, 331, 820
682, 669, 752, 872, 916
683, 28, 83, 459, 818
684, 71, 775, 760, 865
685, 342, 473, 483, 819
686, 669, 768, 695, 886
687, 433, 858, 200, 951
688, 178, 693, 168, 908
689, 690, 670, 729, 832
690, 703, 698, 873, 903
691, 492, 477, 700, 963
692, 414, 413, 703, 792
693, 290, 732, 265, 796
694, 800, 909, 764, 969
695, 478, 477, 66, 793
696, 680, 825, 611, 970
697, 690, 670, 832, 914
698, 290, 331, 732, 796
699, 669, 734, 693, 886
700, 606, 680, 611, 970
701, 287, 226, 782, 900
702, 763, 885, 672, 942
703, 455, 486, 718, 809
704, 130, 174, 208, 744
705, 546, 841, 684, 920
706, 265, 796, 732, 805
707, 738, 831, 664, 833
708, 443, 164, 734, 908
709, 684, 728, 726, 883
710, 64, 743, 33, 811
711, 887, 905, 653, 969
712, 395, 829, 204, 893
713, 325, 828, 324, 957
714, 28, 705, 447, 807
715, 723, 834, 750, 904
716, 210, 725, 785, 855
717, 33, 743, 34, 755
718, 634, 823, 749, 948
719, 311, 365, 713, 863
720, 696, 808, 757, 851
721, 426, 425, 298, 799
722, 182, 177, 183, 701
723, 759, 767, 663, 844
724, 217, 805, 199, 853
725, 361, 802, 367, 952
726, 433, 200, 385, 951
727, 306, 333, 525, 695
728, 483, 757, 473, 788
729, 667, 871, 783, 914
730, 714, 787, 856, 893
731, 302, 301, 294, 708
732, 488, 740, 783, 895
733, 393, 392, 810, 927
734, 348, 730, 582, 794
735, 438, 804, 717, 904
736, 665, 761, 808, 945
737, 687, 717, 878, 941
738, 686, 773, 663, 897
739, 663, 844, 767, 933
740, 801, 823, 666, 828
741, 87, 709, 25, 815
742, 629, 628, 626, 791
743, 418, 355, 232, 765
744, 710, 773, 686, 795
745, 346, 457, 722, 777
746, 752, 777, 662, 925
747, 689, 694, 846, 855
748, 722, 662, 777, 925
749, 693, 781, 830, 898
750, 325, 522, 756, 957
751, 690, 783, 871, 914
752, 130, 744, 208, 940
753, 360, 710, 795, 902
754, 296, 753, 120, 919
755, 178, 179, 898, 908
756, 720, 844, 663, 933
757, 899, 907, 768, 959
758, 675, 881, 794, 918
759, 470, 734, 297, 799
760, 703, 792, 413, 873
761, 141, 474, 150, 789
762, 137, 735, 258, 891
763, 315, 316, 819, 824
764, 183, 701, 177, 966
765, 692, 658, 767, 913
766, 756, 828, 325, 957
767, 150, 143, 141, 704
768, 634, 749, 823, 888
769, 743, 755, 33, 811
770, 705, 660, 818, 943
771, 182, 177, 701, 932
772, 118, 330, 810, 941
773, 87, 24, 25, 709
774, 312, 812, 275, 864
775, 705, 660, 807, 818
776, 88, 489, 462, 783
777, 23, 839, 680, 859
778, 702, 723, 672, 835
779, 757, 819, 696, 851
780, 717, 750, 494, 904
781, 459, 27, 705, 961
782, 256, 417, 733, 810
783, 256, 810, 733, 927
784, 446, 467, 67, 807
785, 687, 772, 717, 941
786, 427, 425, 216, 759
787, 265, 732, 318, 805
788, 470, 799, 890, 908
789, 88, 462, 25, 783
790, 93, 623, 512, 784
791, 292, 715, 260, 964
792, 692, 865, 697, 899
793, 661, 736, 706, 826
794, 42, 754, 456, 845
795, 184, 699, 216, 901
796, 480, 850, 703, 869
797, 338, 814, 736, 891
798, 382, 378, 376, 867
799, 667, 783, 709, 914
800, 665, 757, 696, 808
801, 692, 724, 658, 913
802, 807, 827, 751, 936
803, 723, 789, 672, 835
804, 263, 733, 772, 850
805, 43, 754, 95, 845
806, 184, 771, 699, 901
807, 396, 288, 235, 827
808, 775, 899, 692, 929
809, 107, 34, 860, 867
810, 459, 705, 854, 961
811, 615, 617, 592, 821
812, 263, 733, 264, 772
813, 749, 897, 658, 944
814, 401, 716, 376, 785
815, 458, 790, 38, 849
816, 287, 273, 226, 900
817, 672, 702, 936, 942
818, 22, 593, 606, 825
819, 682, 910, 802, 952
820, 655, 705, 861, 943
821, 752, 777, 165, 880
822, 695, 768, 659, 899
823, 189, 114, 694, 855
824, 217, 796, 805, 853
825, 34, 755, 743, 867
826, 289, 840, 740, 895
827, 119, 445, 280, 835
828, 669, 771, 695, 917
829, 686, 791, 514, 812
830, 707, 740, 688, 971
831, 144, 731, 142, 837
832, 519, 628, 644, 938
833, 719, 658, 897, 944
834, 748, 805, 671, 830
835, 675, 716, 800, 843
836, 703, 413, 806, 873
837, 505, 504, 303, 845
838, 705, 818, 753, 943
839, 707, 840, 829, 946
840, 131, 718, 176, 932
841, 423, 346, 457, 722
842, 317, 802, 910, 952
843, 693, 886, 844, 907
844, 457, 722, 777, 925
845, 131, 455, 176, 718
846, 637, 888, 766, 938
847, 338, 735, 814, 891
848, 362, 491, 363, 786
849, 666, 813, 759, 842
850, 628, 719, 629, 938
851, 87, 24, 709, 839
852, 657, 755, 716, 867
853, 676, 837, 723, 904
854, 141, 789, 704, 837
855, 141, 704, 143, 837
856, 256, 393, 417, 810
857, 486, 765, 718, 809
858, 131, 129, 455, 968
859, 764, 906, 653, 969
860, 717, 811, 743, 878
861, 701, 782, 182, 932
862, 678, 819, 757, 851
863, 273, 824, 742, 900
864, 661, 735, 714, 882
865, 84, 31, 444, 793
866, 567, 295, 737, 817
867, 229, 126, 218, 922
868, 715, 745, 674, 906
869, 715, 887, 745, 906
870, 166, 443, 164, 734
871, 470, 297, 734, 908
872, 793, 906, 700, 942
873, 741, 859, 709, 895
874, 328, 434, 812, 858
875, 166, 734, 164, 880
876, 82, 747, 38, 790
877, 473, 316, 475, 788
878, 131, 932, 744, 968
879, 714, 735, 661, 814
880, 757, 808, 678, 851
881, 294, 708, 301, 820
882, 702, 793, 691, 834
883, 378, 382, 113, 867
884, 103, 84, 104, 834
885, 107, 35, 846, 860
886, 174, 782, 744, 932
887, 514, 791, 686, 923
888, 492, 700, 875, 963
889, 177, 418, 190, 797
890, 804, 837, 676, 904
891, 266, 290, 265, 796
892, 679, 812, 724, 897
893, 693, 752, 669, 916
894, 732, 805, 681, 838
895, 66, 780, 793, 963
896, 468, 940, 729, 968
897, 554, 710, 360, 902
898, 296, 451, 753, 854
899, 711, 810, 687, 860
900, 333, 525, 695, 760
901, 294, 796, 708, 820
902, 700, 906, 887, 942
903, 410, 414, 413, 703
904, 113, 689, 846, 855
905, 696, 757, 665, 788
906, 177, 176, 418, 718
907, 803, 872, 737, 917
908, 475, 182, 472, 788
909, 378, 401, 376, 785
910, 210, 211, 725, 855
911, 684, 841, 728, 883
912, 288, 235, 827, 971
913, 570, 715, 530, 912
914, 86, 754, 522, 775
915, 177, 701, 932, 966
916, 689, 785, 725, 855
917, 472, 787, 192, 788
918, 445, 467, 280, 751
919, 542, 776, 535, 952
920, 690, 783, 709, 815
921, 693, 907, 844, 933
922, 747, 38, 790, 849
923, 762, 771, 220, 917
924, 325, 756, 324, 828
925, 418, 718, 486, 765
926, 413, 410, 703, 806
927, 43, 545, 44, 712
928, 87, 709, 815, 839
929, 748, 781, 279, 830
930, 700, 745, 677, 887
931, 235, 836, 688, 971
932, 102, 442, 105, 810
933, 231, 814, 797, 826
934, 655, 861, 685, 943
935, 399, 488, 289, 740
936, 659, 857, 732, 959
937, 64, 34, 33, 743
938, 606, 786, 680, 970
939, 196, 781, 180, 830
940, 367, 802, 317, 952
941, 694, 937, 947, 953
942, 143, 145, 144, 833
943, 210, 209, 211, 855
944, 709, 783, 690, 914
945, 658, 724, 692, 845
946, 729, 919, 468, 968
947, 735, 736, 661, 814
948, 399, 740, 289, 840
949, 115, 753, 459, 818
950, 228, 750, 132, 904
951, 664, 833, 831, 964
952, 715, 887, 906, 969
953, 442, 118, 330, 810
954, 260, 730, 831, 964
955, 248, 325, 324, 957
956, 258, 137, 233, 735
957, 744, 932, 718, 968
958, 706, 765, 584, 816
959, 198, 748, 279, 830
960, 66, 110, 780, 963
961, 458, 82, 38, 790
962, 764, 653, 905, 969
963, 566, 737, 345, 817
964, 531, 150, 474, 736
965, 718, 744, 701, 932
966, 694, 817, 189, 855
967, 687, 769, 668, 876
968, 715, 905, 887, 969
969, 426, 216, 699, 901
970, 106, 102, 860, 878
971, 379, 311, 365, 713
972, 120, 296, 451, 753
973, 72, 854, 460, 961
974, 617, 821, 798, 915
975, 447, 705, 27, 961
976, 690, 832, 729, 854
977, 690, 815, 709, 914
978, 756, 666, 823, 828
979, 340, 712, 544, 756
980, 319, 381, 832, 940
981, 340, 523, 712, 756
982, 695, 771, 669, 886
983, 319, 832, 729, 940
984, 266, 796, 265, 805
985, 655, 688, 779, 882
986, 737, 760, 659, 790
987, 685, 848, 870, 943
988, 490, 859, 741, 895
989, 358, 684, 546, 841
990, 798, 821, 552, 934
991, 356, 784, 710, 813
992, 674, 715, 906, 969
993, 450, 747, 711, 838
994, 179, 178, 168, 908
995, 741, 859, 786, 874
996, 100, 811, 755, 960
997, 212, 843, 785, 881
998, 679, 724, 812, 858
999, 738, 792, 154, 889
1000, 825, 883, 611, 970
1001, 447, 400, 827, 961
1002, 688, 751, 827, 936
1003, 176, 718, 177, 932
1004, 677, 887, 763, 942
1005, 672, 736, 735, 891
1006, 657, 743, 755, 867
1007, 150, 431, 143, 704
1008, 427, 759, 216, 921
1009, 100, 755, 33, 960
1010, 66, 793, 477, 963
1011, 721, 776, 535, 877
1012, 209, 725, 211, 855
1013, 328, 719, 560, 935
1014, 773, 795, 710, 902
1015, 702, 835, 672, 936
1016, 667, 707, 871, 946
1017, 715, 816, 745, 887
1018, 697, 820, 502, 865
1019, 743, 860, 34, 867
1020, 654, 844, 886, 907
1021, 76, 820, 692, 865
1022, 278, 499, 498, 772
1023, 745, 875, 403, 911
1024, 440, 765, 809, 816
1025, 338, 735, 337, 814
1026, 454, 365, 497, 839
1027, 522, 754, 340, 756
1028, 393, 810, 256, 927
1029, 667, 707, 840, 871
1030, 693, 669, 886, 916
1031, 467, 397, 751, 807
1032, 147, 151, 149, 833
1033, 470, 443, 297, 908
1034, 713, 839, 815, 914
1035, 440, 229, 572, 816
1036, 698, 722, 903, 918
1037, 122, 729, 296, 919
1038, 702, 751, 835, 936
1039, 593, 611, 606, 825
1040, 686, 812, 864, 897
1041, 542, 910, 776, 952
1042, 343, 950, 803, 967
1043, 190, 177, 797, 966
1044, 437, 723, 138, 904
1045, 636, 710, 623, 784
1046, 672, 763, 736, 885
1047, 660, 942, 780, 963
1048, 376, 867, 716, 884
1049, 180, 195, 830, 898
1050, 35, 107, 34, 860
1051, 210, 725, 211, 785
1052, 652, 769, 876, 958
1053, 704, 885, 706, 905
1054, 376, 374, 867, 884
1055, 684, 603, 841, 883
1056, 740, 840, 707, 871
1057, 377, 492, 758, 911
1058, 653, 887, 906, 942
1059, 652, 918, 769, 958
1060, 741, 786, 682, 874
1061, 412, 794, 738, 831
1062, 698, 876, 792, 958
1063, 403, 745, 237, 875
1064, 706, 816, 584, 956
1065, 643, 712, 638, 888
1066, 453, 815, 452, 832
1067, 291, 796, 294, 820
1068, 589, 841, 610, 883
1069, 700, 739, 677, 875
1070, 365, 728, 497, 839
1071, 697, 849, 760, 865
1072, 447, 73, 400, 961
1073, 33, 755, 34, 867
1074, 429, 530, 715, 816
1075, 623, 640, 512, 710
1076, 716, 785, 401, 843
1077, 426, 184, 216, 901
1078, 147, 148, 146, 833
1079, 485, 760, 565, 790
1080, 712, 766, 638, 888
1081, 144, 372, 142, 731
1082, 657, 764, 800, 909
1083, 443, 734, 297, 908
1084, 528, 730, 350, 912
1085, 106, 860, 743, 878
1086, 716, 843, 402, 928
1087, 24, 88, 25, 709
1088, 610, 589, 90, 841
1089, 132, 723, 834, 835
1090, 652, 947, 937, 953
1091, 521, 719, 328, 812
1092, 121, 919, 739, 922
1093, 410, 480, 703, 852
1094, 236, 716, 401, 843
1095, 706, 885, 763, 887
1096, 410, 480, 414, 703
1097, 371, 804, 438, 904
1098, 438, 717, 494, 904
1099, 331, 388, 732, 849
1100, 654, 844, 907, 933
1101, 720, 890, 799, 908
1102, 192, 472, 183, 966
1103, 423, 722, 457, 925
1104, 85, 450, 36, 711
1105, 803, 950, 683, 967
1106, 687, 668, 772, 876
1107, 657, 811, 717, 965
1108, 463, 182, 782, 932
1109, 406, 714, 193, 966
1110, 774, 896, 577, 956
1111, 426, 799, 298, 901
1112, 340, 754, 523, 756
1113, 458, 760, 790, 849
1114, 334, 333, 254, 917
1115, 232, 765, 355, 826
1116, 157, 722, 159, 873
1117, 422, 770, 527, 881
1118, 519, 719, 521, 791
1119, 401, 236, 402, 716
1120, 154, 155, 156, 873
1121, 654, 844, 767, 929
1122, 673, 828, 756, 957
1123, 302, 294, 405, 708
1124, 686, 864, 773, 897
1125, 128, 940, 468, 968
1126, 661, 779, 735, 882
1127, 490, 489, 88, 895
1128, 32, 100, 33, 960
1129, 751, 936, 702, 942
1130, 671, 781, 830, 907
1131, 486, 176, 455, 718
1132, 660, 936, 751, 942
1133, 617, 798, 600, 915
1134, 694, 937, 846, 947
1135, 774, 151, 833, 964
1136, 360, 710, 69, 795
1137, 269, 742, 863, 866
1138, 739, 753, 116, 818
1139, 23, 24, 839, 859
1140, 269, 742, 268, 863
1141, 467, 446, 397, 807
1142, 706, 763, 677, 887
1143, 707, 655, 871, 946
1144, 681, 747, 732, 838
1145, 157, 423, 159, 722
1146, 707, 667, 840, 946
1147, 670, 894, 782, 945
1148, 194, 471, 864, 898
1149, 703, 852, 480, 869
1150, 713, 832, 670, 914
1151, 425, 759, 427, 813
1152, 558, 801, 335, 828
1153, 268, 742, 269, 866
1154, 565, 737, 295, 790
1155, 82, 430, 449, 790
1156, 422, 420, 527, 770
1157, 194, 898, 864, 951
1158, 684, 915, 746, 920
1159, 666, 710, 842, 948
1160, 445, 104, 444, 834
1161, 781, 907, 671, 916
1162, 361, 367, 276, 952
1163, 486, 418, 176, 718
1164, 243, 707, 465, 862
1165, 71, 760, 39, 865
1166, 120, 116, 121, 753
1167, 693, 886, 768, 916
1168, 663, 813, 710, 842
1169, 667, 840, 740, 871
1170, 706, 896, 774, 956
1171, 757, 788, 696, 819
1172, 717, 804, 772, 822
1173, 211, 785, 725, 881
1174, 695, 886, 768, 899
1175, 431, 704, 150, 896
1176, 706, 577, 896, 956
1177, 600, 798, 847, 915
1178, 658, 692, 754, 845
1179, 846, 937, 711, 947
1180, 154, 792, 155, 873
1181, 154, 156, 792, 873
1182, 405, 708, 294, 853
1183, 343, 345, 803, 950
1184, 366, 364, 90, 728
1185, 388, 318, 732, 838
1186, 331, 502, 501, 849
1187, 660, 818, 739, 963
1188, 722, 159, 873, 925
1189, 480, 414, 703, 850
1190, 360, 554, 69, 710
1191, 424, 738, 154, 889
1192, 228, 494, 750, 904
1193, 143, 144, 142, 837
1194, 24, 88, 709, 859
1195, 113, 107, 65, 846
1196, 132, 119, 133, 834
1197, 228, 117, 132, 750
1198, 233, 735, 836, 862
1199, 407, 178, 180, 781
1200, 302, 708, 405, 858
1201, 392, 394, 810, 838
1202, 132, 834, 133, 835
1203, 236, 402, 716, 843
1204, 234, 836, 235, 971
1205, 33, 755, 100, 811
1206, 919, 922, 125, 968
1207, 674, 745, 715, 912
1208, 695, 659, 760, 899
1209, 117, 132, 750, 834
1210, 463, 175, 182, 932
1211, 720, 864, 471, 898
1212, 747, 846, 711, 947
1213, 492, 875, 284, 963
1214, 667, 709, 783, 895
1215, 699, 759, 663, 844
1216, 321, 484, 493, 811
1217, 304, 724, 328, 935
1218, 299, 799, 813, 902
1219, 393, 392, 394, 810
1220, 560, 328, 521, 719
1221, 132, 723, 437, 904
1222, 810, 838, 681, 927
1223, 694, 846, 747, 947
1224, 643, 625, 638, 712
1225, 404, 796, 217, 853
1226, 447, 807, 705, 827
1227, 119, 133, 834, 835
1228, 701, 718, 932, 966
1229, 560, 719, 519, 938
1230, 345, 737, 391, 803
1231, 412, 153, 149, 738
1232, 397, 751, 807, 827
1233, 124, 121, 386, 739
1234, 282, 528, 912, 928
1235, 85, 105, 711, 860
1236, 405, 853, 200, 858
1237, 196, 407, 180, 781
1238, 549, 784, 356, 813
1239, 152, 149, 151, 831
1240, 665, 787, 701, 788
1241, 709, 839, 24, 859
1242, 641, 634, 823, 888
1243, 236, 402, 843, 928
1244, 734, 844, 693, 886
1245, 688, 740, 705, 827
1246, 209, 817, 725, 855
1247, 170, 799, 734, 901
1248, 658, 754, 712, 766
1249, 659, 857, 778, 947
1250, 715, 774, 706, 905
1251, 715, 706, 887, 905
1252, 291, 294, 301, 820
1253, 775, 865, 692, 899
1254, 124, 121, 739, 922
1255, 381, 866, 832, 940
1256, 85, 711, 36, 860
1257, 437, 134, 138, 723
1258, 700, 677, 745, 875
1259, 679, 708, 727, 933
1260, 693, 830, 781, 907
1261, 337, 814, 735, 893
1262, 165, 752, 161, 925
1263, 148, 154, 424, 738
1264, 244, 399, 289, 840
1265, 544, 756, 712, 955
1266, 763, 885, 653, 887
1267, 205, 220, 771, 917
1268, 768, 886, 693, 907
1269, 271, 741, 361, 952
1270, 414, 792, 703, 850
1271, 719, 888, 629, 938
1272, 660, 780, 818, 963
1273, 679, 727, 708, 858
1274, 125, 919, 123, 922
1275, 730, 964, 715, 969
1276, 663, 759, 699, 799
1277, 81, 33, 34, 867
1278, 693, 844, 734, 908
1279, 693, 720, 844, 908
1280, 106, 101, 743, 860
1281, 633, 749, 632, 948
1282, 99, 638, 766, 938
1283, 772, 822, 804, 949
1284, 332, 823, 756, 955
1285, 91, 552, 798, 821
1286, 698, 770, 722, 918
1287, 219, 193, 714, 787
1288, 685, 848, 718, 870
1289, 361, 362, 363, 786
1290, 99, 638, 581, 766
1291, 447, 827, 705, 961
1292, 573, 584, 816, 956
1293, 98, 825, 23, 839
1294, 297, 734, 170, 799
1295, 106, 102, 101, 860
1296, 85, 102, 105, 860
1297, 346, 722, 423, 973
1298, 504, 301, 303, 820
1299, 412, 738, 149, 831
1300, 334, 565, 333, 737
1301, 124, 739, 386, 922
1302, 385, 200, 197, 727
1303, 661, 714, 870, 882
1304, 64, 106, 743, 811
1305, 209, 189, 817, 855
1306, 197, 727, 200, 853
1307, 558, 89, 801, 823
1308, 731, 738, 664, 833
1309, 121, 120, 753, 919
1310, 346, 967, 722, 973
1311, 634, 635, 823, 948
1312, 194, 864, 225, 951
1313, 483, 757, 541, 819
1314, 660, 848, 739, 943
1315, 199, 217, 201, 805
1316, 459, 115, 451, 753
1317, 417, 733, 810, 941
1318, 787, 829, 204, 924
1319, 558, 756, 332, 823
1320, 466, 725, 209, 817
1321, 237, 745, 403, 911
1322, 98, 22, 23, 825
1323, 654, 907, 708, 933
1324, 99, 581, 545, 766
1325, 698, 903, 652, 918
1326, 459, 753, 451, 854
1327, 263, 257, 733, 869
1328, 346, 777, 722, 967
1329, 708, 796, 294, 853
1330, 296, 729, 319, 832
1331, 317, 910, 542, 952
1332, 243, 707, 862, 971
1333, 672, 936, 763, 942
1334, 114, 846, 694, 855
1335, 561, 828, 801, 892
1336, 745, 887, 700, 906
1337, 312, 514, 275, 812
1338, 106, 743, 811, 878
1339, 666, 813, 710, 892
1340, 410, 703, 806, 852
1341, 728, 841, 684, 863
1342, 406, 714, 797, 814
1343, 759, 767, 673, 842
1344, 759, 892, 828, 921
1345, 629, 888, 719, 944
1346, 655, 870, 779, 943
1347, 257, 264, 263, 733
1348, 693, 844, 720, 933
1349, 152, 831, 151, 964
1350, 579, 150, 736, 896
1351, 105, 450, 711, 838
1352, 693, 907, 781, 916
1353, 406, 797, 714, 966
1354, 617, 618, 821, 915
1355, 691, 702, 834, 868
1356, 299, 813, 314, 902
1357, 652, 918, 903, 953
1358, 494, 438, 498, 717
1359, 541, 821, 819, 934
1360, 457, 436, 165, 777
1361, 234, 862, 836, 971
1362, 658, 724, 897, 913
1363, 730, 794, 348, 831
1364, 641, 823, 712, 888
1365, 727, 830, 195, 898
1366, 636, 710, 784, 948
1367, 736, 789, 474, 891
1368, 369, 841, 364, 863
1369, 700, 780, 942, 963
1370, 243, 840, 707, 971
1371, 749, 842, 710, 948
1372, 584, 765, 706, 826
1373, 465, 243, 307, 707
1374, 640, 710, 650, 795
1375, 711, 846, 36, 860
1376, 667, 761, 871, 914
1377, 457, 165, 161, 925
1378, 746, 915, 607, 920
1379, 538, 435, 431, 896
1380, 654, 708, 913, 933
1381, 227, 730, 348, 831
1382, 468, 319, 729, 940
1383, 668, 822, 772, 949
1384, 667, 741, 709, 895
1385, 290, 291, 331, 796
1386, 155, 873, 698, 973
1387, 776, 910, 682, 952
1388, 196, 180, 195, 830
1389, 777, 803, 172, 954
1390, 779, 870, 848, 943
1391, 276, 367, 317, 952
1392, 279, 781, 748, 852
1393, 298, 799, 170, 901
1394, 764, 800, 664, 822
1395, 122, 296, 120, 919
1396, 823, 888, 749, 930
1397, 81, 755, 33, 867
1398, 468, 381, 319, 940
1399, 380, 311, 713, 866
1400, 714, 814, 576, 893
1401, 541, 819, 757, 934
1402, 671, 748, 781, 857
1403, 436, 165, 777, 880
1404, 327, 304, 302, 858
1405, 682, 726, 874, 970
1406, 706, 774, 704, 905
1407, 655, 861, 705, 871
1408, 307, 707, 243, 840
1409, 393, 256, 392, 927
1410, 812, 858, 434, 951
1411, 193, 714, 787, 966
1412, 427, 813, 759, 892
1413, 123, 919, 125, 968
1414, 64, 484, 106, 811
1415, 587, 766, 95, 845
1416, 38, 82, 37, 747
1417, 709, 815, 839, 914
1418, 358, 268, 742, 863
1419, 660, 780, 751, 807
1420, 666, 710, 784, 892
1421, 194, 471, 249, 864
1422, 377, 403, 492, 911
1423, 699, 673, 762, 921
1424, 424, 154, 792, 889
1425, 671, 857, 781, 916
1426, 554, 512, 69, 710
1427, 670, 782, 744, 900
1428, 684, 841, 358, 863
1429, 278, 498, 371, 804
1430, 699, 759, 673, 921
1431, 67, 780, 29, 807
1432, 85, 105, 450, 711
1433, 453, 452, 320, 832
1434, 106, 811, 484, 878
1435, 641, 712, 643, 888
1436, 399, 740, 288, 827
1437, 485, 564, 565, 760
1438, 819, 821, 678, 934
1439, 66, 477, 110, 963
1440, 527, 348, 582, 794
1441, 634, 749, 633, 948
1442, 212, 785, 211, 881
1443, 727, 720, 898, 951
1444, 285, 812, 434, 951
1445, 124, 919, 121, 922
1446, 72, 460, 26, 961
1447, 721, 840, 879, 946
1448, 128, 468, 919, 968
1449, 715, 912, 730, 969
1450, 260, 730, 227, 831
1451, 304, 724, 302, 858
1452, 271, 362, 361, 741
1453, 86, 775, 524, 865
1454, 554, 356, 512, 710
1455, 708, 853, 405, 858
1456, 520, 519, 521, 791
1457, 296, 320, 452, 832
1458, 23, 469, 24, 859
1459, 331, 501, 388, 849
1460, 794, 800, 738, 831
1461, 492, 284, 387, 963
1462, 214, 204, 829, 924
1463, 671, 805, 796, 853
1464, 329, 494, 717, 878
1465, 288, 740, 399, 971
1466, 453, 460, 452, 815
1467, 709, 741, 667, 931
1468, 768, 886, 669, 916
1469, 709, 839, 680, 874
1470, 336, 828, 892, 921
1471, 44, 625, 583, 712
1472, 565, 567, 295, 737
1473, 505, 456, 504, 845
1474, 260, 529, 730, 912
1475, 657, 755, 811, 965
1476, 584, 706, 354, 826
1477, 661, 765, 718, 797
1478, 700, 906, 758, 911
1479, 157, 423, 722, 973
1480, 673, 699, 762, 929
1481, 65, 107, 35, 846
1482, 266, 217, 404, 796
1483, 41, 86, 524, 865
1484, 255, 172, 777, 803
1485, 700, 745, 906, 911
1486, 354, 706, 577, 826
1487, 663, 759, 813, 842
1488, 388, 500, 318, 838
1489, 295, 230, 189, 817
1490, 692, 820, 724, 913
1491, 798, 821, 678, 915
1492, 288, 827, 740, 971
1493, 644, 628, 629, 938
1494, 69, 710, 640, 795
1495, 713, 815, 379, 832
1496, 566, 391, 345, 737
1497, 739, 685, 848, 922
1498, 244, 399, 840, 971
1499, 224, 843, 212, 881
1500, 720, 727, 933, 951
1501, 740, 840, 399, 971
1502, 531, 579, 150, 736
1503, 653, 885, 763, 942
1504, 763, 887, 653, 942
1505, 448, 201, 240, 748
1506, 657, 909, 755, 965
1507, 724, 820, 708, 913
1508, 664, 738, 800, 831
1509, 145, 431, 435, 833
1510, 525, 760, 71, 775
1511, 342, 316, 473, 819
1512, 425, 300, 799, 813
1513, 677, 765, 706, 816
1514, 148, 738, 424, 889
1515, 87, 815, 454, 839
1516, 666, 759, 813, 892
1517, 337, 576, 814, 893
1518, 570, 429, 530, 715
1519, 201, 240, 748, 927
1520, 455, 440, 486, 809
1521, 670, 900, 744, 940
1522, 692, 820, 697, 865
1523, 727, 853, 708, 858
1524, 617, 600, 798, 847
1525, 707, 829, 533, 893
1526, 128, 468, 123, 919
1527, 157, 722, 873, 973
1528, 633, 632, 636, 948
1529, 124, 123, 919, 922
1530, 440, 765, 486, 809
1531, 502, 820, 76, 865
1532, 217, 796, 266, 805
1533, 437, 132, 134, 723
1534, 808, 851, 696, 945
1535, 372, 731, 181, 949
1536, 109, 758, 478, 793
1537, 668, 738, 731, 889
1538, 693, 830, 727, 898
1539, 703, 850, 733, 869
1540, 675, 800, 730, 843
1541, 707, 856, 829, 893
1542, 436, 880, 777, 954
1543, 623, 636, 640, 710
1544, 583, 712, 625, 955
1545, 676, 804, 731, 837
1546, 97, 544, 523, 712
1547, 864, 898, 720, 951
1548, 124, 125, 123, 922
1549, 785, 843, 675, 881
1550, 298, 297, 170, 799
1551, 452, 460, 72, 854
1552, 701, 782, 744, 894
1553, 584, 577, 354, 706
1554, 263, 772, 277, 850
1555, 708, 671, 853, 907
1556, 530, 745, 238, 912
1557, 688, 779, 882, 936
1558, 677, 739, 848, 922
1559, 257, 256, 417, 733
1560, 406, 797, 231, 814
1561, 727, 898, 195, 951
1562, 560, 521, 519, 719
1563, 706, 765, 661, 826
1564, 754, 766, 658, 845
1565, 458, 760, 485, 790
1566, 228, 494, 493, 750
1567, 741, 931, 682, 952
1568, 380, 713, 379, 832
1569, 641, 643, 634, 888
1570, 415, 792, 414, 850
1571, 549, 784, 813, 892
1572, 414, 323, 413, 792
1573, 538, 774, 435, 896
1574, 187, 343, 803, 967
1575, 400, 740, 399, 827
1576, 380, 311, 379, 713
1577, 245, 534, 840, 879
1578, 529, 350, 730, 912
1579, 636, 650, 640, 710
1580, 279, 748, 448, 852
1581, 778, 857, 681, 947
1582, 652, 876, 926, 962
1583, 707, 856, 655, 946
1584, 733, 810, 681, 927
1585, 331, 388, 290, 732
1586, 219, 193, 406, 714
1587, 128, 919, 123, 968
1588, 256, 733, 257, 927
1589, 637, 629, 888, 938
1590, 115, 116, 753, 818
1591, 661, 870, 779, 882
1592, 687, 743, 860, 878
1593, 720, 844, 799, 890
1594, 691, 868, 764, 906
1595, 551, 819, 746, 824
1596, 704, 706, 885, 896
1597, 802, 847, 594, 910
1598, 652, 903, 876, 962
1599, 319, 296, 122, 729
1600, 721, 682, 808, 931
1601, 711, 810, 105, 838
1602, 716, 785, 689, 867
1603, 747, 838, 681, 947
1604, 801, 823, 651, 948
1605, 704, 774, 706, 896
1606, 679, 897, 724, 913
1607, 484, 811, 321, 878
1608, 188, 373, 140, 837
1609, 401, 785, 212, 843
1610, 178, 781, 408, 939
1611, 567, 230, 295, 817
1612, 329, 494, 498, 717
1613, 279, 198, 448, 748
1614, 695, 886, 899, 929
1615, 455, 129, 809, 968
1616, 187, 803, 255, 967
1617, 159, 722, 423, 925
1618, 731, 889, 181, 949
1619, 679, 858, 812, 951
1620, 253, 774, 577, 956
1621, 521, 791, 719, 812
1622, 682, 776, 721, 808
1623, 386, 739, 387, 875
1624, 255, 803, 777, 967
1625, 192, 788, 787, 924
1626, 391, 803, 737, 917
1627, 398, 751, 396, 836
1628, 221, 788, 192, 924
1629, 268, 251, 742, 866
1630, 658, 719, 766, 888
1631, 466, 211, 209, 725
1632, 496, 377, 884, 911
1633, 792, 876, 668, 958
1634, 376, 884, 716, 928
1635, 307, 245, 534, 840
1636, 558, 332, 89, 823
1637, 577, 826, 706, 896
1638, 568, 817, 345, 950
1639, 292, 260, 186, 964
1640, 69, 512, 640, 710
1641, 42, 86, 41, 754
1642, 735, 882, 779, 936
1643, 284, 403, 237, 875
1644, 446, 67, 29, 807
1645, 665, 701, 856, 894
1646, 670, 744, 729, 940
1647, 121, 116, 386, 739
1648, 720, 933, 864, 951
1649, 29, 807, 780, 818
1650, 401, 402, 376, 716
1651, 358, 268, 464, 742
1652, 493, 103, 750, 811
1653, 688, 882, 735, 936
1654, 666, 842, 749, 948
1655, 396, 751, 397, 827
1656, 335, 801, 561, 828
1657, 268, 742, 251, 900
1658, 699, 663, 799, 844
1659, 496, 377, 375, 884
1660, 406, 191, 797, 966
1661, 570, 292, 715, 912
1662, 220, 390, 254, 917
1663, 429, 570, 292, 715
1664, 709, 667, 914, 931
1665, 719, 658, 766, 935
1666, 275, 812, 285, 951
1667, 173, 389, 771, 803
1668, 565, 564, 333, 760
1669, 614, 543, 556, 825
1670, 400, 399, 288, 827
1671, 347, 736, 814, 826
1672, 241, 220, 254, 762
1673, 475, 463, 182, 782
1674, 318, 265, 290, 732
1675, 705, 871, 690, 961
1676, 144, 146, 731, 833
1677, 219, 395, 204, 893
1678, 387, 875, 739, 963
1679, 744, 782, 670, 894
1680, 674, 764, 909, 969
1681, 655, 856, 894, 946
1682, 637, 766, 638, 938
1683, 174, 744, 131, 932
1684, 234, 202, 836, 862
1685, 663, 759, 799, 813
1686, 771, 803, 389, 917
1687, 705, 827, 740, 961
1688, 680, 786, 859, 874
1689, 227, 348, 794, 831
1690, 679, 864, 812, 897
1691, 577, 706, 261, 956
1692, 448, 748, 240, 869
1693, 263, 264, 277, 772
1694, 614, 556, 589, 825
1695, 250, 273, 742, 900
1696, 75, 613, 798, 910
1697, 706, 774, 715, 956
1698, 721, 682, 931, 952
1699, 409, 781, 279, 852
1700, 248, 828, 921, 957
1701, 93, 356, 549, 784
1702, 103, 117, 750, 834
1703, 661, 765, 797, 826
1704, 659, 790, 747, 972
1705, 701, 787, 665, 856
1706, 658, 897, 767, 913
1707, 742, 866, 251, 900
1708, 402, 376, 716, 928
1709, 201, 448, 198, 748
1710, 398, 396, 235, 836
1711, 24, 469, 88, 859
1712, 95, 43, 42, 754
1713, 720, 207, 890, 908
1714, 638, 766, 637, 888
1715, 299, 799, 300, 813
1716, 431, 150, 579, 896
1717, 667, 783, 740, 895
1718, 268, 251, 250, 900
1719, 275, 864, 812, 951
1720, 260, 348, 227, 730
1721, 545, 95, 587, 766
1722, 219, 204, 193, 787
1723, 284, 875, 387, 963
1724, 669, 803, 771, 917
1725, 406, 193, 191, 966
1726, 790, 947, 747, 972
1727, 453, 379, 815, 832
1728, 299, 890, 799, 902
1729, 196, 279, 781, 830
1730, 402, 884, 376, 928
1731, 268, 250, 742, 900
1732, 685, 922, 919, 968
1733, 380, 269, 311, 866
1734, 671, 796, 708, 853
1735, 400, 488, 399, 740
1736, 726, 682, 847, 970
1737, 663, 767, 759, 842
1738, 174, 130, 131, 744
1739, 562, 795, 773, 902
1740, 690, 871, 761, 914
1741, 679, 913, 708, 933
1742, 657, 716, 755, 909
1743, 282, 912, 911, 928
1744, 299, 300, 314, 813
1745, 685, 744, 718, 968
1746, 307, 534, 578, 829
1747, 683, 778, 903, 953
1748, 427, 892, 759, 921
1749, 732, 747, 659, 849
1750, 659, 747, 947, 972
1751, 729, 854, 753, 861
1752, 503, 76, 502, 820
1753, 173, 803, 771, 954
1754, 736, 885, 706, 896
1755, 43, 97, 523, 712
1756, 307, 578, 707, 829
1757, 771, 886, 695, 929
1758, 279, 448, 411, 852
1759, 678, 847, 798, 915
1760, 338, 258, 735, 891
1761, 680, 883, 825, 970
1762, 748, 240, 869, 927
1763, 136, 432, 789, 891
1764, 405, 294, 404, 853
1765, 604, 607, 746, 915
1766, 116, 387, 386, 739
1767, 644, 80, 519, 938
1768, 261, 706, 584, 956
1769, 433, 405, 200, 858
1770, 257, 417, 264, 733
1771, 31, 84, 32, 960
1772, 760, 899, 659, 959
1773, 261, 577, 584, 706
1774, 670, 713, 914, 945
1775, 95, 754, 42, 845
1776, 745, 911, 281, 912
1777, 598, 798, 613, 910
1778, 664, 774, 833, 964
1779, 429, 816, 715, 956
1780, 699, 886, 771, 929
1781, 597, 847, 802, 970
1782, 43, 712, 523, 754
1783, 471, 720, 898, 908
1784, 495, 282, 911, 928
1785, 415, 323, 414, 792
1786, 212, 211, 223, 881
1787, 448, 852, 748, 869
1788, 689, 860, 743, 867
1789, 724, 845, 658, 935
1790, 483, 757, 353, 934
1791, 369, 90, 364, 841
1792, 201, 748, 805, 927
1793, 722, 873, 698, 903
1794, 544, 712, 97, 955
1795, 281, 495, 282, 911
1796, 727, 830, 693, 907
1797, 156, 413, 792, 873
1798, 253, 577, 774, 896
1799, 671, 781, 748, 830
1800, 398, 280, 751, 835
1801, 483, 541, 342, 819
1802, 116, 387, 739, 963
1803, 801, 828, 666, 892
1804, 729, 690, 854, 861
1805, 231, 797, 232, 826
1806, 699, 771, 762, 929
1807, 120, 115, 116, 753
1808, 627, 648, 77, 784
1809, 234, 202, 235, 836
1810, 39, 502, 40, 865
1811, 656, 851, 808, 945
1812, 776, 798, 678, 847
1813, 705, 690, 854, 961
1814, 471, 207, 720, 908
1815, 697, 899, 760, 959
1816, 71, 39, 40, 865
1817, 696, 900, 782, 945
1818, 733, 926, 876, 962
1819, 737, 817, 790, 972
1820, 44, 97, 43, 712
1821, 66, 780, 30, 793
1822, 744, 782, 701, 932
1823, 162, 178, 408, 939
1824, 404, 294, 796, 853
1825, 844, 886, 699, 929
1826, 488, 783, 489, 895
1827, 303, 724, 304, 935
1828, 364, 728, 365, 863
1829, 372, 804, 731, 949
1830, 711, 860, 687, 937
1831, 721, 776, 682, 952
1832, 181, 144, 146, 731
1833, 139, 789, 141, 837
1834, 740, 840, 667, 895
1835, 436, 777, 172, 954
1836, 77, 648, 508, 784
1837, 691, 906, 764, 909
1838, 690, 705, 861, 871
1839, 428, 715, 292, 964
1840, 382, 376, 374, 867
1841, 695, 771, 762, 917
1842, 264, 733, 417, 941
1843, 448, 411, 852, 869
1844, 255, 187, 172, 803
1845, 377, 492, 478, 758
1846, 631, 888, 637, 944
1847, 657, 800, 764, 822
1848, 278, 772, 804, 949
1849, 684, 726, 851, 915
1850, 735, 836, 688, 936
1851, 466, 211, 725, 950
1852, 800, 822, 769, 958
1853, 758, 884, 377, 911
1854, 325, 522, 340, 756
1855, 109, 478, 66, 793
1856, 792, 850, 415, 889
1857, 758, 793, 691, 906
1858, 236, 401, 212, 843
1859, 89, 621, 823, 955
1860, 340, 523, 544, 712
1861, 30, 66, 110, 780
1862, 659, 849, 760, 959
1863, 411, 480, 852, 869
1864, 683, 770, 722, 967
1865, 560, 935, 719, 938
1866, 733, 869, 257, 927
1867, 453, 320, 379, 832
1868, 597, 802, 786, 970
1869, 658, 845, 766, 935
1870, 366, 497, 728, 825
1871, 214, 829, 877, 924
1872, 831, 964, 730, 969
1873, 697, 760, 849, 959
1874, 264, 772, 733, 941
1875, 583, 97, 712, 955
1876, 739, 848, 685, 943
1877, 719, 791, 629, 944
1878, 725, 817, 466, 950
1879, 584, 765, 539, 816
1880, 157, 159, 158, 873
1881, 713, 670, 866, 945
1882, 432, 136, 137, 891
1883, 722, 770, 698, 973
1884, 668, 769, 822, 958
1885, 672, 836, 735, 936
1886, 647, 517, 624, 795
1887, 713, 866, 742, 945
1888, 684, 851, 746, 915
1889, 654, 886, 844, 929
1890, 741, 874, 682, 931
1891, 670, 832, 713, 866
1892, 766, 845, 587, 935
1893, 323, 156, 413, 792
1894, 695, 775, 762, 929
1895, 654, 768, 899, 907
1896, 128, 130, 940, 968
1897, 676, 750, 717, 904
1898, 594, 598, 613, 910
1899, 428, 429, 715, 956
1900, 729, 744, 685, 968
1901, 755, 867, 374, 884
1902, 329, 321, 494, 878
1903, 99, 622, 638, 938
1904, 705, 740, 871, 961
1905, 721, 931, 741, 952
1906, 708, 907, 727, 933
1907, 687, 860, 743, 937
1908, 480, 262, 263, 869
1909, 467, 397, 396, 751
1910, 667, 879, 840, 946
1911, 138, 136, 139, 789
1912, 632, 649, 650, 795
1913, 617, 600, 618, 915
1914, 23, 96, 469, 859
1915, 131, 744, 130, 968
1916, 686, 842, 749, 897
1917, 248, 828, 270, 921
1918, 662, 781, 748, 857
1919, 146, 181, 731, 889
1920, 733, 876, 703, 962
1921, 677, 809, 765, 816
1922, 97, 44, 583, 712
1923, 218, 238, 530, 745
1924, 721, 879, 741, 931
1925, 116, 739, 818, 963
1926, 39, 760, 458, 849
1927, 682, 874, 786, 970
1928, 760, 775, 695, 899
1929, 706, 826, 736, 896
1930, 548, 514, 791, 812
1931, 351, 824, 746, 920
1932, 578, 533, 707, 829
1933, 770, 950, 683, 953
1934, 427, 336, 892, 921
1935, 231, 232, 267, 826
1936, 712, 756, 754, 930
1937, 730, 800, 794, 831
1938, 745, 816, 677, 887
1939, 705, 854, 690, 861
1940, 657, 755, 743, 811
1941, 109, 758, 793, 960
1942, 211, 725, 274, 881
1943, 460, 87, 25, 815
1944, 485, 458, 564, 760
1945, 836, 862, 688, 971
1946, 742, 900, 696, 945
1947, 536, 99, 766, 938
1948, 681, 805, 732, 857
1949, 732, 857, 805, 959
1950, 197, 830, 727, 853
1951, 315, 273, 287, 824
1952, 213, 875, 218, 922
1953, 113, 846, 114, 855
1954, 322, 535, 776, 877
1955, 682, 874, 808, 931
1956, 637, 888, 629, 944
1957, 339, 721, 535, 877
1958, 398, 835, 751, 836
1959, 660, 807, 751, 936
1960, 436, 167, 880, 954
1961, 194, 249, 225, 864
1962, 447, 397, 807, 827
1963, 728, 825, 497, 839
1964, 677, 816, 706, 887
1965, 475, 287, 463, 782
1966, 361, 786, 79, 802
1967, 338, 258, 337, 735
1968, 406, 191, 231, 797
1969, 744, 940, 130, 968
1970, 303, 305, 505, 845
1971, 233, 836, 202, 862
1972, 760, 865, 775, 899
1973, 612, 79, 786, 802
1974, 676, 717, 750, 965
1975, 656, 808, 761, 945
1976, 610, 841, 603, 883
1977, 195, 385, 197, 727
1978, 195, 727, 197, 830
1979, 661, 718, 765, 848
1980, 280, 396, 398, 751
1981, 594, 613, 586, 910
1982, 347, 814, 286, 826
1983, 664, 774, 715, 905
1984, 443, 168, 164, 908
1985, 447, 397, 446, 807
1986, 304, 303, 302, 724
1987, 725, 950, 770, 953
1988, 729, 685, 861, 919
1989, 424, 154, 323, 792
1990, 662, 781, 857, 916
1991, 465, 307, 533, 707
1992, 627, 784, 77, 801
1993, 374, 755, 81, 867
1994, 658, 712, 754, 930
1995, 558, 324, 756, 828
1996, 551, 341, 819, 824
1997, 327, 434, 328, 858
1998, 407, 408, 178, 781
1999, 380, 713, 832, 866
2000, 790, 817, 694, 972
2001, 649, 630, 923, 944
2002, 599, 847, 726, 915
2003, 700, 793, 780, 963
2004, 719, 812, 686, 897
2005, 536, 766, 587, 935
2006, 685, 718, 809, 968
2007, 87, 479, 24, 839
2008, 710, 666, 784, 948
2009, 205, 390, 220, 917
2010, 488, 462, 489, 783
2011, 260, 831, 186, 964
2012, 562, 773, 482, 902
2013, 362, 741, 490, 859
2014, 693, 768, 907, 916
2015, 471, 898, 179, 908
2016, 551, 341, 746, 819
2017, 278, 804, 370, 949
2018, 805, 857, 671, 959
2019, 219, 714, 576, 893
2020, 746, 819, 559, 821
2021, 409, 408, 407, 781
2022, 483, 541, 757, 934
2023, 435, 774, 151, 833
2024, 753, 861, 685, 919
2025, 153, 148, 149, 738
2026, 210, 785, 378, 855
2027, 588, 615, 511, 798
2028, 717, 804, 676, 904
2029, 665, 931, 761, 946
2030, 708, 853, 727, 907
2031, 876, 903, 703, 962
2032, 184, 205, 206, 771
2033, 228, 132, 437, 904
2034, 228, 438, 494, 904
2035, 408, 781, 409, 939
2036, 622, 99, 506, 938
2037, 334, 567, 565, 737
2038, 95, 42, 456, 845
2039, 89, 518, 621, 955
2040, 406, 231, 286, 814
2041, 739, 919, 685, 922
2042, 783, 871, 740, 961
2043, 260, 227, 186, 831
2044, 741, 879, 721, 952
2045, 303, 304, 305, 935
2046, 652, 926, 778, 962
2047, 148, 153, 154, 738
2048, 87, 454, 479, 839
2049, 205, 173, 389, 771
2050, 347, 286, 267, 826
2051, 395, 533, 829, 893
2052, 715, 774, 664, 964
2053, 289, 246, 840, 895
2054, 686, 719, 897, 944
2055, 665, 808, 761, 931
2056, 723, 834, 702, 868
2057, 664, 800, 730, 831
2058, 282, 495, 528, 928
2059, 233, 293, 735, 862
2060, 601, 599, 726, 915
2061, 594, 847, 598, 910
2062, 573, 584, 539, 816
2063, 83, 115, 459, 818
2064, 155, 169, 873, 973
2065, 409, 407, 279, 781
2066, 350, 730, 528, 843
2067, 461, 483, 221, 924
2068, 346, 421, 967, 973
2069, 656, 874, 709, 931
2070, 226, 174, 782, 900
2071, 694, 947, 790, 972
2072, 427, 216, 476, 921
2073, 181, 372, 144, 731
2074, 707, 688, 862, 971
2075, 701, 870, 856, 894
2076, 675, 918, 794, 958
2077, 665, 721, 808, 946
2078, 263, 262, 257, 869
2079, 281, 911, 282, 912
2080, 281, 745, 237, 911
2081, 25, 462, 26, 783
2082, 764, 868, 653, 906
2083, 274, 725, 211, 950
2084, 747, 790, 694, 947
2085, 461, 757, 483, 924
2086, 717, 811, 750, 965
2087, 146, 148, 424, 889
2088, 418, 486, 355, 765
2089, 187, 255, 343, 967
2090, 556, 543, 366, 825
2091, 407, 196, 279, 781
2092, 551, 351, 746, 920
2093, 534, 721, 339, 829
2094, 739, 753, 685, 919
2095, 496, 911, 884, 928
2096, 864, 933, 679, 951
2097, 101, 34, 743, 860
2098, 665, 808, 931, 946
2099, 127, 210, 378, 855
2100, 720, 773, 663, 890
2101, 727, 858, 679, 951
2102, 64, 33, 100, 811
2103, 721, 879, 534, 952
2104, 676, 764, 868, 905
2105, 661, 814, 736, 826
2106, 656, 709, 914, 931
2107, 725, 274, 881, 950
2108, 742, 866, 670, 945
2109, 247, 534, 879, 952
2110, 315, 819, 341, 824
2111, 250, 273, 464, 742
2112, 642, 801, 89, 823
2113, 670, 729, 832, 940
2114, 698, 794, 918, 958
2115, 205, 771, 389, 917
2116, 402, 375, 376, 884
2117, 688, 707, 862, 882
2118, 708, 796, 697, 820
2119, 781, 852, 409, 939
2120, 501, 502, 39, 849
2121, 351, 551, 746, 824
2122, 415, 323, 792, 889
2123, 738, 800, 794, 958
2124, 180, 178, 179, 898
2125, 529, 528, 350, 912
2126, 238, 745, 281, 912
2127, 660, 779, 763, 848
2128, 108, 81, 374, 755
2129, 599, 602, 601, 726
2130, 735, 814, 714, 893
2131, 524, 775, 71, 865
2132, 809, 848, 685, 922
2133, 357, 425, 427, 813
2134, 674, 906, 764, 969
2135, 292, 529, 260, 912
2136, 643, 641, 625, 712
2137, 224, 212, 223, 881
2138, 655, 856, 707, 882
2139, 721, 931, 808, 946
2140, 483, 473, 221, 788
2141, 490, 741, 416, 895
2142, 162, 161, 752, 939
2143, 635, 651, 823, 948
2144, 483, 353, 541, 934
2145, 170, 734, 166, 880
2146, 391, 389, 803, 917
2147, 347, 736, 531, 814
2148, 359, 773, 562, 795
2149, 659, 747, 790, 849
2150, 355, 765, 584, 826
2151, 253, 774, 538, 896
2152, 272, 877, 776, 934
2153, 269, 268, 310, 863
2154, 635, 634, 633, 948
2155, 428, 429, 292, 715
2156, 591, 746, 607, 920
2157, 428, 956, 715, 964
2158, 729, 940, 744, 968
2159, 689, 743, 860, 937
2160, 665, 761, 894, 946
2161, 812, 864, 679, 951
2162, 464, 742, 273, 824
2163, 352, 776, 798, 934
2164, 655, 856, 870, 894
2165, 721, 879, 667, 946
2166, 417, 810, 393, 941
2167, 221, 472, 192, 788
2168, 675, 794, 730, 800
2169, 590, 555, 537, 786
2170, 170, 734, 880, 901
2171, 701, 787, 714, 966
2172, 311, 364, 365, 863
2173, 750, 868, 723, 904
2174, 710, 813, 784, 892
2175, 38, 747, 68, 849
2176, 424, 792, 323, 889
2177, 709, 680, 859, 874
2178, 546, 824, 351, 920
2179, 126, 213, 218, 922
2180, 658, 766, 712, 888
2181, 319, 122, 468, 729
2182, 470, 890, 207, 908
2183, 664, 905, 715, 969
2184, 541, 552, 821, 934
2185, 672, 789, 723, 885
2186, 491, 537, 363, 786
2187, 425, 300, 298, 799
2188, 652, 778, 903, 962
2189, 735, 836, 672, 891
2190, 244, 242, 399, 971
2191, 538, 253, 435, 774
2192, 604, 607, 591, 746
2193, 704, 774, 833, 905
2194, 392, 239, 805, 927
2195, 336, 828, 561, 892
2196, 416, 741, 271, 879
2197, 659, 790, 760, 849
2198, 471, 179, 207, 908
2199, 601, 726, 602, 883
2200, 677, 848, 809, 922
2201, 406, 576, 714, 814
2202, 234, 233, 202, 862
2203, 450, 68, 37, 747
2204, 536, 587, 305, 935
2205, 493, 103, 117, 750
2206, 394, 105, 810, 838
2207, 108, 755, 374, 884
2208, 670, 832, 866, 940
2209, 223, 211, 274, 881
2210, 719, 791, 686, 812
2211, 768, 886, 654, 899
2212, 244, 289, 246, 840
2213, 578, 533, 307, 707
2214, 722, 873, 806, 925
2215, 272, 757, 877, 934
2216, 140, 139, 141, 837
2217, 613, 588, 75, 798
2218, 214, 204, 215, 829
2219, 726, 680, 874, 970
2220, 670, 782, 900, 945
2221, 762, 771, 695, 929
2222, 714, 787, 701, 856
2223, 676, 723, 868, 904
2224, 113, 65, 114, 846
2225, 665, 894, 856, 946
2226, 649, 632, 630, 944
2227, 98, 497, 825, 839
2228, 369, 358, 841, 863
2229, 768, 907, 671, 959
2230, 439, 229, 440, 809
2231, 732, 849, 659, 959
2232, 137, 202, 233, 836
2233, 338, 337, 532, 814
2234, 660, 739, 818, 943
2235, 265, 392, 239, 805
2236, 415, 889, 850, 949
2237, 217, 266, 265, 805
2238, 687, 772, 733, 876
2239, 769, 800, 657, 822
2240, 501, 68, 388, 849
2241, 551, 315, 341, 824
2242, 669, 880, 734, 901
2243, 669, 734, 886, 901
2244, 493, 484, 103, 811
2245, 346, 423, 421, 973
2246, 125, 922, 809, 968
2247, 38, 37, 68, 747
2248, 714, 856, 701, 870
2249, 165, 164, 752, 880
2250, 662, 857, 872, 916
2251, 410, 411, 480, 852
2252, 730, 912, 674, 969
2253, 313, 249, 471, 864
2254, 536, 506, 99, 938
2255, 693, 781, 752, 916
2256, 350, 582, 730, 843
2257, 404, 217, 199, 853
2258, 736, 826, 347, 896
2259, 631, 637, 629, 944
2260, 685, 753, 739, 943
2261, 665, 829, 787, 924
2262, 736, 814, 735, 891
2263, 258, 233, 293, 735
2264, 729, 861, 753, 919
2265, 318, 290, 388, 732
2266, 560, 519, 80, 938
2267, 64, 106, 101, 743
2268, 755, 811, 691, 960
2269, 709, 874, 741, 931
2270, 776, 847, 682, 910
2271, 602, 726, 599, 970
2272, 466, 274, 211, 950
2273, 559, 746, 341, 819
2274, 34, 64, 101, 743
2275, 729, 685, 919, 968
2276, 770, 918, 725, 953
2277, 693, 720, 898, 933
2278, 521, 548, 791, 812
2279, 436, 172, 167, 954
2280, 513, 645, 74, 923
2281, 490, 362, 416, 741
2282, 567, 737, 566, 817
2283, 129, 131, 130, 968
2284, 165, 164, 161, 752
2285, 786, 874, 680, 970
2286, 39, 71, 458, 760
2287, 287, 226, 463, 782
2288, 617, 798, 598, 847
2289, 413, 163, 410, 806
2290, 308, 535, 721, 952
2291, 305, 587, 845, 935
2292, 787, 829, 665, 856
2293, 161, 925, 752, 939
2294, 753, 818, 739, 943
2295, 120, 451, 115, 753
2296, 308, 542, 535, 952
2297, 455, 129, 439, 809
2298, 771, 901, 184, 954
2299, 680, 839, 709, 859
2300, 339, 829, 721, 877
2301, 708, 679, 858, 913
2302, 127, 378, 113, 855
2303, 237, 745, 218, 875
2304, 664, 964, 831, 969
2305, 352, 776, 547, 798
2306, 688, 836, 735, 862
2307, 675, 785, 716, 843
2308, 823, 930, 749, 948
2309, 714, 870, 701, 966
2310, 654, 899, 886, 929
2311, 270, 248, 324, 828
2312, 281, 238, 237, 745
2313, 686, 897, 749, 944
2314, 419, 420, 169, 973
2315, 427, 357, 813, 892
2316, 719, 686, 791, 944
2317, 693, 898, 727, 933
2318, 690, 871, 783, 961
2319, 568, 566, 345, 817
2320, 141, 139, 474, 789
2321, 656, 914, 713, 945
2322, 727, 853, 830, 907
2323, 670, 914, 761, 945
2324, 703, 806, 852, 962
2325, 385, 727, 195, 951
2326, 345, 391, 389, 803
2327, 468, 729, 122, 919
2328, 662, 852, 806, 962
2329, 911, 912, 674, 928
2330, 645, 791, 74, 923
2331, 742, 824, 684, 851
2332, 830, 853, 671, 907
2333, 216, 206, 476, 921
2334, 171, 184, 901, 954
2335, 698, 792, 738, 958
2336, 125, 809, 439, 968
2337, 496, 884, 375, 928
2338, 654, 886, 768, 907
2339, 636, 784, 639, 948
2340, 769, 876, 687, 937
2341, 673, 921, 828, 957
2342, 669, 777, 752, 880
2343, 529, 282, 528, 912
2344, 757, 819, 678, 934
2345, 105, 500, 450, 838
2346, 415, 424, 323, 889
2347, 661, 797, 714, 814
2348, 681, 810, 733, 926
2349, 361, 79, 367, 802
2350, 761, 914, 667, 931
2351, 350, 260, 529, 730
2352, 319, 381, 380, 832
2353, 162, 160, 161, 939
2354, 712, 888, 823, 930
2355, 382, 107, 113, 867
2356, 312, 313, 773, 864
2357, 91, 516, 552, 821
2358, 139, 136, 432, 789
2359, 170, 297, 166, 734
2360, 299, 326, 890, 902
2361, 691, 834, 750, 868
2362, 700, 793, 758, 906
2363, 184, 173, 771, 954
2364, 663, 813, 799, 902
2365, 196, 198, 279, 830
2366, 727, 898, 720, 933
2367, 599, 600, 847, 915
2368, 617, 598, 600, 847
2369, 633, 634, 631, 749
2370, 725, 785, 675, 881
2371, 696, 851, 742, 945
2372, 633, 631, 632, 749
2373, 144, 145, 146, 833
2374, 619, 841, 595, 920
2375, 186, 428, 292, 964
2376, 631, 749, 634, 888
2377, 314, 813, 356, 902
2378, 739, 875, 386, 922
2379, 678, 821, 798, 934
2380, 678, 757, 776, 808
2381, 135, 835, 398, 836
2382, 648, 93, 508, 784
2383, 39, 458, 38, 849
2384, 480, 263, 283, 850
2385, 275, 309, 285, 812
2386, 308, 317, 542, 952
2387, 511, 615, 91, 798
2388, 134, 133, 135, 835
2389, 452, 451, 296, 854
2390, 693, 727, 907, 933
2391, 676, 868, 750, 904
2392, 741, 879, 416, 895
2393, 426, 298, 170, 901
2394, 713, 863, 742, 866
2395, 410, 806, 163, 852
2396, 551, 746, 94, 920
2397, 380, 832, 381, 866
2398, 432, 474, 789, 891
2399, 554, 314, 356, 902
2400, 687, 810, 711, 926
2401, 598, 847, 798, 910
2402, 725, 817, 694, 855
2403, 30, 444, 31, 793
2404, 480, 283, 414, 850
2405, 663, 710, 813, 902
2406, 458, 485, 82, 790
2407, 647, 92, 517, 795
2408, 661, 714, 797, 870
2409, 776, 798, 847, 910
2410, 296, 319, 320, 832
2411, 606, 590, 537, 786
2412, 679, 767, 897, 913
2413, 443, 166, 297, 734
2414, 129, 439, 809, 968
2415, 707, 840, 740, 971
2416, 597, 612, 786, 802
2417, 764, 822, 676, 965
2418, 631, 632, 749, 944
2419, 420, 770, 422, 973
2420, 659, 857, 768, 872
2421, 768, 872, 857, 916
2422, 226, 174, 463, 782
2423, 662, 806, 903, 962
2424, 760, 697, 865, 899
2425, 696, 824, 742, 851
2426, 540, 935, 560, 938
2427, 661, 763, 779, 848
2428, 454, 453, 379, 815
2429, 780, 793, 700, 942
2430, 246, 879, 840, 895
2431, 703, 903, 806, 962
2432, 620, 645, 513, 923
2433, 190, 418, 232, 797
2434, 715, 674, 912, 969
2435, 685, 809, 718, 848
2436, 703, 873, 806, 903
2437, 497, 365, 366, 728
2438, 442, 394, 105, 810
2439, 668, 731, 822, 949
2440, 439, 809, 125, 922
2441, 128, 130, 441, 940
2442, 515, 746, 559, 821
2443, 664, 715, 964, 969
2444, 656, 808, 874, 931
2445, 277, 772, 278, 949
2446, 797, 814, 661, 826
2447, 35, 36, 846, 860
2448, 75, 586, 613, 910
2449, 702, 793, 780, 942
2450, 402, 375, 884, 928
2451, 674, 716, 909, 928
2452, 668, 792, 738, 889
2453, 726, 847, 678, 915
2454, 687, 926, 711, 937
2455, 112, 478, 109, 758
2456, 184, 171, 173, 954
2457, 112, 377, 758, 884
2458, 737, 803, 683, 872
2459, 578, 534, 339, 829
2460, 427, 476, 336, 921
2461, 720, 663, 844, 890
2462, 360, 795, 562, 902
2463, 721, 667, 879, 931
2464, 662, 857, 778, 872
2465, 776, 877, 757, 934
2466, 337, 735, 293, 893
2467, 665, 808, 721, 877
2468, 663, 799, 890, 902
2469, 348, 350, 582, 730
2470, 73, 462, 488, 783
2471, 151, 774, 185, 964
2472, 733, 772, 687, 941
2473, 660, 763, 779, 936
2474, 746, 821, 604, 915
2475, 738, 792, 668, 958
2476, 717, 676, 804, 822
2477, 346, 436, 457, 777
2478, 884, 909, 716, 928
2479, 716, 867, 755, 884
2480, 160, 925, 161, 939
2481, 681, 778, 926, 962
2482, 571, 766, 536, 935
2483, 272, 461, 214, 924
2484, 293, 735, 862, 893
2485, 661, 718, 848, 870
2486, 412, 349, 419, 794
2487, 748, 781, 662, 852
2488, 706, 715, 887, 956
2489, 637, 638, 622, 938
2490, 78, 841, 546, 920
2491, 547, 798, 776, 910
2492, 683, 722, 777, 967
2493, 804, 822, 731, 949
2494, 594, 368, 802, 910
2495, 322, 272, 776, 934
2496, 734, 799, 699, 901
2497, 597, 599, 847, 970
2498, 172, 803, 187, 954
2499, 158, 806, 413, 873
2500, 277, 278, 370, 949
2501, 520, 74, 645, 791
2502, 349, 227, 794, 831
2503, 157, 155, 169, 873
2504, 662, 722, 806, 925
2505, 203, 192, 787, 924
2506, 139, 432, 474, 789
2507, 349, 227, 348, 794
2508, 761, 894, 670, 945
2509, 674, 884, 758, 911
2510, 255, 172, 436, 777
2511, 703, 869, 733, 962
2512, 164, 162, 161, 752
2513, 589, 610, 603, 883
2514, 187, 343, 345, 803
2515, 661, 797, 718, 870
2516, 203, 221, 192, 924
2517, 416, 362, 271, 741
2518, 395, 215, 204, 829
2519, 607, 619, 595, 920
2520, 215, 214, 829, 877
2521, 612, 596, 563, 802
2522, 268, 250, 464, 742
2523, 741, 879, 667, 931
2524, 219, 406, 576, 714
2525, 669, 777, 803, 872
2526, 683, 803, 777, 872
2527, 240, 257, 869, 927
2528, 337, 580, 576, 893
2529, 698, 738, 794, 958
2530, 570, 530, 238, 912
2531, 777, 803, 683, 967
2532, 639, 636, 623, 784
2533, 94, 746, 591, 920
2534, 718, 809, 765, 848
2535, 611, 825, 609, 883
2536, 103, 104, 117, 834
2537, 203, 787, 204, 924
2538, 659, 899, 768, 959
2539, 404, 294, 266, 796
2540, 647, 795, 649, 923
2541, 702, 834, 723, 835
2542, 106, 484, 321, 878
2543, 106, 118, 102, 878
2544, 487, 372, 181, 949
2545, 189, 209, 127, 855
2546, 479, 98, 23, 839
2547, 109, 112, 758, 960
2548, 687, 876, 733, 926
2549, 766, 888, 719, 938
2550, 154, 156, 323, 792
2551, 366, 543, 497, 825
2552, 108, 755, 884, 960
2553, 674, 909, 884, 928
2554, 116, 818, 111, 963
2555, 712, 823, 641, 955
2556, 170, 880, 167, 901
2557, 110, 818, 780, 963
2558, 658, 888, 712, 930
2559, 280, 467, 396, 751
2560, 364, 366, 365, 728
2561, 386, 387, 284, 875
2562, 656, 761, 808, 931
2563, 269, 310, 311, 863
2564, 665, 721, 829, 877
2565, 667, 931, 721, 946
2566, 386, 875, 213, 922
2567, 271, 879, 741, 952
2568, 799, 844, 663, 890
2569, 210, 127, 209, 855
2570, 520, 645, 626, 791
2571, 212, 210, 211, 785
2572, 577, 585, 826, 896
2573, 663, 767, 842, 897
2574, 206, 762, 222, 921
2575, 517, 69, 624, 795
2576, 665, 829, 721, 946
2577, 202, 137, 135, 836
2578, 680, 728, 825, 883
2579, 252, 339, 535, 877
2580, 619, 603, 610, 841
2581, 750, 811, 691, 965
2582, 601, 600, 599, 915
2583, 642, 89, 621, 823
2584, 288, 399, 242, 971
2585, 268, 269, 251, 866
2586, 717, 822, 657, 965
2587, 272, 214, 877, 924
2588, 765, 809, 677, 848
2589, 77, 784, 509, 801
2590, 396, 397, 288, 827
2591, 664, 831, 730, 969
2592, 731, 804, 676, 822
2593, 371, 438, 373, 904
2594, 664, 800, 764, 969
2595, 409, 852, 163, 939
2596, 662, 806, 722, 903
2597, 260, 350, 348, 730
2598, 370, 804, 372, 949
2599, 108, 884, 112, 960
2600, 373, 437, 138, 904
2601, 435, 151, 147, 833
2602, 359, 482, 562, 773
2603, 230, 209, 189, 817
2604, 725, 855, 694, 953
2605, 681, 748, 805, 857
2606, 726, 847, 599, 970
2607, 23, 24, 479, 839
2608, 733, 681, 926, 962
2609, 558, 89, 507, 801
2610, 648, 623, 93, 784
2611, 613, 598, 588, 798
2612, 669, 886, 771, 901
2613, 766, 935, 571, 938
2614, 236, 843, 495, 928
2615, 509, 801, 784, 892
2616, 737, 790, 659, 972
2617, 699, 799, 734, 844
2618, 493, 117, 228, 750
2619, 606, 605, 786, 970
2620, 189, 127, 114, 855
2621, 470, 297, 299, 799
2622, 22, 575, 593, 825
2623, 421, 770, 344, 967
2624, 333, 564, 525, 760
2625, 617, 615, 588, 798
2626, 246, 416, 271, 879
2627, 411, 262, 480, 869
2628, 322, 776, 272, 877
2629, 770, 967, 421, 973
2630, 753, 685, 861, 943
2631, 253, 185, 151, 774
2632, 658, 749, 842, 897
2633, 299, 314, 326, 902
2634, 561, 801, 509, 892
2635, 624, 640, 650, 795
2636, 159, 423, 457, 925
2637, 671, 805, 748, 857
2638, 758, 906, 691, 909
2639, 657, 822, 764, 965
2640, 283, 263, 277, 850
2641, 884, 911, 674, 928
2642, 92, 795, 647, 923
2643, 109, 793, 31, 960
2644, 119, 280, 133, 835
2645, 667, 871, 761, 946
2646, 684, 824, 746, 851
2647, 128, 441, 468, 940
2648, 394, 392, 318, 838
2649, 773, 890, 482, 902
2650, 341, 315, 316, 819
2651, 671, 768, 857, 916
2652, 777, 880, 669, 954
2653, 694, 817, 725, 953
2654, 683, 950, 817, 953
2655, 337, 258, 293, 735
2656, 687, 876, 926, 937
2657, 359, 795, 92, 923
2658, 733, 850, 703, 876
2659, 668, 876, 769, 958
2660, 647, 620, 513, 923
2661, 817, 950, 725, 953
2662, 625, 712, 641, 955
2663, 108, 33, 81, 755
2664, 809, 922, 685, 968
2665, 514, 309, 275, 812
2666, 251, 208, 900, 940
2667, 271, 361, 276, 952
2668, 779, 848, 660, 943
2669, 681, 926, 778, 947
2670, 672, 789, 736, 891
2671, 78, 358, 546, 841
2672, 680, 825, 728, 839
2673, 639, 801, 651, 948
2674, 526, 770, 881, 950
2675, 283, 415, 414, 850
2676, 359, 312, 313, 773
2677, 515, 341, 559, 746
2678, 108, 33, 755, 960
2679, 604, 821, 618, 915
2680, 689, 860, 846, 937
2681, 129, 125, 439, 968
2682, 461, 272, 353, 757
2683, 746, 819, 678, 851
2684, 624, 69, 640, 795
2685, 283, 850, 277, 949
2686, 521, 328, 434, 812
2687, 541, 559, 819, 821
2688, 750, 834, 723, 868
2689, 277, 850, 772, 949
2690, 190, 183, 177, 966
2691, 322, 252, 535, 877
2692, 591, 94, 515, 746
2693, 673, 775, 929, 957
2694, 664, 730, 800, 969
2695, 322, 547, 352, 776
2696, 672, 736, 789, 885
2697, 544, 332, 756, 955
2698, 158, 160, 806, 925
2699, 73, 462, 783, 961
2700, 762, 929, 775, 957
2701, 678, 776, 757, 934
2702, 358, 310, 268, 863
2703, 704, 789, 736, 885
2704, 353, 757, 272, 934
2705, 295, 430, 485, 790
2706, 627, 651, 639, 801
2707, 253, 538, 577, 896
2708, 546, 464, 351, 824
2709, 420, 419, 349, 794
2710, 201, 805, 239, 927
2711, 355, 584, 354, 826
2712, 163, 852, 806, 939
2713, 326, 482, 890, 902
2714, 676, 822, 717, 965
2715, 363, 537, 555, 786
2716, 597, 786, 605, 970
2717, 740, 783, 667, 871
2718, 75, 588, 511, 798
2719, 324, 332, 558, 756
2720, 354, 577, 585, 826
2721, 469, 490, 88, 859
2722, 299, 470, 799, 890
2723, 664, 833, 774, 905
2724, 602, 883, 726, 970
2725, 507, 335, 558, 801
2726, 690, 832, 815, 914
2727, 536, 766, 571, 938
2728, 548, 309, 514, 812
2729, 98, 479, 497, 839
2730, 26, 783, 462, 961
2731, 806, 873, 722, 903
2732, 926, 937, 652, 947
2733, 305, 571, 536, 935
2734, 466, 817, 568, 950
2735, 266, 291, 290, 796
2736, 732, 796, 697, 959
2737, 285, 309, 434, 812
2738, 491, 362, 490, 859
2739, 320, 380, 379, 832
2740, 253, 577, 261, 956
2741, 726, 678, 851, 915
2742, 566, 567, 391, 737
2743, 349, 794, 412, 831
2744, 711, 846, 860, 937
2745, 114, 65, 449, 846
2746, 112, 375, 377, 884
2747, 421, 422, 770, 973
2748, 206, 220, 222, 762
2749, 794, 800, 675, 958
2750, 756, 823, 712, 955
2751, 361, 363, 79, 786
2752, 384, 775, 522, 957
2753, 767, 913, 679, 933
2754, 673, 929, 762, 957
2755, 513, 647, 56, 620
2756, 167, 901, 880, 954
2757, 251, 900, 866, 940
2758, 669, 901, 771, 954
2759, 536, 99, 545, 766
2760, 659, 768, 857, 959
2761, 687, 733, 810, 926
2762, 567, 566, 230, 817
2763, 624, 649, 647, 795
2764, 420, 349, 527, 794
2765, 439, 125, 126, 922
2766, 631, 749, 888, 944
2767, 716, 884, 755, 909
2768, 278, 371, 370, 804
2769, 675, 725, 881, 918
2770, 609, 825, 589, 883
2771, 724, 858, 679, 913
2772, 448, 262, 411, 869
2773, 485, 565, 295, 790
2774, 218, 237, 238, 745
2775, 226, 208, 174, 900
2776, 108, 374, 112, 884
2777, 67, 30, 29, 780
2778, 445, 119, 104, 834
2779, 112, 884, 758, 960
2780, 746, 851, 678, 915
2781, 641, 634, 635, 823
2782, 157, 873, 169, 973
2783, 768, 671, 907, 916
2784, 524, 525, 71, 775
2785, 306, 383, 241, 957
2786, 681, 838, 926, 947
2787, 880, 901, 669, 954
2788, 199, 830, 197, 853
2789, 748, 927, 869, 962
2790, 651, 801, 642, 823
2791, 551, 94, 351, 920
2792, 604, 746, 608, 821
2793, 327, 302, 405, 858
2794, 515, 608, 746, 821
2795, 714, 797, 870, 966
2796, 659, 778, 857, 872
2797, 384, 522, 383, 957
2798, 229, 530, 572, 816
2799, 674, 758, 884, 909
2800, 763, 936, 660, 942
2801, 704, 885, 736, 896
2802, 515, 559, 70, 821
2803, 185, 774, 253, 956
2804, 253, 151, 435, 774
2805, 681, 927, 748, 962
2806, 612, 590, 597, 786
2807, 602, 611, 883, 970
2808, 746, 824, 684, 920
2809, 339, 252, 829, 877
2810, 336, 335, 561, 828
2811, 739, 875, 700, 963
2812, 726, 883, 680, 970
2813, 270, 828, 336, 921
2814, 415, 487, 889, 949
2815, 691, 764, 868, 965
2816, 40, 502, 76, 865
2817, 772, 850, 733, 876
2818, 246, 416, 879, 895
2819, 182, 175, 177, 932
2820, 629, 791, 630, 944
2821, 653, 868, 764, 905
2822, 771, 803, 669, 954
2823, 659, 872, 737, 972
2824, 580, 219, 576, 893
2825, 612, 563, 79, 802
2826, 193, 787, 192, 966
2827, 465, 293, 862, 893
2828, 691, 909, 764, 965
2829, 652, 778, 926, 947
2830, 461, 353, 483, 757
2831, 73, 26, 462, 961
2832, 28, 447, 446, 807
2833, 244, 840, 243, 971
2834, 737, 872, 683, 972
2835, 291, 301, 503, 820
2836, 677, 875, 739, 922
2837, 130, 208, 441, 940
2838, 746, 824, 819, 851
2839, 101, 35, 34, 860
2840, 111, 818, 110, 963
2841, 35, 36, 65, 846
2842, 35, 85, 36, 860
2843, 669, 872, 768, 916
2844, 470, 481, 207, 890
2845, 340, 522, 523, 754
2846, 322, 776, 352, 934
2847, 422, 344, 421, 770
2848, 678, 819, 746, 821
2849, 422, 569, 770, 881
2850, 454, 497, 479, 839
2851, 549, 813, 357, 892
2852, 526, 770, 569, 881
2853, 283, 277, 487, 949
2854, 324, 325, 332, 756
2855, 815, 832, 713, 914
2856, 158, 159, 160, 925
2857, 608, 591, 515, 746
2858, 630, 629, 626, 791
2859, 74, 58, 520, 645
2860, 188, 372, 370, 804
2861, 711, 926, 838, 947
2862, 627, 639, 784, 801
2863, 709, 859, 741, 874
2864, 708, 858, 724, 913
2865, 251, 441, 208, 940
2866, 578, 395, 533, 829
2867, 721, 808, 776, 877
2868, 652, 876, 769, 937
2869, 250, 226, 273, 900
2870, 681, 805, 748, 927
2871, 170, 166, 167, 880
2872, 245, 307, 243, 840
2873, 683, 817, 737, 972
2874, 264, 499, 278, 772
2875, 112, 377, 478, 758
2876, 698, 873, 722, 973
2877, 561, 77, 509, 801
2878, 113, 114, 127, 855
2879, 225, 385, 195, 951
2880, 185, 774, 956, 964
2881, 448, 240, 262, 869
2882, 566, 568, 466, 817
2883, 681, 838, 810, 926
2884, 77, 508, 509, 784
2885, 156, 158, 413, 873
2886, 693, 898, 720, 908
2887, 654, 913, 767, 933
2888, 196, 195, 197, 830
2889, 124, 386, 213, 922
2890, 184, 173, 205, 771
2891, 669, 803, 777, 954
2892, 660, 780, 807, 818
2893, 513, 57, 74, 645
2894, 391, 737, 334, 917
2895, 109, 66, 31, 793
2896, 781, 662, 852, 939
2897, 124, 123, 121, 919
2898, 604, 601, 607, 915
2899, 222, 762, 241, 957
2900, 674, 764, 906, 909
2901, 262, 240, 257, 869
2902, 707, 882, 856, 893
2903, 553, 359, 92, 923
2904, 235, 288, 242, 971
2905, 536, 545, 587, 766
2906, 55, 517, 624, 647
2907, 222, 248, 921, 957
2908, 214, 203, 204, 924
2909, 541, 552, 516, 821
2910, 495, 843, 528, 928
2911, 658, 749, 888, 930
2912, 41, 40, 76, 865
2913, 706, 887, 816, 956
2914, 210, 401, 378, 785
2915, 59, 520, 626, 628
2916, 167, 171, 901, 954
2917, 733, 687, 810, 941
2918, 173, 187, 803, 954
2919, 455, 439, 440, 809
2920, 476, 270, 336, 921
2921, 673, 759, 828, 921
2922, 791, 923, 630, 944
2923, 665, 788, 757, 924
2924, 816, 887, 715, 956
2925, 540, 328, 560, 935
2926, 594, 586, 368, 910
2927, 856, 882, 714, 893
2928, 57, 513, 620, 645
2929, 347, 579, 531, 736
2930, 264, 499, 772, 941
2931, 668, 850, 792, 889
2932, 220, 241, 222, 762
2933, 703, 850, 792, 876
2934, 697, 849, 732, 959
2935, 605, 606, 611, 970
2936, 792, 850, 668, 876
2937, 643, 638, 637, 888
2938, 58, 520, 645, 626
2939, 360, 562, 482, 902
2940, 568, 345, 343, 950
2941, 334, 254, 390, 917
2942, 654, 767, 844, 933
2943, 472, 473, 475, 788
2944, 398, 135, 133, 835
2945, 193, 192, 191, 966
2946, 665, 757, 808, 877
2947, 108, 32, 33, 960
2948, 731, 668, 889, 949
2949, 520, 59, 519, 628
2950, 436, 167, 165, 880
2951, 244, 243, 242, 971
2952, 784, 801, 639, 948
2953, 347, 579, 736, 896
2954, 769, 918, 675, 958
2955, 115, 111, 116, 818
2956, 222, 248, 270, 921
2957, 699, 844, 734, 886
2958, 349, 412, 227, 831
2959, 422, 527, 569, 881
2960, 583, 625, 646, 955
2961, 110, 111, 83, 818
2962, 562, 360, 69, 795
2963, 191, 190, 231, 797
2964, 787, 788, 665, 924
2965, 753, 861, 705, 943
2966, 592, 617, 618, 821
2967, 294, 291, 266, 796
2968, 711, 838, 747, 947
2969, 100, 103, 484, 811
2970, 752, 916, 781, 939
2971, 688, 862, 735, 882
2972, 74, 791, 514, 923
2973, 251, 866, 381, 940
2974, 511, 588, 14, 615
2975, 499, 330, 329, 941
2976, 604, 591, 608, 746
2977, 627, 639, 648, 784
2978, 36, 449, 65, 846
2979, 222, 921, 762, 957
2980, 534, 308, 721, 952
2981, 232, 355, 354, 826
2982, 691, 793, 758, 960
2983, 334, 391, 567, 737
2984, 51, 93, 508, 648
2985, 670, 866, 742, 900
2986, 503, 504, 76, 820
2987, 488, 489, 289, 895
2988, 490, 416, 489, 895
2989, 470, 207, 443, 908
2990, 655, 870, 856, 882
2991, 142, 188, 140, 837
2992, 501, 38, 68, 849
2993, 234, 243, 862, 971
2994, 174, 131, 175, 932
2995, 727, 679, 933, 951
2996, 79, 363, 555, 786
2997, 696, 819, 824, 851
2998, 312, 249, 313, 864
2999, 616, 94, 591, 920
3000, 96, 491, 469, 859
3001, 308, 535, 339, 721
3002, 384, 86, 522, 775
3003, 520, 521, 548, 791
3004, 322, 352, 272, 934
3005, 374, 376, 375, 884
3006, 526, 881, 274, 950
3007, 421, 420, 422, 973
3008, 393, 810, 330, 941
3009, 346, 255, 436, 777
3010, 662, 752, 925, 939
3011, 344, 770, 526, 967
3012, 659, 947, 778, 972
3013, 515, 551, 341, 746
3014, 190, 797, 191, 966
3015, 735, 714, 882, 893
3016, 86, 384, 524, 775
3017, 770, 950, 526, 967
3018, 535, 542, 322, 776
3019, 527, 349, 348, 794
3020, 652, 903, 778, 953
3021, 711, 937, 926, 947
3022, 884, 909, 758, 960
3023, 454, 87, 453, 815
3024, 398, 133, 280, 835
3025, 487, 181, 889, 949
3026, 251, 381, 441, 940
3027, 170, 167, 171, 901
3028, 352, 798, 552, 934
3029, 173, 187, 389, 803
3030, 202, 135, 398, 836
3031, 255, 777, 346, 967
3032, 585, 347, 826, 896
3033, 534, 247, 308, 952
3034, 752, 662, 916, 939
3035, 675, 800, 769, 958
3036, 665, 877, 829, 924
3037, 359, 313, 482, 773
3038, 661, 848, 779, 870
3039, 430, 82, 485, 790
3040, 674, 906, 758, 909
3041, 748, 852, 662, 962
3042, 215, 829, 252, 877
3043, 152, 186, 227, 831
3044, 510, 94, 616, 920
3045, 666, 930, 823, 948
3046, 142, 141, 143, 837
3047, 281, 237, 403, 911
3048, 670, 900, 742, 945
3049, 618, 604, 608, 821
3050, 77, 50, 508, 648
3051, 202, 398, 235, 836
3052, 740, 827, 688, 971
3053, 264, 278, 277, 772
3054, 213, 237, 218, 875
3055, 712, 823, 756, 930
3056, 408, 409, 163, 939
3057, 776, 808, 757, 877
3058, 204, 203, 193, 787
3059, 281, 496, 495, 911
3060, 515, 70, 608, 821
3061, 507, 89, 642, 801
3062, 595, 78, 616, 920
3063, 215, 252, 214, 877
3064, 357, 549, 356, 813
3065, 674, 911, 745, 912
3066, 92, 647, 513, 923
3067, 64, 100, 484, 811
3068, 71, 564, 458, 760
3069, 609, 611, 593, 825
3070, 758, 909, 691, 960
3071, 460, 453, 87, 815
3072, 163, 806, 160, 939
3073, 667, 879, 741, 895
3074, 410, 163, 409, 852
3075, 201, 239, 240, 927
3076, 573, 816, 429, 956
3077, 240, 256, 257, 927
3078, 465, 533, 293, 893
3079, 199, 197, 200, 853
3080, 317, 802, 368, 910
3081, 856, 870, 714, 882
3082, 247, 879, 271, 952
3083, 358, 369, 310, 863
3084, 590, 605, 597, 786
3085, 613, 586, 16, 594
3086, 597, 605, 599, 970
3087, 606, 605, 590, 786
3088, 683, 950, 770, 967
3089, 781, 916, 662, 939
3090, 279, 411, 409, 852
3091, 60, 644, 519, 628
3092, 668, 850, 772, 876
3093, 745, 674, 906, 911
3094, 671, 857, 768, 959
3095, 756, 823, 666, 930
3096, 326, 482, 481, 890
3097, 186, 831, 152, 964
3098, 678, 821, 746, 915
3099, 66, 30, 31, 793
3100, 28, 446, 29, 807
3101, 495, 911, 496, 928
3102, 116, 111, 387, 963
3103, 405, 404, 200, 853
3104, 695, 899, 775, 929
3105, 725, 881, 770, 950
3106, 532, 347, 531, 814
3107, 666, 823, 801, 948
3108, 158, 160, 163, 806
3109, 440, 539, 486, 765
3110, 306, 525, 384, 775
3111, 784, 801, 666, 892
3112, 770, 881, 725, 918
3113, 558, 335, 324, 828
3114, 734, 699, 886, 901
3115, 652, 926, 876, 937
3116, 347, 532, 286, 814
3117, 810, 838, 711, 926
3118, 678, 798, 776, 934
3119, 413, 158, 163, 806
3120, 234, 243, 465, 862
3121, 332, 325, 340, 756
3122, 236, 528, 495, 843
3123, 393, 442, 330, 810
3124, 652, 778, 947, 953
3125, 300, 299, 298, 799
3126, 806, 925, 160, 939
3127, 753, 854, 705, 861
3128, 198, 197, 199, 830
3129, 75, 798, 547, 910
3130, 707, 829, 856, 946
3131, 447, 27, 73, 961
3132, 190, 232, 231, 797
3133, 310, 369, 364, 863
3134, 771, 886, 699, 901
3135, 382, 374, 81, 867
3136, 581, 2, 44, 625
3137, 691, 868, 750, 965
3138, 34, 107, 81, 867
3139, 526, 569, 274, 881
3140, 758, 906, 674, 911
3141, 80, 540, 560, 938
3142, 236, 212, 224, 843
3143, 589, 609, 614, 825
3144, 30, 110, 29, 780
3145, 74, 514, 513, 923
3146, 95, 456, 505, 845
3147, 181, 415, 487, 889
3148, 686, 923, 791, 944
3149, 357, 300, 425, 813
3150, 355, 539, 584, 765
3151, 61, 80, 644, 938
3152, 749, 842, 666, 930
3153, 335, 507, 561, 801
3154, 86, 523, 522, 754
3155, 722, 967, 770, 973
3156, 688, 836, 751, 936
3157, 50, 77, 627, 648
3158, 526, 422, 569, 770
3159, 755, 909, 884, 960
3160, 92, 647, 56, 513
3161, 552, 352, 91, 798
3162, 681, 857, 778, 962
3163, 665, 856, 829, 946
3164, 666, 828, 759, 892
3165, 487, 370, 372, 949
3166, 612, 79, 19, 555
3167, 51, 93, 648, 623
3168, 761, 914, 656, 945
3169, 210, 212, 401, 785
3170, 165, 166, 164, 880
3171, 412, 149, 152, 831
3172, 98, 497, 543, 825
3173, 471, 194, 179, 898
3174, 123, 468, 122, 919
3175, 157, 169, 423, 973
3176, 603, 601, 602, 883
3177, 773, 663, 890, 902
3178, 442, 393, 394, 810
3179, 550, 583, 646, 955
3180, 217, 239, 201, 805
3181, 658, 842, 767, 897
3182, 592, 608, 70, 821
3183, 655, 779, 870, 882
3184, 338, 474, 432, 891
3185, 526, 344, 422, 770
3186, 468, 441, 381, 940
3187, 22, 98, 575, 825
3188, 192, 193, 203, 787
3189, 637, 622, 629, 938
3190, 397, 447, 400, 827
3191, 666, 749, 930, 948
3192, 383, 522, 325, 957
3193, 245, 840, 246, 879
3194, 840, 879, 667, 895
3195, 117, 119, 132, 834
3196, 595, 841, 78, 920
3197, 850, 889, 668, 949
3198, 215, 339, 252, 829
3199, 521, 309, 548, 812
3200, 70, 516, 592, 821
3201, 662, 857, 748, 962
3202, 551, 515, 94, 746
3203, 224, 223, 259, 881
3204, 592, 13, 615, 516
3205, 173, 172, 187, 954
3206, 340, 544, 332, 756
3207, 55, 517, 647, 92
3208, 505, 305, 587, 845
3209, 635, 651, 642, 823
3210, 748, 857, 681, 962
3211, 598, 617, 588, 798
3212, 9, 616, 510, 94
3213, 298, 299, 297, 799
3214, 757, 877, 665, 924
3215, 267, 585, 347, 826
3216, 78, 510, 616, 920
3217, 93, 549, 508, 784
3218, 91, 511, 14, 615
3219, 658, 842, 749, 930
3220, 417, 393, 330, 941
3221, 346, 421, 344, 967
3222, 656, 914, 761, 931
3223, 616, 9, 591, 94
3224, 806, 852, 662, 939
3225, 230, 466, 209, 817
3226, 206, 222, 476, 921
3227, 147, 146, 145, 833
3228, 667, 761, 931, 946
3229, 676, 750, 868, 965
3230, 506, 536, 571, 938
3231, 676, 868, 764, 965
3232, 590, 612, 19, 555
3233, 244, 246, 245, 840
3234, 105, 394, 500, 838
3235, 75, 15, 588, 613
3236, 492, 387, 477, 963
3237, 261, 584, 573, 956
3238, 548, 514, 74, 791
3239, 644, 622, 61, 938
3240, 472, 221, 473, 788
3241, 43, 523, 42, 754
3242, 682, 847, 802, 910
3243, 319, 380, 320, 832
3244, 69, 517, 562, 795
3245, 703, 852, 869, 962
3246, 368, 596, 594, 802
3247, 662, 925, 806, 939
3248, 503, 301, 504, 820
3249, 180, 194, 195, 898
3250, 501, 39, 38, 849
3251, 345, 389, 187, 803
3252, 459, 451, 72, 854
3253, 432, 137, 258, 891
3254, 146, 424, 181, 889
3255, 395, 578, 215, 829
3256, 339, 534, 308, 721
3257, 755, 691, 909, 960
3258, 593, 575, 614, 825
3259, 428, 573, 429, 956
3260, 205, 389, 390, 917
3261, 247, 534, 245, 879
3262, 762, 921, 673, 957
3263, 452, 72, 451, 854
3264, 299, 326, 470, 890
3265, 309, 521, 434, 812
3266, 188, 370, 371, 804
3267, 524, 384, 525, 775
3268, 77, 49, 627, 801
3269, 657, 764, 909, 965
3270, 235, 242, 234, 971
3271, 275, 225, 864, 951
3272, 61, 506, 80, 938
3273, 778, 857, 662, 962
3274, 511, 352, 547, 798
3275, 74, 520, 548, 791
3276, 664, 764, 905, 969
3277, 109, 31, 32, 960
3278, 666, 801, 784, 948
3279, 648, 639, 623, 784
3280, 359, 562, 92, 795
3281, 624, 650, 649, 795
3282, 435, 147, 145, 833
3283, 356, 314, 300, 813
3284, 8, 78, 616, 595
3285, 223, 274, 569, 881
3286, 128, 123, 125, 968
3287, 511, 91, 352, 798
3288, 394, 318, 500, 838
3289, 238, 281, 282, 912
3290, 406, 286, 576, 814
3291, 542, 547, 776, 910
3292, 276, 247, 271, 952
3293, 569, 527, 259, 881
3294, 80, 60, 644, 519
3295, 236, 495, 402, 928
3296, 342, 541, 559, 819
3297, 544, 518, 332, 955
3298, 13, 91, 615, 516
3299, 152, 151, 185, 964
3300, 342, 341, 316, 819
3301, 351, 94, 510, 920
3302, 317, 367, 368, 802
3303, 343, 526, 950, 967
3304, 322, 272, 252, 877
3305, 583, 550, 97, 955
3306, 397, 400, 288, 827
3307, 524, 71, 40, 865
3308, 549, 509, 784, 892
3309, 101, 102, 85, 860
3310, 772, 850, 668, 949
3311, 157, 156, 155, 873
3312, 683, 953, 817, 972
3313, 622, 62, 506, 99
3314, 337, 293, 580, 893
3315, 367, 79, 563, 802
3316, 175, 176, 177, 932
3317, 185, 253, 261, 956
3318, 525, 564, 71, 760
3319, 217, 265, 239, 805
3320, 222, 241, 248, 957
3321, 506, 61, 622, 938
3322, 557, 610, 90, 841
3323, 304, 328, 540, 935
3324, 540, 571, 935, 938
3325, 369, 557, 90, 841
3326, 546, 351, 510, 920
3327, 616, 78, 8, 510
3328, 586, 16, 75, 613
3329, 402, 496, 375, 928
3330, 311, 310, 364, 863
3331, 213, 386, 284, 875
3332, 778, 662, 903, 962
3333, 539, 355, 486, 765
3334, 326, 360, 482, 902
3335, 509, 508, 549, 784
3336, 232, 354, 267, 826
3337, 614, 575, 543, 825
3338, 391, 390, 389, 917
3339, 719, 935, 766, 938
3340, 69, 54, 517, 624
3341, 683, 872, 778, 972
3342, 171, 184, 426, 901
3343, 581, 638, 2, 625
3344, 580, 395, 219, 893
3345, 115, 83, 111, 818
3346, 866, 900, 670, 940
3347, 464, 273, 351, 824
3348, 620, 649, 630, 923
3349, 207, 179, 168, 908
3350, 185, 956, 428, 964
3351, 121, 122, 120, 919
3352, 602, 611, 609, 883
3353, 947, 953, 778, 972
3354, 15, 75, 588, 511
3355, 249, 275, 225, 864
3356, 175, 131, 176, 932
3357, 233, 465, 293, 862
3358, 597, 596, 612, 802
3359, 247, 246, 271, 879
3360, 599, 598, 597, 847
3361, 778, 872, 659, 972
3362, 343, 344, 526, 967
3363, 75, 511, 547, 798
3364, 77, 507, 49, 801
3365, 162, 408, 160, 939
3366, 41, 524, 40, 865
3367, 603, 609, 589, 883
3368, 433, 327, 405, 858
3369, 694, 953, 947, 972
3370, 715, 956, 774, 964
3371, 368, 563, 596, 802
3372, 270, 324, 335, 828
3373, 592, 70, 12, 516
3374, 735, 882, 862, 893
3375, 246, 289, 416, 895
3376, 109, 108, 112, 960
3377, 592, 12, 70, 608
3378, 380, 381, 269, 866
3379, 748, 869, 852, 962
3380, 213, 284, 237, 875
3381, 631, 634, 637, 888
3382, 621, 46, 646, 955
3383, 547, 322, 542, 776
3384, 285, 433, 385, 951
3385, 694, 817, 953, 972
3386, 142, 140, 141, 837
3387, 46, 550, 646, 955
3388, 391, 334, 390, 917
3389, 129, 130, 128, 968
3390, 264, 417, 499, 941
3391, 644, 629, 622, 938
3392, 374, 375, 112, 884
3393, 620, 647, 649, 923
3394, 491, 490, 469, 859
3395, 598, 599, 600, 847
3396, 623, 52, 93, 512
3397, 198, 196, 197, 830
3398, 487, 277, 370, 949
3399, 562, 517, 92, 795
3400, 267, 354, 585, 826
3401, 595, 616, 607, 920
3402, 616, 591, 607, 920
3403, 156, 157, 158, 873
3404, 403, 377, 496, 911
3405, 707, 862, 882, 893
3406, 329, 118, 321, 878
3407, 412, 152, 227, 831
3408, 410, 409, 411, 852
3409, 408, 163, 160, 939
3410, 457, 161, 159, 925
3411, 540, 80, 571, 938
3412, 199, 200, 404, 853
3413, 256, 239, 392, 927
3414, 683, 778, 953, 972
3415, 117, 104, 119, 834
3416, 125, 124, 126, 922
3417, 208, 250, 251, 900
3418, 192, 183, 191, 966
3419, 270, 335, 336, 828
3420, 4, 556, 614, 543
3421, 635, 639, 651, 948
3422, 369, 358, 78, 841
3423, 477, 111, 110, 963
3424, 602, 605, 611, 970
3425, 336, 561, 509, 892
3426, 312, 275, 249, 864
3427, 272, 214, 252, 877
3428, 350, 528, 582, 843
3429, 351, 315, 551, 824
3430, 351, 273, 315, 824
3431, 382, 81, 107, 867
3432, 609, 593, 614, 825
3433, 594, 596, 597, 802
3434, 516, 559, 541, 821
3435, 431, 579, 538, 896
3436, 52, 623, 640, 512
3437, 576, 532, 337, 814
3438, 161, 160, 159, 925
3439, 637, 634, 643, 888
3440, 594, 368, 17, 596
3441, 124, 213, 126, 922
3442, 434, 327, 433, 858
3443, 641, 823, 621, 955
3444, 248, 383, 325, 957
3445, 172, 171, 167, 954
3446, 631, 629, 630, 944
3447, 438, 228, 437, 904
3448, 190, 191, 183, 966
3449, 47, 621, 89, 518
3450, 587, 95, 505, 845
3451, 338, 432, 258, 891
3452, 590, 20, 537, 555
3453, 352, 353, 272, 934
3454, 443, 207, 168, 908
3455, 78, 546, 510, 920
3456, 26, 27, 72, 961
3457, 180, 179, 194, 898
3458, 245, 243, 244, 840
3459, 46, 518, 550, 955
3460, 582, 528, 224, 843
3461, 621, 518, 46, 955
3462, 222, 270, 476, 921
3463, 275, 285, 225, 951
3464, 234, 242, 243, 971
3465, 317, 368, 586, 910
3466, 181, 424, 415, 889
3467, 5, 556, 90, 589
3468, 641, 635, 621, 823
3469, 586, 368, 16, 594
3470, 513, 514, 553, 923
3471, 251, 269, 381, 866
3472, 344, 343, 255, 967
3473, 165, 167, 166, 880
3474, 429, 572, 530, 816
3475, 247, 245, 246, 879
3476, 106, 321, 118, 878
3477, 54, 69, 640, 624
3478, 203, 461, 221, 924
3479, 563, 612, 18, 596
3480, 591, 10, 515, 94
3481, 632, 631, 630, 944
3482, 645, 630, 626, 791
3483, 625, 641, 646, 955
3484, 203, 214, 461, 924
3485, 170, 171, 426, 901
3486, 86, 42, 523, 754
3487, 99, 622, 62, 638
3488, 186, 185, 428, 964
3489, 357, 356, 300, 813
3490, 233, 234, 465, 862
3491, 101, 85, 35, 860
3492, 602, 599, 605, 970
3493, 561, 507, 77, 801
3494, 520, 58, 59, 626
3495, 4, 556, 589, 614
3496, 570, 529, 292, 912
3497, 326, 481, 470, 890
3498, 304, 540, 305, 935
3499, 438, 437, 373, 904
3500, 208, 226, 250, 900
3501, 56, 57, 513, 620
3502, 48, 642, 507, 89
3503, 344, 255, 346, 967
3504, 314, 554, 360, 902
3505, 642, 651, 627, 801
3506, 7, 78, 595, 841
3507, 538, 585, 577, 896
3508, 593, 22, 1, 575
3509, 70, 559, 516, 821
3510, 642, 621, 635, 823
3511, 537, 606, 20, 590
3512, 6, 90, 557, 610
3513, 566, 466, 230, 817
3514, 274, 466, 568, 950
3515, 608, 10, 515, 591
3516, 7, 557, 78, 841
3517, 63, 99, 638, 581
3518, 633, 636, 639, 948
3519, 646, 583, 45, 625
3520, 172, 173, 171, 954
3521, 578, 339, 215, 829
3522, 612, 18, 79, 563
3523, 289, 489, 416, 895
3524, 588, 14, 15, 511
3525, 583, 44, 2, 625
3526, 21, 574, 606, 537
3527, 121, 123, 122, 919
3528, 326, 314, 360, 902
3529, 549, 357, 509, 892
3530, 642, 47, 621, 89
3531, 223, 569, 259, 881
3532, 552, 541, 353, 934
3533, 402, 495, 496, 928
3534, 69, 53, 640, 512
3535, 427, 336, 509, 892
3536, 129, 128, 125, 968
3537, 241, 383, 248, 957
3538, 281, 403, 496, 911
3539, 169, 421, 423, 973
3540, 592, 618, 608, 821
3541, 342, 559, 341, 819
3542, 293, 533, 580, 893
3543, 308, 276, 317, 952
3544, 26, 73, 27, 961
3545, 417, 330, 499, 941
3546, 256, 240, 239, 927
3547, 639, 635, 633, 948
3548, 513, 553, 92, 923
3549, 185, 261, 428, 956
3550, 62, 63, 99, 638
3551, 109, 32, 108, 960
3552, 515, 70, 11, 608
3553, 600, 604, 618, 915
3554, 538, 579, 585, 896
3555, 610, 5, 90, 589
3556, 225, 285, 385, 951
3557, 17, 16, 368, 594
3558, 563, 17, 368, 596
3559, 604, 600, 601, 915
3560, 550, 583, 45, 646
3561, 427, 509, 357, 892
3562, 580, 533, 395, 893
3563, 550, 544, 97, 955
3564, 540, 571, 305, 935
3565, 387, 111, 477, 963
3566, 614, 593, 3, 575
3567, 606, 20, 21, 537
3568, 186, 152, 185, 964
3569, 528, 236, 224, 843
3570, 642, 49, 48, 507
3571, 421, 169, 420, 973
3572, 557, 369, 78, 841
3573, 602, 609, 603, 883
3574, 586, 75, 547, 910
3575, 57, 58, 74, 645
3576, 543, 575, 98, 825
3577, 508, 50, 51, 648
3578, 570, 238, 282, 912
3579, 595, 619, 610, 841
3580, 638, 2, 63, 581
3581, 53, 52, 640, 512
3582, 506, 571, 80, 938
3583, 642, 48, 47, 89
3584, 574, 1, 21, 606
3585, 11, 70, 12, 608
3586, 517, 54, 55, 624
3587, 90, 6, 5, 610
3588, 14, 13, 91, 615
3589, 317, 586, 542, 910
3590, 80, 60, 61, 644
3591, 519, 59, 60, 628
3592, 50, 77, 49, 627
3593, 568, 343, 526, 950
3594, 276, 308, 247, 952
3595, 543, 614, 3, 575
3596, 8, 9, 616, 510
3597, 347, 585, 579, 896
3598, 368, 367, 563, 802
3599, 646, 641, 621, 955
3600, 428, 261, 573, 956
3601, 576, 286, 532, 814
3602, 93, 51, 52, 623
3603, 274, 568, 526, 950
3604, 647, 56, 55, 92
3605, 621, 47, 46, 518
3606, 515, 11, 10, 608
3607, 9, 10, 591, 94
3608, 614, 3, 4, 543
3609, 18, 79, 19, 612
3610, 69, 53, 54, 640
3611, 557, 7, 6, 610
3612, 78, 8, 7, 595
3613, 570, 282, 529, 912
3614, 506, 61, 62, 622
3615, 12, 13, 592, 516
3616, 583, 2, 45, 625
3617, 593, 1, 3, 575
3618, 563, 18, 17, 596
3619, 353, 352, 552, 934
3620, 544, 550, 518, 955
3621, 15, 75, 16, 613
3622, 556, 5, 4, 589
3623, 550, 45, 46, 646
3624, 542, 586, 547, 910
3625, 19, 20, 590, 555
3626, 96, 786, 574, 537
3627, 574, 786, 96, 680
3628, 894, 788, 696, 665
3629, 894, 696, 788, 782
3630, 704, 676, 731, 837
3631, 704, 731, 676, 905
3632, 795, 944, 749, 632
3633, 749, 944, 795, 686
3634, 906, 868, 702, 691
3635, 906, 702, 868, 653
3636, 836, 396, 827, 751
3637, 836, 827, 396, 235
3638, 376, 785, 867, 378
3639, 867, 785, 376, 716
3640, 863, 945, 851, 656
3641, 851, 945, 863, 742
3642, 851, 684, 863, 656
3643, 863, 684, 851, 742
3644, 188, 904, 371, 373
3645, 371, 904, 188, 804
3646, 864, 897, 663, 773
3647, 663, 897, 864, 679
3648, 663, 720, 864, 773
3649, 794, 153, 698, 419
3650, 794, 698, 153, 738
3651, 155, 698, 153, 419
3652, 155, 153, 698, 738
3653, 820, 331, 502, 503
3654, 820, 502, 331, 697
3655, 827, 936, 705, 688
3656, 705, 936, 827, 807
3657, 918, 722, 953, 770
3658, 918, 953, 722, 903
3659, 512, 784, 356, 93
3660, 356, 784, 512, 710
3661, 824, 316, 287, 315
3662, 824, 287, 316, 696
3663, 804, 498, 438, 717
3664, 804, 438, 498, 371
3665, 973, 155, 419, 698
3666, 973, 419, 155, 169
3667, 838, 68, 450, 747
3668, 838, 450, 68, 500
3669, 880, 693, 908, 752
3670, 880, 908, 693, 734
3671, 628, 520, 791, 519
3672, 628, 791, 520, 626
3673, 966, 718, 177, 797
3674, 966, 177, 718, 932
3675, 944, 658, 888, 719
3676, 944, 888, 658, 749
3677, 944, 649, 795, 923
3678, 944, 795, 649, 632
3679, 942, 963, 739, 700
3680, 739, 963, 942, 660
3681, 928, 730, 716, 843
3682, 928, 716, 730, 674
3683, 818, 28, 29, 807
3684, 818, 29, 28, 83
3685, 868, 885, 702, 723
3686, 702, 885, 868, 653
3687, 958, 652, 698, 876
3688, 958, 698, 652, 918
3689, 973, 794, 419, 420
3690, 973, 419, 794, 698
3691, 837, 139, 138, 140
3692, 837, 138, 139, 789
3693, 220, 771, 206, 205
3694, 206, 771, 220, 762
3695, 582, 881, 224, 259
3696, 224, 881, 582, 843
3697, 835, 132, 134, 133
3698, 835, 134, 132, 723
3699, 811, 878, 493, 321
3700, 811, 493, 878, 717
3701, 494, 493, 878, 321
3702, 494, 878, 493, 717
3703, 751, 942, 780, 660
3704, 780, 942, 751, 702
3705, 887, 885, 905, 706
3706, 887, 905, 885, 653
3707, 866, 311, 863, 269
3708, 866, 863, 311, 713
3709, 961, 459, 72, 854
3710, 961, 72, 459, 27
3711, 932, 463, 174, 782
3712, 932, 174, 463, 175
3713, 890, 313, 482, 481
3714, 890, 482, 313, 773
3715, 965, 755, 691, 909
3716, 965, 691, 755, 811
3717, 966, 718, 870, 701
3718, 966, 870, 718, 797
3719, 844, 908, 799, 734
3720, 799, 908, 844, 720
3721, 118, 941, 329, 330
3722, 329, 941, 118, 878
3723, 951, 194, 195, 225
3724, 951, 195, 194, 898
3725, 890, 471, 207, 720
3726, 890, 207, 471, 481
3727, 356, 902, 710, 554
3728, 710, 902, 356, 813
3729, 826, 286, 231, 814
3730, 826, 231, 286, 267
3731, 736, 338, 474, 531
3732, 736, 474, 338, 891
3733, 955, 89, 332, 823
3734, 955, 332, 89, 518
3735, 924, 483, 788, 757
3736, 924, 788, 483, 221
3737, 615, 516, 821, 592
3738, 821, 516, 615, 91
3739, 858, 304, 328, 327
3740, 858, 328, 304, 724
3741, 970, 802, 682, 847
3742, 970, 682, 802, 786
3743, 434, 951, 433, 285
3744, 433, 951, 434, 858
3745, 935, 303, 845, 305
3746, 935, 845, 303, 724
3747, 894, 871, 946, 761
3748, 894, 946, 871, 655
3749, 818, 29, 110, 780
3750, 818, 110, 29, 83
3751, 816, 440, 539, 572
3752, 816, 539, 440, 765
3753, 920, 619, 684, 607
3754, 920, 684, 619, 841
3755, 925, 158, 873, 806
3756, 925, 873, 158, 159
3757, 531, 814, 338, 532
3758, 338, 814, 531, 736
3759, 805, 959, 796, 732
3760, 796, 959, 805, 671
3761, 594, 847, 597, 598
3762, 597, 847, 594, 802
3763, 835, 936, 836, 672
3764, 836, 936, 835, 751
3765, 922, 439, 229, 126
3766, 922, 229, 439, 809
3767, 957, 384, 306, 383
3768, 957, 306, 384, 775
3769, 949, 283, 415, 487
3770, 949, 415, 283, 850
3771, 924, 272, 757, 877
3772, 924, 757, 272, 461
3773, 893, 465, 707, 862
3774, 893, 707, 465, 533
3775, 933, 864, 663, 720
3776, 933, 663, 864, 679
3777, 606, 22, 1, 593
3778, 606, 1, 22, 574
3779, 625, 581, 712, 44
3780, 625, 712, 581, 638
3781, 612, 555, 786, 79
3782, 786, 555, 612, 590
3783, 962, 927, 733, 681
3784, 962, 733, 927, 869
3785, 923, 645, 630, 620
3786, 923, 630, 645, 791
3787, 801, 49, 642, 507
3788, 801, 642, 49, 627
3789, 841, 7, 610, 595
3790, 841, 610, 7, 557
3791, 429, 539, 816, 573
3792, 429, 816, 539, 572

*NSET, NSET=CONSTRAINT_1
1, 3, 4, 5, 6, 7, 8, 9, 10, 11, 12, 13, 14, 15, 16, 17
18, 19, 20, 21, 588, 589, 590, 591, 592, 593, 594, 595, 596, 597, 598, 599
600, 601, 602, 603, 604, 605, 606, 607, 608, 609, 610, 611, 612, 613, 614, 615
616, 617, 618, 619

*NSET, NSET=DLOAD_2
6, 7, 8, 48, 49, 50, 77, 78, 123, 124, 125, 126, 128, 129, 130, 173
184, 187, 205, 206, 208, 211, 212, 213, 216, 218, 220, 222, 223, 224, 229, 236
237, 238, 241, 248, 250, 251, 254, 259, 268, 269, 270, 274, 281, 282, 310, 324
334, 335, 336, 343, 345, 350, 358, 369, 381, 389, 390, 391, 427, 439, 441, 464
466, 468, 476, 495, 507, 509, 526, 528, 529, 530, 546, 557, 558, 561, 566, 568
569, 570, 582

*MATERIAL, NAME=STRUCTURAL_STEEL
*ELASTIC
200000.000000, 0.300000

*SOLID SECTION, ELSET=ALL_ELEMENTS, MATERIAL=STRUCTURAL_STEEL

*BOUNDARY
CONSTRAINT_1, 1, 3

*STEP, NLGEOM=NO
*STATIC
0.1, 1.0

*CLOAD
DLOAD_2, 2, -4000.000000

*DLOAD
ALL_ELEMENTS, GRAV, 9810, 0, 0, -1

*NODE FILE
U, RF
*EL FILE
S, E

*END STEP
