*HEADING
Cylindrical structure fixed at bottom with lateral force applied at the top.

*NODE, NSET=ALL_NODES
1, 33.333302, 0.000000, 0.000000
2, 33.333302, 0.000000, 100.000000
3, 32.434795, 7.687188, 0.000000
4, 29.787725, 14.959958, 0.000000
5, 25.534790, 21.426231, 0.000000
6, 19.905266, 26.737413, 0.000000
7, 13.202645, 30.607172, 0.000000
8, 5.788267, 32.826893, 0.000000
9, -1.938159, 33.276905, 0.000000
10, -9.560099, 31.932951, 0.000000
11, -16.666651, 28.867485, 0.000000
12, -22.874699, 24.245764, 0.000000
13, -27.849566, 18.316948, 0.000000
14, -31.323055, 11.400661, 0.000000
15, -33.107914, 3.869760, 0.000000
16, -33.107914, -3.869760, 0.000000
17, -31.323055, -11.400661, 0.000000
18, -27.849566, -18.316948, 0.000000
19, -22.874699, -24.245764, 0.000000
20, -16.666651, -28.867485, 0.000000
21, -9.560099, -31.932951, 0.000000
22, -1.938159, -33.276905, 0.000000
23, 5.788267, -32.826893, 0.000000
24, 13.202645, -30.607172, 0.000000
25, 19.905266, -26.737413, 0.000000
26, 25.534790, -21.426231, 0.000000
27, 29.787725, -14.959958, 0.000000
28, 32.434795, -7.687188, 0.000000
29, 33.333302, 0.000000, 7.692307
30, 33.333302, 0.000000, 15.384615
31, 33.333302, 0.000000, 23.076923
32, 33.333302, 0.000000, 30.769230
33, 33.333302, 0.000000, 38.461540
34, 33.333302, 0.000000, 46.153847
35, 33.333302, 0.000000, 53.846153
36, 33.333302, 0.000000, 61.538460
37, 33.333302, 0.000000, 69.230766
38, 33.333302, 0.000000, 76.923080
39, 33.333302, 0.000000, 84.615387
40, 33.333302, 0.000000, 92.307693
41, 32.434795, 7.687188, 100.000000
42, 29.787725, 14.959958, 100.000000
43, 25.534790, 21.426231, 100.000000
44, 19.905266, 26.737413, 100.000000
45, 13.202645, 30.607172, 100.000000
46, 5.788267, 32.826893, 100.000000
47, -1.938159, 33.276905, 100.000000
48, -9.560099, 31.932951, 100.000000
49, -16.666651, 28.867485, 100.000000
50, -22.874699, 24.245764, 100.000000
51, -27.849566, 18.316948, 100.000000
52, -31.323055, 11.400661, 100.000000
53, -33.107914, 3.869760, 100.000000
54, -33.107914, -3.869760, 100.000000
55, -31.323055, -11.400661, 100.000000
56, -27.849566, -18.316948, 100.000000
57, -22.874699, -24.245764, 100.000000
58, -16.666651, -28.867485, 100.000000
59, -9.560099, -31.932951, 100.000000
60, -1.938159, -33.276905, 100.000000
61, 5.788267, -32.826893, 100.000000
62, 13.202645, -30.607172, 100.000000
63, 19.905266, -26.737413, 100.000000
64, 25.534790, -21.426231, 100.000000
65, 29.787725, -14.959958, 100.000000
66, 32.434795, -7.687188, 100.000000
67, 32.834396, -5.745555, 49.985672
68, 32.667618, 6.628391, 50.000000
69, -13.438358, -30.504416, 93.265198
70, -5.788267, 32.826893, 6.698830
71, -29.787725, 14.959958, 6.698830
72, -29.787725, -14.959958, 6.698830
73, -19.894157, 26.745680, 93.432259
74, -33.333302, -0.000000, 93.301170
75, -5.878461, -32.810860, 6.680124
76, 9.560099, -31.932951, 93.301170
77, 9.560099, 31.932951, 93.301170
78, 16.666651, -28.867485, 6.698830
79, 16.666651, 28.867485, 6.698830
80, 32.667191, 6.630497, 73.076187
81, 32.751827, -6.198933, 73.118500
82, 32.752411, -6.195837, 26.876738
83, 32.667618, 6.628391, 26.923077
84, 22.874699, 24.245764, 93.301170
85, -5.767557, 32.830536, 93.318123
86, 22.874699, -24.245764, 93.301170
87, -19.905266, -26.737413, 6.698830
88, -29.787725, -14.959958, 93.301170
89, -29.796093, 14.943283, 93.317207
90, -19.894142, 26.745691, 6.566697
91, -33.333302, -0.000000, 6.698830
92, 27.849566, -18.316948, 6.698830
93, 27.849566, 18.316948, 6.698830
94, 32.667618, -6.628391, 88.461540
95, 32.667618, 6.628391, 88.461540
96, 32.667618, 6.628391, 11.538462
97, 32.870449, -5.535564, 11.536836
98, 32.667274, 6.630092, 65.384163
99, 30.694727, 12.997793, 69.229828
100, 30.695410, 12.996179, 61.532108
101, 27.491386, 18.850267, 65.379211
102, 27.493351, 18.847401, 57.672775
103, 23.183426, 23.950733, 61.524532
104, 23.183832, 23.950340, 53.812565
105, 17.939842, 28.093967, 57.668125
106, 17.941057, 28.093191, 49.950150
107, 11.972177, 31.109097, 53.807289
108, 11.973495, 31.108589, 46.084908
109, 5.518997, 32.873234, 49.945095
110, 5.519974, 32.873070, 57.666637
111, -1.155094, 33.313282, 53.802990
112, -1.156849, 33.313221, 46.079628
113, -7.791708, 32.409847, 49.942257
114, -7.780915, 32.412441, 57.667320
115, -14.111632, 30.198853, 53.806576
116, -14.108454, 30.200338, 46.076515
117, -19.862524, 26.769180, 49.940247
118, -19.853453, 26.775909, 57.668079
119, -24.813089, 22.258020, 53.805920
120, -24.810534, 22.260870, 46.073673
121, -28.761944, 16.848129, 49.938412
122, -28.756123, 16.858063, 57.668167
123, -31.550060, 10.756513, 53.805115
124, -31.548698, 10.760508, 46.071255
125, -33.063736, 4.230630, 49.936653
126, -33.062260, 4.242143, 57.667885
127, -33.241848, -2.467495, 53.804039
128, -33.242325, -2.461045, 46.068779
129, -32.077515, -9.063220, 49.934509
130, -32.077740, -9.062423, 57.667469
131, -29.615637, -15.297808, 53.797520
132, -29.615932, -15.297235, 46.065521
133, -25.958376, -20.911041, 49.933270
134, -25.948112, -20.923775, 57.662399
135, -21.248268, -25.683069, 53.794739
136, -21.252937, -25.679205, 46.067276
137, -15.690828, -29.409298, 49.933266
138, -15.677238, -29.416544, 57.659145
139, -9.492075, -31.953238, 53.793007
140, -9.498509, -31.951326, 46.069759
141, -2.923627, -33.204838, 49.932182
142, -2.925047, -33.204712, 42.206020
143, -2.910430, -33.205997, 57.655457
144, 3.765516, -33.119930, 46.068092
145, 3.764576, -33.120037, 38.343784
146, 10.301879, -31.701422, 42.204334
147, 10.302838, -31.701111, 49.926933
148, 17.945183, 28.090555, 42.226223
149, 17.942001, 28.092588, 65.381279
150, -2.912507, -33.205814, 34.479683
151, 10.300922, -31.701733, 34.481167
152, 16.421892, -29.007420, 38.341267
153, 11.977082, 31.107208, 38.361263
154, 17.947941, 28.088795, 34.503281
155, 11.980201, 31.106007, 30.636679
156, 16.421049, -29.007896, 30.621113
157, 10.267777, -31.712484, 26.703346
158, 23.191414, 23.942999, 38.368267
159, 21.878412, -25.148439, 34.479198
160, 21.879410, -25.147570, 42.195713
161, 23.194077, 23.940418, 30.647568
162, 21.878410, -25.148441, 26.761251
163, 27.519215, 18.809618, 73.165543
164, 26.454088, -20.280287, 38.336544
165, 26.455406, -20.278568, 46.048805
166, 27.494781, 18.845314, 49.959290
167, 5.524818, 32.872257, 34.496349
168, 5.527937, 32.871731, 26.767002
169, -1.153675, 33.313328, 30.628832
170, 11.987951, 31.103022, 22.908363
171, -1.146260, 33.313587, 22.895914
172, -7.786182, 32.411175, 26.758898
173, 27.503481, 18.832615, 34.509445
174, 21.881441, -25.145803, 49.906673
175, 26.456518, -20.277117, 53.759369
176, 21.886339, -25.141541, 57.617477
177, 26.459236, -20.273573, 61.470509
178, 21.888441, -25.139711, 65.328796
179, 26.461836, -20.270180, 69.183472
180, 21.888775, -25.139420, 73.044762
181, 16.432320, -29.001513, 69.188385
182, 26.465811, -20.264988, 76.899506
183, 16.433567, -29.000805, 76.908646
184, 10.311901, -31.698164, 73.049660
185, 10.317053, -31.696487, 65.330757
186, 3.774674, -33.118889, 69.191612
187, 3.774122, -33.118950, 76.915924
188, -2.916391, -33.205475, 73.056107
189, -2.918482, -33.205292, 80.783440
190, -9.495341, -31.952267, 76.918320
191, 27.504776, 18.830727, 26.793636
192, 23.197708, 23.936901, 22.930256
193, -7.788486, 32.410622, 34.493057
194, -14.109852, 30.199684, 30.624067
195, -14.111620, 30.198858, 22.890236
196, -19.863298, 26.768606, 26.756886
197, -19.862768, 26.768999, 34.490021
198, -24.815491, 22.255342, 30.621740
199, -24.812080, 22.259146, 22.885868
200, -28.763618, 16.845270, 26.751148
201, -28.763540, 16.845404, 34.487350
202, -31.552204, 10.750222, 30.618755
203, -31.660545, 10.426827, 22.952322
204, -33.082348, 4.082538, 26.851219
205, -33.065739, 4.214945, 34.494453
206, -33.238651, -2.510154, 30.632408
207, -33.240047, -2.491616, 22.941402
208, -32.072659, -9.080386, 26.746983
209, -32.074718, -9.073114, 19.007986
210, -29.610634, -15.307491, 22.875202
211, -29.608406, -15.311797, 30.611517
212, -25.949690, -20.921820, 26.741869
213, -25.951803, -20.919197, 19.005507
214, -21.243650, -25.686888, 22.872742
215, -21.242353, -25.687960, 30.608515
216, -15.671240, -29.419741, 26.739496
217, -15.736606, -29.384829, 19.114067
218, -9.513722, -31.946798, 22.868492
219, -15.688464, -29.410559, 34.470657
220, -9.488954, -31.954165, 69.190140
221, -15.686925, -29.411381, 73.056671
222, -15.744498, -29.380600, 80.685677
223, -21.256182, -25.676519, 76.919518
224, -21.255962, -25.676701, 84.655724
225, -25.961727, -20.906879, 80.787865
226, -25.958191, -20.911270, 73.055870
227, -29.617096, -15.294982, 76.919304
228, -29.615938, -15.297223, 69.186958
229, -32.078285, -9.060493, 73.055992
230, -32.078308, -9.060410, 80.788803
231, -33.242340, -2.460858, 76.919952
232, -33.243664, -2.442880, 69.189201
233, -33.061813, 4.245624, 73.057884
234, -33.062649, 4.239114, 80.788605
235, -31.524708, 10.830592, 77.117317
236, -31.535894, 10.797972, 69.211205
237, -28.755894, 16.858454, 73.050560
238, -28.684811, 16.979118, 80.778603
239, -24.772287, 22.303421, 76.906487
240, -24.790812, 22.282831, 69.187973
241, -19.848646, 26.779472, 73.050056
242, -19.763151, 26.842628, 80.648033
243, -14.091999, 30.208019, 76.901787
244, -14.074758, 30.216057, 69.189987
245, -7.764566, 32.416359, 73.055389
246, -7.919738, 32.378799, 80.766762
247, -1.271897, 33.309025, 77.126778
248, -1.135418, 33.313957, 69.214622
249, 5.546196, 32.868656, 73.079170
250, 5.551261, 32.867802, 80.777946
251, 12.001166, 31.097923, 76.915268
252, 27.471928, 18.878616, 19.227894
253, 29.619522, -15.290284, 41.974411
254, 29.623846, -15.281905, 65.105064
255, 23.156826, 23.976452, 15.385348
256, 29.594593, -15.338481, 34.680565
257, 5.073322, -32.944958, 85.605644
258, -2.164505, -33.262951, 87.925293
259, 11.591160, 31.253063, 84.707527
260, 17.837158, 28.159273, 80.823868
261, -9.647407, -31.906683, 14.316526
262, -3.034824, -33.194859, 19.024338
263, -33.291744, -1.663951, 15.062651
264, -25.961601, -20.907036, 88.525101
265, 32.273109, -8.339985, 38.337845
266, -20.440596, -26.330420, 92.518158
267, 16.813698, 28.782085, 88.631943
268, 22.977661, 24.148209, 84.853622
269, 27.542864, 18.774973, 89.325264
270, 27.403988, 18.977102, 81.507500
271, 27.501537, 18.835453, 42.223907
272, 30.701117, 12.982693, 38.382820
273, 23.185122, 23.949093, 46.094902
274, -2.941680, -33.203243, 26.736473
275, -32.433388, -7.693126, 11.217060
276, -32.889580, 5.420737, 12.747967
277, 16.422861, -29.006870, 46.061626
278, 29.590899, -15.345606, 57.807278
279, 32.275150, -8.332075, 61.462372
280, 29.551348, -15.421633, 49.905277
281, 26.385809, -20.369043, 30.596928
282, 26.447294, -20.289148, 22.899920
283, 21.873819, -25.152433, 19.039835
284, 26.617962, -20.064720, 15.162992
285, 29.970570, -14.590197, 19.043095
286, 22.731075, -24.380466, 11.210518
287, 16.644785, -28.880098, 14.991399
288, 9.419902, -31.974588, 10.710468
289, 9.942362, -31.816008, 18.474991
290, 3.649202, -33.132946, 14.158568
291, 29.772387, -14.990458, 26.785694
292, 3.791940, -33.116917, 53.790707
293, 29.775717, -14.983844, 73.027336
294, 29.787796, -14.959816, 80.746338
295, 25.680674, -21.251162, 85.618034
296, 29.983219, -14.564183, 88.462486
297, 21.646753, -25.348116, 80.675476
298, 16.435041, -28.999971, 84.632172
299, -29.612160, -15.304537, 15.137675
300, -25.623348, -21.320246, 11.156757
301, -29.635324, -15.259634, 84.748367
302, -32.355042, -8.016242, 88.687325
303, -33.268944, -2.070312, 84.642120
304, -15.689687, -29.409906, 42.205856
305, -21.245348, -25.685484, 15.136288
306, 10.625045, -31.594578, 80.677002
307, 17.950993, 28.086843, 26.780579
308, 32.667614, 6.628410, 57.693439
309, 32.667618, 6.628391, 42.307693
310, -9.489917, -31.953878, 38.340004
311, -9.762767, -31.871574, 85.611526
312, 32.791798, -5.983891, 19.228920
313, 32.667618, 6.628391, 19.230770
314, 3.765872, -33.119888, 30.623066
315, 5.521816, 32.872761, 42.222061
316, -21.246168, -25.684805, 38.340553
317, -25.955326, -20.914827, 42.200829
318, 11.975270, 31.107906, 61.517895
319, 16.420671, -29.008110, 22.823141
320, 23.181227, 23.952862, 69.233978
321, -1.156759, 33.313221, 38.353191
322, 32.667618, 6.628391, 80.769234
323, 32.667896, -6.627023, 80.771637
324, 16.435890, -28.999491, 61.480095
325, -25.950382, -20.920959, 34.473675
326, -7.787627, 32.410828, 42.219978
327, 16.435783, -28.999550, 53.772209
328, -14.108830, 30.200163, 38.349346
329, -19.858406, 26.772236, 42.217587
330, -24.811316, 22.259996, 38.346367
331, 18.044384, 28.026934, 19.208776
332, 13.072828, 30.662846, 14.265663
333, 5.714285, 32.839851, 18.882507
334, 5.839993, 32.817730, 11.595968
335, -1.895085, 33.279385, 14.244182
336, -7.781500, 32.412300, 19.010698
337, -14.086238, 30.210707, 15.330098
338, -19.743929, 26.856770, 19.180334
339, -24.807713, 22.264013, 15.149228
340, -28.779932, 16.817385, 19.092400
341, -28.759211, 16.852797, 42.215309
342, -29.612190, -15.304478, 38.340954
343, -32.075985, -9.068629, 42.199512
344, 30.697706, 12.990755, 76.920670
345, -31.551270, 10.752969, 38.343262
346, -33.063187, 4.234938, 42.213524
347, -32.073872, -9.076097, 34.475216
348, -33.241421, -2.473240, 38.344257
349, -9.515536, -31.946259, 30.596159
350, 30.695465, 12.996048, 53.845436
351, 30.696079, 12.994600, 46.153847
352, 10.327004, -31.693247, 57.624840
353, 17.932880, 28.098410, 73.079193
354, 3.780849, -33.118183, 61.490597
355, 11.987239, 31.103296, 69.216606
356, -2.913044, -33.205769, 65.355988
357, -9.479422, -31.956993, 61.490574
358, -15.686697, -29.411501, 65.357651
359, -21.248100, -25.683207, 69.193214
360, 5.531091, 32.871201, 65.361862
361, -21.236429, -25.692860, 61.492615
362, 1.938159, -33.276905, 6.648382
363, -1.145308, 33.313618, 61.497681
364, 23.098328, 24.032814, 76.943771
365, -7.765522, 32.416130, 65.361046
366, -14.091983, 30.208027, 61.496170
367, -25.951853, -20.919136, 65.359924
368, -19.825727, 26.796444, 65.363724
369, -24.794718, 22.278484, 61.491447
370, 22.894793, 24.226791, 6.837709
371, -29.626577, -15.276610, 61.497501
372, -28.741077, 16.883701, 65.364120
373, 16.652199, -28.875822, 93.160080
374, -31.542522, 10.778601, 61.499760
375, -32.082157, -9.046770, 65.362175
376, -33.058891, 4.268328, 65.364174
377, -33.243462, -2.445624, 61.493134
378, 1.937184, 33.276962, 93.301727
379, -1.847272, 33.282074, 86.697350
380, -13.201749, 30.607559, 93.301727
381, -13.202645, 30.607172, 6.698830
382, -25.534790, 21.426231, 93.301170
383, -25.534790, 21.426231, 6.698830
384, -32.434795, 7.687188, 93.301170
385, -31.346170, 11.336955, 86.703300
386, -13.202645, -30.607172, 6.698830
387, 3.772082, -33.119183, 22.909769
388, 32.668625, 6.623436, 34.611145
389, 30.699078, 12.987512, 30.699858
390, 30.683800, 13.023570, 23.033310
391, 30.150896, 14.213808, 14.402468
392, -14.052868, 30.226244, 84.517189
393, -24.802748, 22.269545, 84.656494
394, 31.190407, 11.758718, 6.481017
395, 31.190407, -11.758718, 6.481017
396, 30.709501, 12.962849, 85.904694
397, 31.100241, 11.995163, 93.330276
398, 2.372382, -33.248768, 93.549416
399, -32.434795, 7.687188, 6.060687
400, 27.514700, -18.816221, 93.644287
401, -33.006123, 4.658845, 19.638651
402, 10.280287, 31.708431, 6.268108
403, -31.330645, 11.379788, 16.089643
404, 5.787385, 32.827049, 87.642624
405, -33.107914, 3.869760, 87.644951
406, 1.028203, 33.317440, 6.178562
407, 31.323055, -11.400661, 94.375702
408, 29.452856, -15.608913, 13.010221
409, -15.783731, -29.359543, 87.113831
410, -5.951599, -32.797672, 93.795807
411, -15.854861, -29.321192, 12.660342
412, -28.404390, 17.444181, 87.347977
413, -8.441844, 32.246616, 87.316704
414, -2.718295, -33.222279, 12.601605
415, -28.633120, 17.066147, 12.521316
416, -8.130052, 32.326633, 12.773690
417, 16.666651, 28.867485, 94.807716
418, 21.413370, -25.545576, 87.062889
419, -32.434795, -7.687188, 94.836159
420, 18.380655, 27.807560, 12.878761
421, -25.534790, -21.426231, 94.903313
422, 10.974865, -31.474771, 87.006317
423, 22.874699, -24.245764, 5.070529
424, -32.434795, -7.687188, 5.053103
425, -19.772810, 26.835514, 87.307945
426, -25.534790, -21.426231, 4.980539
427, 27.018906, 19.521467, 12.832121
428, -19.792355, 26.821104, 12.601669
429, 32.874180, -5.513354, 44.009716
430, 32.875076, -5.508016, 67.110947
431, 32.885548, -5.445138, 55.901745
432, 32.884689, -5.450319, 32.805767
433, 9.560099, -31.932951, 4.685976
434, 27.849566, 18.316948, 95.348167
435, 32.856789, -5.616074, 5.623504
436, 32.856789, 5.616074, 5.623504
437, 32.856789, 5.616074, 94.376495
438, 32.859901, -5.597837, 94.388519
439, 31.564623, -10.713706, 76.911072
440, 31.558023, -10.733128, 84.204048
441, 31.559050, -10.730110, 53.770935
442, 31.565193, -10.712023, 30.693390
443, 31.627333, -10.527143, 23.063663
444, 31.548357, -10.761507, 69.158424
445, 31.541924, -10.780350, 46.030575
446, 31.597500, -10.616348, 15.386566
447, -31.433332, 11.092991, 10.363453
448, 18.492802, -19.622709, 0.000000
449, -15.768147, 21.180296, 0.000000
450, -20.396193, -17.557734, 0.000000
451, 22.736050, 14.589582, 0.000000
452, 1.655997, -26.577415, 0.000000
453, 26.278500, -3.089407, 0.000000
454, -26.405291, -0.000000, 0.000000
455, 7.449318, 25.236383, 0.000000
456, -10.055647, -25.449598, 0.000000
457, -4.177614, 26.430008, 0.000000
458, -23.736174, 11.759877, 0.000000
459, -27.000906, -6.309233, 0.000000
460, -20.297543, -3.663841, 0.000000
461, -20.141039, 4.625134, 0.000000
462, -13.320468, -0.346250, 0.000000
463, -12.766886, 7.152941, 0.000000
464, -6.313757, 2.949102, 0.000000
465, -6.774648, -4.777600, 0.000000
466, 0.170849, -1.328978, 0.000000
467, 0.612595, 6.401762, 0.000000
468, 7.088112, 2.152287, 0.000000
469, 6.646486, -5.583281, 0.000000
470, 7.527700, 9.873188, 0.000000
471, 13.837113, 5.461557, 0.000000
472, 1.020414, 14.054360, 0.000000
473, -13.834714, -7.830220, 0.000000
474, -7.281338, -12.035049, 0.000000
475, -0.297593, -8.977091, 0.000000
476, 5.942900, -13.183308, 0.000000
477, 12.823876, -9.587742, 0.000000
478, -1.446322, -15.955414, 0.000000
479, -5.840503, 10.584109, 0.000000
480, 13.367188, -2.076621, 0.000000
481, 15.340161, 13.763083, 0.000000
482, 7.978323, 17.585814, 0.000000
483, -6.679138, 19.139423, 0.000000
484, 14.020313, 22.280296, 0.000000
485, 19.997663, 0.986138, 0.000000
486, -12.195062, 14.610037, 0.000000
487, 19.586691, -6.067065, 0.000000
488, 1.202877, 21.727095, 0.000000
489, 4.928462, -20.250822, 0.000000
490, 26.410488, 3.940033, 0.000000
491, -14.409413, -14.905287, 0.000000
492, 11.962457, -16.876734, 0.000000
493, 25.357740, -10.013403, 0.000000
494, 10.943400, -24.241264, 0.000000
495, -21.991720, -10.958673, 0.000000
496, 20.490730, 8.103158, 0.000000
497, -3.993565, -22.648630, 0.000000
498, 18.750896, -13.023008, 0.000000
499, -10.570330, 25.510033, 0.000000
500, -26.942694, 6.331087, 0.000000
501, -16.058628, -21.979702, 0.000000
502, -19.973778, 16.895512, 0.000000
503, 1.664938, 27.899456, 0.000000
504, -17.419024, 11.260148, 0.000000
505, 26.371958, 9.855984, 0.000000
506, -8.446965, -18.505188, 0.000000
507, -4.886862, -28.162752, 0.000000
508, 23.584791, -15.809062, 0.000000
509, 19.869200, 19.755692, 0.000000
510, 18.492802, -19.622709, 100.000000
511, -15.768147, 21.180296, 100.000000
512, -20.396193, -17.557734, 100.000000
513, 22.736050, 14.589582, 100.000000
514, 1.655997, -26.577415, 100.000000
515, 26.278500, -3.089407, 100.000000
516, -26.405291, -0.000000, 100.000000
517, 7.449318, 25.236383, 100.000000
518, -10.055647, -25.449598, 100.000000
519, -4.177614, 26.430008, 100.000000
520, -23.736174, 11.759877, 100.000000
521, -27.000906, -6.309233, 100.000000
522, -20.297543, -3.663841, 100.000000
523, -20.141039, 4.625134, 100.000000
524, -13.320468, -0.346250, 100.000000
525, -12.766886, 7.152941, 100.000000
526, -6.313757, 2.949102, 100.000000
527, -6.774648, -4.777600, 100.000000
528, 0.170849, -1.328978, 100.000000
529, 0.612595, 6.401762, 100.000000
530, 7.088112, 2.152287, 100.000000
531, 6.646486, -5.583281, 100.000000
532, 7.527700, 9.873188, 100.000000
533, 13.837113, 5.461557, 100.000000
534, 1.020414, 14.054360, 100.000000
535, -13.834714, -7.830220, 100.000000
536, -7.281338, -12.035049, 100.000000
537, -0.297593, -8.977091, 100.000000
538, 5.942900, -13.183308, 100.000000
539, 12.823876, -9.587742, 100.000000
540, -1.446322, -15.955414, 100.000000
541, -5.840503, 10.584109, 100.000000
542, 13.367188, -2.076621, 100.000000
543, 15.340161, 13.763083, 100.000000
544, 7.978323, 17.585814, 100.000000
545, -6.679138, 19.139423, 100.000000
546, 14.020313, 22.280296, 100.000000
547, 19.997663, 0.986138, 100.000000
548, -12.195062, 14.610037, 100.000000
549, 19.586691, -6.067065, 100.000000
550, 1.202877, 21.727095, 100.000000
551, 4.928462, -20.250822, 100.000000
552, 26.410488, 3.940033, 100.000000
553, -14.409413, -14.905287, 100.000000
554, 11.962457, -16.876734, 100.000000
555, 25.357740, -10.013403, 100.000000
556, 10.943400, -24.241264, 100.000000
557, -21.991720, -10.958673, 100.000000
558, 20.490730, 8.103158, 100.000000
559, -3.993565, -22.648630, 100.000000
560, 18.750896, -13.023008, 100.000000
561, -10.570330, 25.510033, 100.000000
562, -26.942694, 6.331087, 100.000000
563, -16.058628, -21.979702, 100.000000
564, -19.973778, 16.895512, 100.000000
565, 1.664938, 27.899456, 100.000000
566, -17.419024, 11.260148, 100.000000
567, 26.371958, 9.855984, 100.000000
568, -8.446965, -18.505188, 100.000000
569, -4.886862, -28.162752, 100.000000
570, 23.584791, -15.809062, 100.000000
571, 19.869200, 19.755692, 100.000000
572, -7.815878, -8.074683, 61.502510
573, 0.706953, 1.108384, 31.976727
574, 9.183434, 1.437206, 75.886642
575, 5.845945, 8.653329, 53.227783
576, 6.764270, -10.974745, 47.388172
577, -9.996443, 8.680602, 73.048065
578, -12.565044, 4.420057, 46.596695
579, -3.748576, -13.079496, 80.387337
580, -9.330952, -10.369699, 19.514860
581, 11.681477, -8.393291, 19.240576
582, -11.001613, 9.358613, 19.071476
583, 10.711410, 10.375583, 19.043028
584, -9.480251, -11.929638, 39.391338
585, 8.637034, -13.525549, 64.732628
586, 15.888422, 2.204936, 40.502449
587, -1.955000, 16.182072, 39.854973
588, 4.046058, 16.369217, 68.020096
589, 4.592042, -16.379221, 31.891371
590, -17.047827, 0.243207, 31.342617
591, -8.147536, 15.602490, 57.418331
592, 17.037472, -2.496819, 56.486652
593, -16.728371, -2.946781, 82.892159
594, 12.120013, -12.387535, 83.974304
595, -18.049498, 3.402839, 60.937737
596, 1.332663, 13.305103, 83.758446
597, 0.208885, 0.274920, 14.926374
598, 11.469155, 14.626845, 33.388546
599, -5.007499, -18.325062, 51.623940
600, 16.561131, 9.004620, 65.650208
601, -0.537556, 18.413214, 25.024723
602, 18.635363, 4.656108, 86.193756
603, -15.812201, 10.956677, 85.850060
604, -17.390358, -8.408284, 50.827099
605, 19.521709, 0.967143, 26.712006
606, 0.203161, 3.079206, 64.966751
607, -3.138988, -0.038854, 86.170486
608, -13.567229, 13.887341, 32.182159
609, 2.078298, -19.190716, 17.875469
610, -3.421185, -19.590834, 67.800575
611, 16.150333, -11.193362, 37.305702
612, -15.198705, -12.123353, 72.563202
613, -19.024775, -1.373258, 14.062852
614, 20.102840, 0.191120, 13.361558
615, 13.571303, 14.159040, 77.879852
616, 18.825800, -5.863981, 69.582184
617, -1.959440, -1.869747, 51.391533
618, 18.570251, 9.487401, 50.887688
619, -7.679408, -19.233557, 28.831629
620, 10.271852, 18.270535, 45.762123
621, 4.014224, 19.813835, 12.734467
622, 3.253215, 20.647160, 55.901932
623, -12.942122, 16.953409, 45.889492
624, -6.226455, 20.297892, 76.389565
625, 5.820860, -20.352360, 76.416771
626, -17.732853, -11.972063, 29.266937
627, -14.582287, -14.930932, 87.114876
628, -6.517666, -3.253055, 73.291801
629, 15.744027, -14.526242, 54.857178
630, 2.711090, -21.465691, 42.771969
631, -20.844810, 2.903778, 72.896782
632, 8.568624, -1.812626, 88.663467
633, -21.970091, -1.509307, 42.206326
634, 4.947191, 6.679328, 41.559708
635, 5.773439, -20.877848, 55.871075
636, -20.111332, 9.591239, 10.991044
637, -20.074125, -8.233528, 62.423599
638, 1.105810, -7.941748, 24.431505
639, -16.889833, 14.340943, 65.282433
640, -8.462125, -19.792307, 12.009137
641, 21.369240, -5.812393, 82.444389
642, 14.043136, 17.272644, 58.052036
643, -12.248069, -18.618544, 60.526619
644, 12.513947, -17.971689, 11.983410
645, 21.489109, 4.087466, 74.948532
646, -8.435809, 19.518400, 12.329835
647, 3.505811, -10.066643, 10.885473
648, 14.936403, -16.076807, 27.046761
649, 1.245228, -21.517572, 87.701103
650, -7.873349, -0.193724, 24.527760
651, -20.363173, 9.521982, 40.138641
652, 21.040606, -6.182134, 46.389931
653, 10.300179, -4.633907, 30.160696
654, -19.312666, 12.048446, 53.802349
655, 6.158900, -4.255121, 58.829803
656, -0.494106, -5.473822, 40.921017
657, -7.838845, 19.490612, 88.157021
658, 18.932262, 11.454021, 10.967932
659, -20.645439, 8.846151, 24.949835
660, 5.233268, -9.144025, 74.648109
661, 5.400629, 21.963617, 77.744171
662, 15.759883, -15.767347, 73.901505
663, 10.821887, 18.557377, 88.535889
664, -17.749292, -12.742317, 11.801284
665, -7.027627, 6.745130, 37.387676
666, 20.931822, 9.180927, 33.775665
667, 9.890475, 3.318884, 10.604764
668, 9.542236, -0.579783, 48.864441
669, 2.094816, -10.679252, 89.396088
670, -3.893768, 10.497746, 48.866749
671, -7.750582, 4.753331, 57.761551
672, -1.929157, 10.467046, 10.583112
673, -11.284026, 19.585434, 23.072170
674, -0.221629, 7.582968, 23.134537
675, 20.206879, -10.354066, 10.496526
676, 13.500217, -18.799690, 44.416042
677, -9.494406, 2.578170, 10.451344
678, -5.019730, 21.903563, 65.706017
679, -4.065415, 22.487593, 48.275291
680, -7.901097, -22.112135, 42.096176
681, -19.148993, 13.289757, 75.995071
682, -10.005191, -20.822779, 76.248474
683, -19.955582, -11.878301, 41.125496
684, 10.812180, 20.218988, 23.943331
685, 0.568515, 7.707639, 74.638245
686, 22.008644, -7.169083, 20.582767
687, 5.819071, 22.686893, 37.074951
688, -23.700754, -4.187223, 23.947886
689, -23.424398, 0.874269, 52.305740
690, -22.490870, 3.314944, 89.541183
691, -6.901285, 22.060827, 32.615952
692, 22.983017, -3.535756, 35.457497
693, 14.146546, 18.862686, 68.337921
694, 9.429479, 5.662012, 28.330296
695, -15.137321, -18.388477, 49.930962
696, -7.600707, -9.020081, 29.740007
697, -6.655960, -8.432299, 9.694354
698, 18.789154, 13.636803, 24.663572
699, 1.660256, 23.485247, 89.734596
700, -10.366220, -6.089599, 90.401718
701, 0.458438, -12.520883, 57.811787
702, 9.265873, 8.416589, 88.075333
703, -13.628483, -19.431864, 20.676279
704, -6.255816, 9.276457, 89.664764
705, 18.637903, 14.224869, 42.090466
706, 23.315916, 1.400048, 63.734001
707, -11.288171, -2.111899, 39.152451
708, 11.217712, -20.520790, 90.329498
709, 11.537957, 0.237878, 66.122963
710, 18.807478, -14.477798, 64.420395
711, 5.645290, -22.947466, 65.573128
712, 1.965085, 11.014335, 32.257790
713, -7.810403, -9.334961, 48.743153
714, -22.804874, -6.474470, 75.772247
715, 0.845516, -24.321487, 26.441090
716, 24.113241, 3.282835, 45.714897
717, 9.221171, -4.917986, 40.123219
718, 20.226742, -12.414407, 90.016212
719, -4.323685, 11.785492, 65.637207
720, -14.863161, -18.968872, 35.382832
721, 19.163935, 13.531615, 90.736542
722, 0.493724, -6.593309, 66.467377
723, -8.401649, -22.174217, 90.597023
724, 12.516191, -20.841322, 35.057182
725, 8.555764, 0.810363, 19.925280
726, 13.766414, 19.162834, 14.516654
727, 22.085300, -2.674078, 91.432770
728, -2.744393, -23.748732, 59.193249
729, -14.502202, -2.422129, 67.840424
730, 7.394283, 9.067848, 62.717983
731, 12.060690, -5.757327, 8.689204
732, -22.343218, -6.876946, 90.497276
733, -0.058998, -24.252127, 9.801387
734, -10.439929, 4.217880, 81.564362
735, -18.371468, 15.328044, 18.373333
736, -23.180687, -6.203676, 34.212196
737, 22.025076, -10.463482, 29.299406
738, -24.956419, -0.922360, 65.340843
739, -13.135235, 2.905634, 90.486366
740, -14.200658, 19.298859, 81.250275
741, 9.444423, -22.568111, 22.822693
742, -20.607328, -13.551631, 20.614954
743, -4.045429, -24.082577, 35.416004
744, 9.290263, 12.747187, 8.974630
745, -16.984213, 18.131050, 8.781979
746, -13.111470, 21.104652, 70.297180
747, 6.704624, 23.963902, 63.687107
748, -12.961384, -2.603124, 56.309929
749, 24.434494, 3.652312, 54.893276
750, -2.539906, 24.502527, 17.948086
751, -24.218060, 5.731989, 32.766857
752, 22.091494, 11.668460, 58.964115
753, 23.107901, 6.583611, 19.831213
754, -7.661360, 8.066540, 28.386581
755, 22.019915, 11.401848, 80.712463
756, 18.923977, -15.818270, 18.527321
757, -0.795102, -14.207716, 38.767014
758, 13.817015, -6.366626, 77.257347
759, 13.116517, -20.627079, 61.094173
760, -15.189053, 20.022655, 54.024136
761, 4.268607, 24.898457, 46.083607
762, 13.636580, -20.951490, 81.134789
763, 1.020948, -1.893642, 78.258423
764, -14.067622, 20.810192, 37.867298
765, -5.614469, -24.082342, 19.765856
766, -10.813919, 11.442886, 8.873943
767, -20.085175, -14.047448, 79.958702
768, -7.741338, 12.901277, 81.458122
769, -4.947767, 23.976135, 57.028130
770, 13.346243, 5.621101, 57.017002
771, 8.953415, 9.454576, 71.646919
772, -21.994129, 6.436518, 81.104523
773, -6.717637, -11.477386, 69.725334
774, -23.772106, 8.648706, 65.354179
775, 22.658258, -9.485777, 57.889160
776, -23.014229, -6.595602, 7.998975
777, -25.206057, 3.290146, 7.924625
778, -1.961153, -24.552176, 75.094421
779, -2.571310, 2.616169, 43.803722
780, -24.238518, 5.067749, 17.601171
781, -19.776522, -14.739224, 56.480396
782, 2.671863, -7.883400, 33.081776
783, -16.292898, 1.578252, 22.059504
784, -0.705202, 24.973408, 7.730260
785, 0.398488, -25.110439, 50.396885
786, 17.929007, 18.143890, 49.953796
787, -2.969322, 24.884964, 39.919186
788, 2.536937, 3.928741, 91.706345
789, 24.056261, 6.882801, 92.456871
790, -17.048405, 18.230541, 91.366821
791, -5.973216, -13.704274, 91.409332
792, 20.236462, -15.027415, 81.531944
793, 14.404865, 20.998596, 38.577503
794, -8.357463, -5.604917, 81.645058
795, 0.082585, 12.872608, 58.206753
796, -14.589931, -20.017708, 68.839973
797, 8.236320, -14.054483, 39.412838
798, 2.218992, 16.571190, 48.363873
799, 11.988280, 9.848516, 45.357059
800, 7.081903, -14.240199, 23.766502
801, 2.191431, 25.324314, 29.593645
802, 20.413292, 13.553642, 72.241196
803, -8.347627, 3.483681, 66.312737
804, -4.045845, 14.543565, 18.018017
805, 1.478409, 25.094097, 70.594460
806, 20.754831, -14.321392, 43.793121
807, -23.711332, 8.030114, 47.777721
808, 3.997716, -2.151191, 7.628006
809, 10.030740, -12.239558, 92.313087
810, -19.304245, 17.052818, 26.753675
811, 3.188292, 4.919223, 83.067871
812, 24.641769, 5.535545, 8.308236
813, -12.579713, 21.876265, 61.872868
814, 10.712391, 22.876478, 52.765022
815, -24.320152, -6.906928, 55.310837
816, 13.832457, -7.626322, 50.459385
817, 25.408014, 1.640572, 82.065872
818, 24.905338, -3.662631, 75.053833
819, -22.306301, 11.602708, 91.235252
820, -3.669748, 25.178238, 83.096573
821, -14.571675, -5.701964, 8.268035
822, -3.221413, -15.055607, 22.994980
823, 14.266441, -7.562850, 62.665234
824, -5.367320, -23.564863, 82.799416
825, -13.946507, -5.931611, 24.894560
826, 8.355431, -23.776382, 48.564861
827, -1.981335, -7.593412, 16.677618
828, -1.074652, 15.690595, 91.494614
829, -10.913713, -2.487692, 17.021702
830, -10.623384, -23.779318, 54.277287
831, 25.096766, -4.017491, 8.192348
832, 9.003489, 2.204401, 35.864998
833, -24.548754, -7.918793, 46.734280
834, -1.788153, -16.129295, 8.411589
835, -11.681887, -12.138989, 55.460373
836, -21.166233, -14.920993, 92.168121
837, -24.989147, 7.221286, 57.327316
838, 6.167092, 13.396138, 25.406565
839, 6.127609, 14.606643, 39.658833
840, -21.533592, -14.366250, 67.760719
841, 4.230875, -14.670290, 82.354668
842, 7.874139, -24.506153, 14.727356
843, -1.880727, -2.740358, 59.558338
844, -11.490287, 10.548890, 51.914883
845, 8.203726, -11.407663, 55.428619
846, 19.261179, 17.192518, 33.166634
847, 10.198810, 22.566870, 7.589989
848, 25.661848, 3.830898, 37.722645
849, 11.780416, -22.440338, 71.086197
850, 5.791589, -25.031645, 32.993977
851, -2.459878, -4.749113, 92.939552
852, 25.481712, -4.014173, 52.725971
853, -9.127205, -24.639418, 64.992317
854, 15.006805, 1.246775, 92.696457
855, -25.101019, -1.426767, 82.257805
856, -0.986383, -13.224566, 46.796997
857, -20.755001, 15.971047, 35.264156
858, 6.250596, -6.686509, 82.442558
859, 13.565548, 22.317183, 76.943817
860, -20.818424, 15.271930, 45.760994
861, 17.245024, 1.651951, 49.588634
862, -7.298156, 0.284598, 32.561615
863, -24.265219, -7.371548, 16.083345
864, -2.107470, 3.184684, 6.960075
865, 3.641869, 7.656854, 15.902700
866, 19.547092, -17.349480, 33.470596
867, -17.062624, 2.919647, 7.395491
868, -9.656661, 14.097275, 39.167694
869, 0.541706, 15.840841, 75.377892
870, -13.882707, -0.311287, 75.705269
871, 16.121256, -1.784754, 20.011492
872, 15.486641, -6.077304, 88.076111
873, 14.873565, 6.235518, 79.160149
874, -15.436336, -8.035485, 35.804222
875, 22.621021, -11.457744, 74.622589
876, 3.206319, -15.690026, 70.334862
877, -13.332682, -22.299076, 83.891426
878, 0.203446, 4.570117, 57.125732
879, 24.599949, 7.776165, 68.493271
880, -13.590199, 9.865695, 59.572620
881, -15.887041, 6.800867, 67.901619
882, -14.701492, 6.690367, 35.342808
883, 16.863901, 18.192663, 7.225977
884, -11.800353, -12.693036, 79.869072
885, 11.488482, 23.124941, 31.401344
886, 26.387022, -0.652117, 19.230770
887, -17.974842, -19.372501, 42.628521
888, -12.728256, -3.471971, 46.796200
889, 17.637007, 17.946157, 83.956146
890, 6.147789, -16.726170, 7.221966
891, 1.882114, -0.022698, 24.184774
892, 6.855497, -24.870409, 82.999771
893, 25.240538, -6.314404, 64.788689
894, -16.962456, -19.683586, 27.816696
895, -5.227838, 14.317134, 32.602436
896, -16.626307, 4.681106, 53.317368
897, -5.720594, 24.862492, 25.247829
898, -13.542352, 10.962877, 93.277145
899, -14.376712, 22.209221, 30.114252
900, -13.677794, -12.166940, 64.827133
901, 26.270880, 3.272218, 29.938547
902, 16.099541, 0.716626, 6.719493
903, 5.606157, 24.596584, 19.269281
904, 15.166463, -21.608265, 51.663162
905, 20.411074, 15.936050, 17.291559
906, -9.872271, 24.252331, 43.426048
907, -25.449762, 2.667465, 25.637856
908, 16.045164, -7.220953, 25.555288

*ELEMENT, TYPE=C3D4, ELSET=ALL_ELEMENTS
1, 219, 619, 720, 743
2, 632, 872, 758, 873
3, 87, 640, 501, 664
4, 574, 606, 722, 763
5, 605, 686, 82, 737
6, 519, 561, 85, 657
7, 219, 720, 680, 743
8, 544, 663, 702, 828
9, 349, 619, 219, 743
10, 574, 606, 709, 722
11, 586, 653, 605, 692
12, 605, 737, 82, 901
13, 133, 695, 683, 833
14, 101, 693, 103, 752
15, 325, 683, 626, 736
16, 610, 643, 572, 701
17, 133, 781, 695, 833
18, 586, 705, 598, 799
19, 602, 872, 632, 873
20, 325, 626, 211, 736
21, 586, 666, 598, 705
22, 569, 649, 410, 723
23, 582, 597, 650, 829
24, 605, 653, 586, 832
25, 620, 642, 575, 799
26, 325, 342, 683, 736
27, 632, 758, 574, 873
28, 325, 211, 342, 736
29, 615, 596, 771, 811
30, 82, 686, 605, 886
31, 586, 653, 692, 717
32, 602, 758, 872, 873
33, 582, 650, 597, 674
34, 501, 640, 491, 664
35, 611, 692, 653, 717
36, 467, 667, 744, 864
37, 586, 666, 605, 832
38, 310, 219, 680, 743
39, 589, 611, 648, 653
40, 256, 692, 611, 806
41, 103, 693, 642, 752
42, 695, 781, 604, 833
43, 582, 597, 672, 674
44, 85, 519, 657, 699
45, 586, 799, 598, 832
46, 491, 664, 640, 697
47, 355, 805, 747, 859
48, 338, 646, 673, 735
49, 82, 886, 605, 901
50, 581, 647, 725, 731
51, 630, 676, 146, 724
52, 375, 738, 714, 840
53, 620, 575, 642, 814
54, 355, 747, 693, 859
55, 683, 695, 133, 887
56, 448, 644, 423, 675
57, 575, 668, 617, 779
58, 647, 725, 731, 808
59, 146, 676, 630, 826
60, 618, 575, 642, 799
61, 230, 732, 767, 855
62, 236, 681, 631, 774
63, 75, 507, 456, 733
64, 643, 701, 610, 728
65, 585, 660, 662, 758
66, 280, 629, 775, 806
67, 584, 683, 695, 713
68, 588, 642, 622, 747
69, 575, 620, 798, 814
70, 604, 695, 683, 713
71, 622, 642, 575, 814
72, 613, 742, 664, 829
73, 559, 649, 569, 723
74, 574, 709, 660, 722
75, 575, 798, 622, 814
76, 666, 694, 605, 832
77, 101, 693, 752, 802
78, 597, 582, 672, 677
79, 467, 744, 672, 864
80, 305, 640, 87, 664
81, 582, 677, 597, 829
82, 687, 801, 712, 895
83, 586, 598, 666, 832
84, 620, 786, 642, 799
85, 580, 664, 742, 829
86, 747, 805, 693, 859
87, 356, 711, 610, 778
88, 596, 685, 771, 811
89, 575, 634, 668, 779
90, 644, 647, 609, 800
91, 581, 647, 644, 800
92, 605, 583, 694, 698
93, 589, 696, 619, 757
94, 544, 702, 532, 828
95, 580, 742, 825, 829
96, 613, 825, 742, 829
97, 477, 644, 498, 675
98, 474, 491, 640, 697
99, 346, 651, 633, 751
100, 492, 498, 477, 644
101, 605, 583, 698, 753
102, 614, 658, 583, 753
103, 712, 801, 687, 838
104, 82, 737, 692, 901
105, 646, 672, 483, 784
106, 310, 349, 219, 743
107, 186, 711, 356, 778
108, 583, 658, 614, 667
109, 611, 653, 589, 797
110, 642, 786, 618, 799
111, 583, 753, 605, 871
112, 634, 668, 656, 717
113, 286, 423, 644, 675
114, 656, 668, 634, 779
115, 280, 775, 652, 806
116, 477, 644, 675, 731
117, 583, 614, 753, 871
118, 621, 838, 804, 865
119, 305, 640, 664, 703
120, 574, 722, 660, 763
121, 280, 175, 629, 806
122, 161, 307, 192, 846
123, 211, 626, 208, 736
124, 687, 712, 587, 895
125, 639, 654, 369, 760
126, 672, 744, 667, 864
127, 584, 695, 680, 713
128, 611, 692, 256, 737
129, 369, 639, 122, 654
130, 259, 661, 663, 699
131, 601, 801, 712, 838
132, 265, 652, 692, 806
133, 122, 654, 639, 774
134, 602, 758, 641, 872
135, 652, 775, 629, 806
136, 132, 133, 683, 833
137, 583, 667, 614, 871
138, 617, 655, 576, 668
139, 615, 811, 771, 873
140, 693, 805, 661, 859
141, 630, 724, 146, 850
142, 186, 625, 184, 711
143, 75, 456, 640, 733
144, 596, 615, 771, 869
145, 640, 827, 822, 834
146, 605, 694, 583, 871
147, 683, 695, 604, 833
148, 467, 667, 470, 744
149, 598, 712, 687, 838
150, 626, 688, 208, 736
151, 576, 656, 617, 668
152, 589, 619, 696, 822
153, 576, 826, 635, 856
154, 687, 587, 801, 895
155, 599, 680, 695, 713
156, 576, 676, 611, 816
157, 600, 752, 693, 802
158, 429, 692, 652, 716
159, 615, 702, 596, 811
160, 375, 637, 738, 840
161, 640, 580, 822, 827
162, 307, 698, 192, 846
163, 375, 714, 229, 840
164, 389, 666, 698, 901
165, 186, 625, 711, 778
166, 581, 638, 725, 827
167, 412, 238, 603, 819
168, 619, 626, 580, 703
169, 579, 607, 669, 858
170, 575, 642, 622, 795
171, 664, 742, 613, 863
172, 687, 838, 801, 885
173, 393, 603, 681, 740
174, 619, 715, 349, 765
175, 274, 349, 715, 765
176, 613, 636, 582, 677
177, 580, 626, 619, 696
178, 574, 685, 606, 763
179, 577, 624, 719, 746
180, 576, 845, 826, 904
181, 346, 633, 205, 751
182, 205, 346, 348, 633
183, 128, 633, 346, 807
184, 611, 676, 576, 797
185, 602, 641, 758, 873
186, 128, 689, 633, 807
187, 598, 799, 634, 832
188, 579, 763, 607, 858
189, 601, 712, 801, 895
190, 128, 125, 689, 807
191, 128, 346, 125, 807
192, 575, 730, 642, 795
193, 598, 838, 687, 885
194, 223, 767, 682, 796
195, 307, 684, 192, 698
196, 633, 651, 346, 807
197, 579, 607, 763, 794
198, 621, 583, 838, 865
199, 230, 732, 301, 767
200, 184, 625, 186, 778
201, 238, 393, 603, 681
202, 348, 205, 633, 751
203, 576, 655, 617, 845
204, 355, 661, 805, 859
205, 140, 785, 680, 830
206, 498, 448, 508, 675
207, 618, 705, 351, 716
208, 348, 633, 736, 751
209, 325, 626, 683, 720
210, 472, 672, 621, 784
211, 599, 701, 643, 728
212, 597, 672, 674, 865
213, 526, 704, 607, 739
214, 231, 232, 631, 714
215, 685, 734, 628, 763
216, 617, 670, 578, 671
217, 692, 716, 429, 848
218, 624, 577, 740, 746
219, 681, 740, 577, 746
220, 579, 669, 607, 794
221, 684, 698, 307, 846
222, 351, 68, 350, 618
223, 363, 622, 110, 747
224, 609, 640, 822, 834
225, 363, 622, 747, 769
226, 68, 618, 351, 716
227, 596, 771, 685, 869
228, 742, 825, 613, 863
229, 635, 826, 630, 856
230, 111, 622, 679, 761
231, 598, 694, 666, 832
232, 363, 747, 678, 769
233, 229, 714, 375, 738
234, 621, 672, 646, 784
235, 356, 610, 711, 728
236, 587, 691, 801, 895
237, 601, 804, 621, 838
238, 630, 785, 635, 856
239, 238, 681, 603, 772
240, 609, 822, 827, 834
241, 223, 226, 767, 796
242, 605, 692, 737, 901
243, 450, 501, 491, 664
244, 574, 645, 616, 709
245, 582, 674, 672, 804
246, 387, 715, 609, 765
247, 628, 685, 577, 734
248, 115, 679, 760, 906
249, 676, 806, 611, 816
250, 238, 772, 603, 819
251, 522, 700, 732, 739
252, 655, 701, 617, 845
253, 85, 699, 657, 820
254, 412, 238, 393, 603
255, 572, 701, 713, 843
256, 175, 280, 629, 775
257, 526, 739, 607, 851
258, 701, 711, 610, 728
259, 630, 635, 785, 826
260, 338, 646, 337, 673
261, 477, 644, 731, 890
262, 576, 826, 676, 904
263, 714, 738, 637, 840
264, 615, 661, 596, 663
265, 826, 845, 635, 904
266, 110, 622, 363, 769
267, 105, 642, 149, 747
268, 230, 767, 714, 855
269, 474, 491, 506, 640
270, 85, 657, 413, 820
271, 589, 696, 757, 782
272, 582, 636, 613, 783
273, 702, 811, 615, 873
274, 694, 725, 583, 871
275, 68, 350, 618, 749
276, 507, 497, 456, 733
277, 617, 668, 656, 779
278, 617, 713, 701, 843
279, 584, 656, 696, 707
280, 122, 654, 774, 837
281, 576, 630, 826, 856
282, 639, 681, 237, 774
283, 610, 711, 701, 876
284, 617, 671, 578, 748
285, 456, 501, 386, 640
286, 618, 716, 68, 749
287, 526, 607, 704, 788
288, 696, 707, 656, 862
289, 576, 635, 826, 845
290, 685, 768, 734, 811
291, 575, 779, 617, 878
292, 605, 666, 586, 692
293, 126, 377, 689, 738
294, 477, 492, 644, 890
295, 605, 694, 666, 698
296, 583, 684, 621, 838
297, 629, 806, 175, 904
298, 233, 231, 232, 631
299, 575, 670, 779, 878
300, 589, 696, 782, 822
301, 582, 659, 608, 810
302, 236, 237, 681, 774
303, 576, 611, 717, 816
304, 411, 87, 305, 640
305, 582, 608, 673, 810
306, 351, 618, 166, 705
307, 734, 763, 685, 811
308, 655, 709, 722, 823
309, 576, 629, 845, 904
310, 266, 627, 563, 723
311, 643, 781, 361, 840
312, 111, 109, 622, 761
313, 133, 131, 781, 833
314, 115, 760, 679, 769
315, 599, 643, 701, 835
316, 636, 677, 613, 867
317, 647, 800, 581, 827
318, 266, 563, 627, 836
319, 389, 698, 390, 901
320, 474, 697, 640, 834
321, 577, 719, 639, 746
322, 572, 701, 643, 835
323, 467, 468, 667, 864
324, 111, 679, 622, 769
325, 240, 237, 639, 681
326, 577, 734, 772, 870
327, 577, 772, 631, 870
328, 618, 642, 575, 770
329, 617, 748, 578, 888
330, 380, 85, 561, 657
331, 577, 681, 631, 772
332, 412, 603, 393, 819
333, 584, 713, 680, 856
334, 689, 738, 377, 815
335, 599, 680, 713, 856
336, 372, 639, 237, 774
337, 664, 697, 491, 821
338, 634, 799, 598, 839
339, 184, 711, 625, 849
340, 655, 722, 585, 823
341, 572, 610, 701, 773
342, 494, 733, 842, 890
343, 578, 670, 617, 779
344, 345, 651, 346, 751
345, 602, 873, 702, 889
346, 610, 722, 701, 773
347, 75, 456, 386, 640
348, 575, 655, 668, 770
349, 638, 581, 800, 827
350, 126, 738, 689, 837
351, 149, 642, 693, 747
352, 577, 734, 681, 772
353, 494, 733, 433, 842
354, 256, 806, 611, 866
355, 232, 631, 714, 738
356, 517, 417, 546, 663
357, 483, 672, 472, 784
358, 585, 701, 711, 876
359, 576, 676, 629, 904
360, 639, 746, 719, 813
361, 574, 616, 645, 758
362, 640, 697, 580, 827
363, 348, 736, 206, 751
364, 152, 146, 676, 724
365, 678, 719, 624, 746
366, 526, 607, 788, 851
367, 589, 653, 648, 800
368, 615, 663, 596, 702
369, 122, 639, 372, 774
370, 274, 218, 349, 765
371, 708, 718, 418, 792
372, 240, 237, 372, 639
373, 600, 706, 645, 709
374, 645, 706, 616, 709
375, 448, 498, 644, 675
376, 583, 725, 667, 871
377, 611, 737, 256, 866
378, 259, 663, 661, 859
379, 349, 715, 619, 743
380, 607, 763, 734, 811
381, 577, 624, 740, 768
382, 649, 669, 551, 809
383, 730, 770, 655, 878
384, 590, 754, 659, 882
385, 219, 349, 216, 619
386, 734, 768, 704, 811
387, 236, 235, 631, 681
388, 612, 796, 226, 840
389, 602, 702, 721, 889
390, 635, 711, 701, 728
391, 586, 668, 717, 816
392, 348, 206, 205, 751
393, 628, 722, 606, 763
394, 719, 746, 678, 813
395, 610, 701, 722, 876
396, 219, 619, 216, 894
397, 612, 767, 226, 796
398, 606, 574, 709, 771
399, 589, 648, 611, 724
400, 610, 579, 778, 876
401, 574, 660, 709, 758
402, 659, 754, 590, 783
403, 702, 788, 532, 828
404, 588, 678, 622, 795
405, 582, 608, 659, 754
406, 661, 693, 588, 805
407, 631, 772, 233, 855
408, 575, 668, 655, 878
409, 621, 601, 838, 903
410, 589, 724, 611, 797
411, 387, 609, 715, 842
412, 110, 111, 109, 622
413, 369, 372, 122, 639
414, 559, 514, 569, 649
415, 628, 660, 579, 773
416, 630, 680, 142, 785
417, 584, 695, 683, 887
418, 627, 791, 723, 824
419, 697, 827, 640, 834
420, 576, 717, 611, 797
421, 586, 717, 652, 816
422, 588, 661, 615, 693
423, 543, 702, 663, 721
424, 591, 670, 623, 679
425, 642, 693, 588, 730
426, 621, 838, 684, 903
427, 606, 685, 628, 763
428, 132, 683, 133, 887
429, 428, 646, 338, 735
430, 601, 754, 673, 804
431, 645, 758, 641, 873
432, 698, 753, 390, 901
433, 265, 253, 652, 806
434, 576, 635, 845, 856
435, 667, 731, 725, 808
436, 356, 778, 610, 853
437, 701, 845, 635, 856
438, 540, 551, 649, 669
439, 77, 417, 517, 663
440, 617, 779, 670, 878
441, 653, 692, 611, 908
442, 76, 649, 514, 708
443, 216, 703, 619, 765
444, 693, 747, 588, 805
445, 361, 796, 643, 840
446, 587, 634, 670, 779
447, 610, 579, 682, 778
448, 219, 720, 619, 894
449, 367, 361, 781, 840
450, 615, 702, 873, 889
451, 587, 665, 634, 779
452, 175, 806, 165, 904
453, 625, 660, 594, 662
454, 593, 767, 732, 855
455, 705, 716, 586, 848
456, 283, 741, 648, 756
457, 573, 634, 656, 832
458, 644, 741, 287, 756
459, 522, 524, 700, 739
460, 184, 186, 187, 778
461, 575, 655, 770, 878
462, 336, 673, 750, 897
463, 94, 641, 440, 718
464, 606, 719, 588, 730
465, 105, 149, 318, 747
466, 582, 780, 636, 783
467, 582, 613, 677, 783
468, 684, 846, 307, 885
469, 351, 309, 716, 848
470, 680, 785, 599, 830
471, 77, 663, 517, 699
472, 226, 767, 612, 840
473, 337, 673, 646, 750
474, 178, 180, 179, 710
475, 708, 418, 762, 792
476, 153, 108, 761, 793
477, 245, 678, 624, 746
478, 574, 811, 632, 873
479, 606, 685, 574, 771
480, 540, 669, 649, 791
481, 363, 678, 747, 805
482, 607, 734, 704, 811
483, 381, 646, 499, 784
484, 594, 660, 625, 841
485, 583, 621, 684, 726
486, 713, 779, 656, 888
487, 272, 705, 666, 848
488, 522, 732, 690, 739
489, 638, 782, 696, 822
490, 533, 702, 721, 854
491, 228, 375, 229, 840
492, 470, 467, 468, 667
493, 596, 663, 661, 699
494, 582, 673, 608, 754
495, 231, 631, 233, 855
496, 639, 760, 369, 813
497, 653, 782, 589, 797
498, 497, 640, 456, 733
499, 656, 782, 696, 862
500, 119, 369, 654, 760
501, 351, 272, 309, 848
502, 573, 650, 638, 696
503, 609, 800, 647, 827
504, 619, 696, 584, 757
505, 652, 775, 280, 852
506, 105, 642, 747, 814
507, 578, 707, 633, 882
508, 571, 546, 84, 721
509, 166, 705, 618, 786
510, 200, 751, 659, 857
511, 575, 670, 634, 779
512, 140, 142, 680, 785
513, 588, 685, 606, 730
514, 587, 670, 665, 779
515, 535, 700, 627, 836
516, 642, 693, 600, 752
517, 652, 717, 611, 816
518, 824, 877, 627, 884
519, 336, 195, 673, 897
520, 601, 673, 754, 895
521, 573, 656, 634, 779
522, 133, 132, 131, 833
523, 153, 761, 687, 793
524, 622, 678, 588, 747
525, 669, 794, 791, 851
526, 589, 782, 638, 822
527, 283, 287, 741, 756
528, 243, 740, 624, 820
529, 578, 651, 623, 868
530, 632, 811, 702, 873
531, 588, 606, 685, 719
532, 577, 719, 624, 869
533, 598, 666, 694, 698
534, 354, 635, 292, 728
535, 578, 633, 651, 882
536, 579, 610, 682, 773
537, 588, 693, 642, 747
538, 624, 678, 245, 805
539, 531, 632, 542, 809
540, 426, 450, 72, 664
541, 542, 809, 632, 872
542, 563, 627, 553, 723
543, 184, 187, 625, 778
544, 615, 661, 588, 869
545, 573, 650, 696, 862
546, 337, 336, 673, 750
547, 505, 394, 451, 812
548, 178, 662, 710, 849
549, 178, 662, 180, 710
550, 111, 622, 110, 769
551, 474, 640, 506, 834
552, 615, 588, 771, 869
553, 100, 308, 98, 752
554, 180, 662, 179, 710
555, 644, 741, 756, 800
556, 628, 722, 572, 803
557, 176, 177, 629, 710
558, 663, 859, 260, 889
559, 649, 551, 708, 809
560, 714, 729, 637, 738
561, 576, 656, 668, 717
562, 584, 696, 656, 757
563, 574, 771, 811, 873
564, 666, 705, 586, 848
565, 137, 680, 304, 695
566, 586, 705, 618, 716
567, 667, 744, 672, 865
568, 108, 620, 761, 793
569, 632, 574, 758, 858
570, 636, 780, 613, 783
571, 113, 679, 115, 906
572, 223, 682, 767, 877
573, 305, 703, 664, 742
574, 483, 672, 646, 766
575, 637, 714, 612, 729
576, 617, 779, 713, 888
577, 701, 713, 617, 856
578, 192, 684, 331, 905
579, 727, 789, 40, 817
580, 655, 668, 617, 878
581, 617, 656, 713, 779
582, 610, 773, 579, 876
583, 596, 661, 615, 869
584, 240, 239, 681, 746
585, 178, 180, 662, 849
586, 626, 703, 619, 894
587, 535, 732, 700, 836
588, 40, 789, 95, 817
589, 682, 767, 612, 796
590, 240, 241, 239, 746
591, 591, 623, 670, 844
592, 355, 251, 661, 859
593, 579, 660, 628, 763
594, 791, 794, 700, 851
595, 546, 663, 84, 721
596, 554, 718, 708, 809
597, 551, 669, 538, 809
598, 127, 689, 377, 815
599, 605, 692, 653, 908
600, 755, 873, 602, 889
601, 355, 661, 249, 805
602, 634, 717, 656, 832
603, 656, 757, 696, 782
604, 603, 790, 393, 819
605, 610, 728, 356, 853
606, 428, 646, 735, 745
607, 655, 730, 709, 770
608, 579, 791, 669, 794
609, 110, 622, 109, 814
610, 585, 701, 635, 711
611, 175, 176, 177, 629
612, 195, 337, 336, 673
613, 586, 653, 717, 832
614, 202, 751, 200, 857
615, 697, 808, 466, 864
616, 105, 747, 318, 814
617, 286, 92, 423, 675
618, 71, 636, 458, 745
619, 174, 175, 165, 904
620, 240, 681, 639, 746
621, 576, 668, 655, 845
622, 305, 411, 640, 703
623, 623, 670, 587, 679
624, 231, 714, 631, 855
625, 581, 638, 653, 725
626, 258, 824, 649, 892
627, 499, 646, 381, 745
628, 33, 692, 429, 848
629, 623, 651, 578, 860
630, 584, 680, 695, 887
631, 351, 350, 166, 618
632, 544, 699, 663, 828
633, 553, 627, 563, 836
634, 475, 466, 697, 808
635, 175, 629, 177, 775
636, 126, 377, 127, 689
637, 354, 711, 635, 728
638, 355, 251, 249, 661
639, 615, 693, 661, 859
640, 635, 785, 599, 856
641, 94, 641, 718, 727
642, 725, 827, 638, 891
643, 586, 618, 705, 799
644, 591, 670, 679, 798
645, 471, 667, 658, 744
646, 577, 740, 681, 768
647, 575, 617, 668, 878
648, 581, 675, 731, 871
649, 644, 647, 581, 731
650, 572, 803, 722, 843
651, 636, 582, 735, 780
652, 628, 685, 606, 803
653, 577, 685, 628, 803
654, 692, 737, 611, 908
655, 304, 695, 680, 887
656, 140, 141, 785, 830
657, 403, 636, 735, 780
658, 542, 539, 809, 872
659, 285, 282, 291, 756
660, 579, 824, 778, 841
661, 533, 702, 543, 721
662, 308, 706, 98, 752
663, 291, 737, 686, 756
664, 680, 695, 137, 830
665, 688, 613, 825, 863
666, 658, 667, 471, 902
667, 672, 864, 667, 865
668, 356, 220, 778, 853
669, 807, 844, 578, 860
670, 386, 501, 87, 640
671, 606, 730, 655, 878
672, 614, 731, 675, 871
673, 456, 506, 501, 640
674, 140, 139, 141, 830
675, 531, 542, 539, 809
676, 352, 635, 354, 711
677, 429, 265, 652, 692
678, 640, 664, 580, 697
679, 603, 734, 681, 768
680, 561, 380, 657, 790
681, 654, 844, 807, 860
682, 142, 680, 630, 743
683, 526, 700, 739, 851
684, 707, 656, 779, 888
685, 494, 842, 644, 890
686, 625, 778, 824, 841
687, 465, 697, 466, 864
688, 285, 291, 686, 756
689, 37, 706, 818, 879
690, 282, 737, 291, 756
691, 320, 103, 101, 693
692, 627, 824, 723, 877
693, 617, 656, 576, 856
694, 644, 756, 581, 800
695, 612, 714, 637, 840
696, 115, 679, 113, 769
697, 625, 579, 778, 841
698, 531, 788, 632, 851
699, 119, 369, 122, 654
700, 346, 651, 345, 807
701, 200, 659, 810, 857
702, 684, 726, 331, 905
703, 585, 662, 710, 823
704, 156, 648, 162, 741
705, 233, 631, 232, 738
706, 156, 724, 648, 741
707, 606, 709, 655, 730
708, 259, 260, 663, 859
709, 528, 788, 531, 851
710, 634, 665, 587, 712
711, 146, 145, 630, 850
712, 597, 827, 725, 891
713, 573, 665, 634, 712
714, 619, 743, 589, 757
715, 410, 398, 258, 649
716, 104, 102, 752, 786
717, 300, 87, 426, 664
718, 605, 698, 666, 901
719, 501, 506, 491, 640
720, 517, 663, 544, 699
721, 669, 607, 794, 851
722, 593, 714, 767, 855
723, 609, 741, 715, 842
724, 572, 713, 701, 835
725, 649, 708, 76, 892
726, 102, 642, 104, 752
727, 588, 685, 730, 771
728, 599, 701, 635, 856
729, 472, 621, 672, 744
730, 540, 538, 551, 669
731, 627, 723, 266, 877
732, 201, 202, 200, 857
733, 258, 410, 649, 723
734, 104, 752, 642, 786
735, 598, 712, 634, 839
736, 578, 633, 689, 807
737, 605, 694, 653, 832
738, 598, 634, 712, 832
739, 82, 692, 432, 901
740, 700, 732, 627, 836
741, 263, 613, 777, 780
742, 603, 740, 393, 790
743, 613, 263, 777, 863
744, 572, 701, 722, 773
745, 578, 844, 670, 868
746, 623, 578, 844, 860
747, 149, 642, 103, 693
748, 263, 613, 780, 863
749, 108, 148, 106, 620
750, 483, 646, 499, 745
751, 632, 669, 531, 851
752, 553, 627, 700, 791
753, 100, 752, 98, 879
754, 659, 735, 582, 780
755, 176, 710, 629, 759
756, 115, 760, 116, 906
757, 349, 274, 715, 743
758, 641, 817, 645, 873
759, 608, 659, 754, 882
760, 578, 689, 633, 888
761, 593, 627, 732, 767
762, 625, 778, 579, 876
763, 188, 356, 220, 778
764, 551, 514, 649, 708
765, 465, 475, 466, 697
766, 212, 210, 211, 742
767, 448, 498, 492, 644
768, 573, 638, 650, 891
769, 286, 675, 644, 756
770, 162, 283, 648, 756
771, 577, 681, 734, 768
772, 236, 237, 235, 681
773, 613, 677, 783, 829
774, 212, 211, 626, 742
775, 111, 110, 363, 769
776, 629, 710, 177, 775
777, 616, 710, 662, 823
778, 553, 535, 627, 836
779, 109, 622, 761, 814
780, 596, 699, 661, 820
781, 403, 735, 340, 780
782, 166, 618, 350, 752
783, 641, 602, 817, 873
784, 245, 244, 678, 746
785, 303, 690, 732, 855
786, 519, 545, 657, 699
787, 688, 825, 742, 863
788, 206, 751, 736, 907
789, 356, 711, 354, 728
790, 565, 519, 378, 699
791, 468, 808, 667, 864
792, 644, 581, 675, 731
793, 578, 670, 665, 868
794, 632, 702, 602, 873
795, 582, 673, 754, 804
796, 137, 140, 680, 830
797, 588, 693, 615, 771
798, 250, 259, 404, 699
799, 610, 722, 773, 876
800, 596, 704, 768, 811
801, 611, 806, 652, 816
802, 262, 290, 733, 765
803, 573, 696, 638, 782
804, 281, 282, 648, 737
805, 354, 352, 292, 635
806, 263, 780, 688, 863
807, 591, 679, 623, 760
808, 305, 87, 300, 664
809, 387, 715, 741, 842
810, 445, 265, 253, 652
811, 586, 692, 666, 848
812, 207, 688, 263, 780
813, 639, 681, 577, 746
814, 39, 727, 40, 817
815, 553, 627, 535, 700
816, 637, 595, 748, 815
817, 582, 783, 677, 829
818, 578, 623, 844, 868
819, 148, 106, 620, 786
820, 98, 752, 706, 879
821, 220, 682, 778, 853
822, 411, 640, 217, 765
823, 250, 661, 259, 699
824, 801, 838, 684, 885
825, 433, 733, 288, 842
826, 580, 626, 696, 825
827, 287, 741, 644, 842
828, 546, 417, 84, 663
829, 605, 753, 698, 901
830, 624, 719, 678, 869
831, 591, 795, 670, 798
832, 499, 646, 483, 784
833, 618, 752, 166, 786
834, 704, 828, 657, 898
835, 612, 870, 593, 884
836, 375, 738, 637, 815
837, 573, 634, 665, 779
838, 670, 844, 623, 868
839, 39, 40, 95, 817
840, 101, 802, 752, 879
841, 259, 663, 77, 699
842, 707, 713, 656, 888
843, 611, 692, 652, 806
844, 233, 631, 738, 774
845, 561, 657, 545, 790
846, 560, 718, 554, 809
847, 37, 818, 645, 879
848, 526, 527, 700, 851
849, 628, 722, 660, 773
850, 582, 754, 659, 783
851, 619, 703, 216, 894
852, 582, 659, 780, 783
853, 188, 186, 356, 778
854, 418, 708, 86, 718
855, 656, 707, 584, 713
856, 635, 759, 352, 904
857, 653, 694, 605, 871
858, 578, 807, 689, 896
859, 595, 738, 689, 815
860, 596, 702, 663, 828
861, 578, 651, 868, 882
862, 488, 472, 621, 784
863, 160, 676, 806, 866
864, 474, 491, 697, 821
865, 389, 666, 191, 698
866, 584, 696, 619, 720
867, 606, 730, 685, 771
868, 593, 612, 714, 870
869, 519, 545, 561, 657
870, 217, 640, 411, 703
871, 689, 748, 595, 815
872, 572, 748, 803, 843
873, 108, 620, 106, 814
874, 80, 645, 37, 818
875, 619, 696, 626, 720
876, 229, 232, 714, 738
877, 600, 693, 642, 730
878, 394, 658, 451, 812
879, 160, 724, 676, 866
880, 634, 670, 575, 798
881, 375, 130, 738, 815
882, 584, 696, 720, 874
883, 392, 740, 243, 820
884, 626, 720, 696, 874
885, 440, 718, 641, 792
886, 277, 152, 146, 676
887, 651, 807, 578, 860
888, 510, 708, 554, 718
889, 721, 755, 602, 889
890, 653, 725, 638, 891
891, 578, 689, 888, 896
892, 553, 723, 627, 791
893, 578, 651, 633, 807
894, 725, 731, 667, 871
895, 245, 624, 243, 746
896, 82, 432, 692, 737
897, 192, 698, 684, 905
898, 37, 645, 80, 879
899, 327, 352, 759, 904
900, 148, 620, 108, 793
901, 202, 659, 200, 751
902, 76, 398, 514, 649
903, 671, 803, 748, 843
904, 648, 653, 611, 908
905, 105, 103, 149, 642
906, 681, 734, 603, 772
907, 653, 725, 694, 871
908, 678, 747, 622, 769
909, 596, 768, 685, 811
910, 631, 681, 235, 772
911, 629, 635, 845, 904
912, 581, 731, 725, 871
913, 672, 804, 674, 865
914, 494, 78, 644, 842
915, 102, 103, 104, 642
916, 600, 802, 771, 873
917, 389, 191, 666, 846
918, 292, 728, 635, 785
919, 137, 695, 304, 887
920, 579, 773, 660, 876
921, 135, 643, 695, 781
922, 178, 710, 759, 849
923, 609, 741, 644, 800
924, 428, 337, 338, 646
925, 282, 648, 737, 756
926, 640, 703, 217, 765
927, 594, 718, 708, 792
928, 633, 590, 751, 882
929, 413, 85, 380, 657
930, 296, 94, 440, 718
931, 600, 645, 802, 873
932, 626, 580, 703, 742
933, 191, 698, 666, 846
934, 587, 670, 634, 798
935, 649, 791, 579, 824
936, 82, 31, 886, 901
937, 183, 849, 306, 892
938, 721, 789, 558, 854
939, 724, 741, 156, 850
940, 596, 624, 768, 820
941, 531, 669, 632, 809
942, 465, 677, 697, 864
943, 70, 499, 457, 784
944, 612, 593, 714, 884
945, 678, 769, 622, 795
946, 183, 762, 849, 892
947, 135, 695, 643, 830
948, 281, 737, 648, 866
949, 673, 735, 582, 810
950, 234, 233, 772, 855
951, 636, 582, 677, 766
952, 233, 738, 376, 774
953, 142, 630, 145, 743
954, 540, 649, 559, 791
955, 103, 642, 102, 752
956, 633, 751, 651, 882
957, 596, 768, 657, 820
958, 361, 643, 135, 781
959, 140, 141, 142, 785
960, 625, 824, 649, 841
961, 542, 632, 854, 872
962, 510, 86, 708, 718
963, 433, 288, 78, 842
964, 101, 320, 693, 802
965, 581, 686, 675, 871
966, 329, 623, 117, 860
967, 530, 788, 702, 854
968, 595, 637, 738, 815
969, 572, 729, 628, 803
970, 212, 211, 325, 626
971, 776, 777, 263, 863
972, 84, 721, 663, 889
973, 549, 718, 539, 872
974, 661, 699, 250, 820
975, 236, 631, 233, 774
976, 580, 664, 640, 703
977, 627, 700, 593, 732
978, 352, 635, 711, 759
979, 541, 828, 704, 898
980, 533, 721, 558, 854
981, 649, 723, 559, 791
982, 120, 329, 117, 860
983, 416, 646, 381, 784
984, 183, 184, 306, 849
985, 620, 148, 786, 793
986, 343, 348, 633, 736
987, 110, 747, 622, 814
988, 245, 244, 365, 678
989, 78, 423, 448, 644
990, 580, 638, 650, 696
991, 207, 263, 688, 863
992, 352, 826, 635, 904
993, 659, 582, 735, 810
994, 113, 115, 116, 906
995, 593, 732, 700, 739
996, 601, 801, 691, 895
997, 261, 75, 640, 733
998, 587, 670, 623, 868
999, 598, 698, 694, 838
1000, 229, 375, 232, 738
1001, 334, 750, 784, 903
1002, 411, 386, 87, 640
1003, 207, 688, 780, 907
1004, 592, 709, 706, 770
1005, 522, 700, 535, 732
1006, 156, 162, 319, 741
1007, 482, 621, 472, 744
1008, 608, 659, 751, 857
1009, 802, 859, 615, 889
1010, 666, 692, 605, 901
1011, 429, 716, 652, 852
1012, 206, 736, 688, 907
1013, 596, 820, 661, 869
1014, 367, 796, 361, 840
1015, 585, 662, 660, 876
1016, 377, 375, 130, 738
1017, 598, 687, 712, 839
1018, 594, 708, 762, 792
1019, 555, 407, 718, 727
1020, 593, 739, 734, 772
1021, 446, 831, 686, 886
1022, 340, 735, 659, 780
1023, 151, 146, 724, 850
1024, 317, 132, 133, 887
1025, 429, 34, 716, 852
1026, 308, 749, 706, 752
1027, 542, 549, 539, 872
1028, 364, 859, 802, 889
1029, 130, 377, 738, 815
1030, 657, 699, 545, 828
1031, 301, 767, 732, 836
1032, 574, 758, 645, 873
1033, 30, 812, 831, 886
1034, 591, 719, 678, 813
1035, 658, 583, 753, 905
1036, 475, 697, 647, 808
1037, 208, 688, 206, 736
1038, 533, 530, 702, 854
1039, 224, 266, 627, 836
1040, 587, 712, 687, 839
1041, 193, 691, 169, 787
1042, 670, 671, 617, 878
1043, 649, 809, 708, 841
1044, 649, 669, 809, 841
1045, 259, 77, 404, 699
1046, 590, 633, 707, 882
1047, 578, 671, 670, 844
1048, 600, 706, 709, 770
1049, 505, 451, 496, 812
1050, 407, 94, 718, 727
1051, 415, 636, 71, 745
1052, 510, 554, 560, 718
1053, 142, 144, 145, 630
1054, 446, 675, 686, 831
1055, 327, 826, 352, 904
1056, 271, 351, 166, 705
1057, 262, 733, 414, 765
1058, 433, 78, 494, 842
1059, 573, 656, 717, 832
1060, 545, 657, 828, 898
1061, 661, 663, 615, 859
1062, 325, 626, 720, 894
1063, 573, 717, 656, 782
1064, 277, 676, 146, 826
1065, 450, 495, 72, 664
1066, 526, 700, 524, 739
1067, 343, 683, 736, 833
1068, 634, 798, 575, 799
1069, 572, 748, 729, 803
1070, 343, 736, 633, 833
1071, 351, 271, 272, 705
1072, 714, 767, 227, 840
1073, 318, 747, 110, 814
1074, 594, 662, 660, 758
1075, 755, 789, 602, 817
1076, 577, 734, 685, 768
1077, 580, 703, 640, 822
1078, 582, 735, 646, 766
1079, 576, 630, 676, 826
1080, 486, 646, 745, 766
1081, 530, 632, 531, 788
1082, 396, 789, 755, 817
1083, 144, 630, 142, 785
1084, 633, 683, 874, 888
1085, 524, 526, 527, 700
1086, 609, 638, 800, 827
1087, 623, 857, 651, 860
1088, 609, 647, 644, 890
1089, 625, 849, 762, 892
1090, 615, 873, 755, 889
1091, 573, 656, 779, 862
1092, 584, 874, 683, 888
1093, 578, 779, 617, 888
1094, 608, 751, 659, 882
1095, 429, 265, 445, 652
1096, 212, 626, 325, 894
1097, 764, 857, 623, 860
1098, 169, 787, 691, 801
1099, 522, 690, 523, 739
1100, 608, 857, 751, 882
1101, 606, 655, 709, 722
1102, 592, 668, 655, 770
1103, 224, 627, 266, 877
1104, 641, 727, 94, 817
1105, 343, 683, 342, 736
1106, 706, 852, 36, 893
1107, 606, 709, 730, 771
1108, 529, 788, 704, 828
1109, 614, 667, 731, 871
1110, 645, 818, 706, 879
1111, 611, 717, 653, 797
1112, 304, 680, 219, 720
1113, 236, 235, 233, 631
1114, 111, 679, 112, 761
1115, 411, 261, 640, 765
1116, 364, 802, 755, 889
1117, 131, 815, 781, 833
1118, 641, 758, 645, 818
1119, 575, 770, 668, 799
1120, 221, 682, 220, 853
1121, 580, 650, 638, 827
1122, 603, 734, 739, 772
1123, 621, 847, 334, 903
1124, 582, 673, 646, 735
1125, 638, 609, 822, 827
1126, 667, 725, 597, 808
1127, 642, 730, 575, 770
1128, 572, 748, 713, 835
1129, 598, 712, 694, 832
1130, 281, 282, 162, 648
1131, 628, 763, 734, 794
1132, 634, 586, 668, 832
1133, 253, 445, 652, 806
1134, 575, 770, 730, 878
1135, 258, 723, 649, 824
1136, 573, 782, 656, 862
1137, 74, 690, 516, 732
1138, 317, 683, 132, 887
1139, 666, 848, 692, 901
1140, 589, 782, 653, 800
1141, 465, 697, 677, 821
1142, 580, 742, 626, 825
1143, 633, 689, 604, 888
1144, 629, 806, 676, 816
1145, 607, 632, 669, 858
1146, 213, 703, 305, 742
1147, 479, 672, 483, 766
1148, 673, 608, 754, 895
1149, 116, 760, 117, 906
1150, 624, 820, 596, 869
1151, 574, 709, 616, 758
1152, 431, 36, 852, 893
1153, 663, 702, 615, 889
1154, 117, 760, 623, 906
1155, 364, 693, 320, 802
1156, 700, 794, 791, 884
1157, 329, 117, 623, 906
1158, 588, 719, 678, 795
1159, 318, 110, 107, 814
1160, 639, 719, 577, 881
1161, 248, 245, 365, 678
1162, 325, 720, 683, 887
1163, 597, 808, 697, 864
1164, 601, 674, 754, 804
1165, 652, 692, 586, 716
1166, 95, 789, 396, 817
1167, 144, 146, 145, 630
1168, 660, 662, 625, 876
1169, 668, 799, 770, 861
1170, 675, 686, 614, 871
1171, 258, 189, 824, 892
1172, 624, 740, 243, 746
1173, 706, 752, 749, 770
1174, 267, 663, 260, 889
1175, 652, 806, 629, 816
1176, 447, 71, 636, 777
1177, 488, 621, 482, 847
1178, 609, 800, 638, 822
1179, 639, 880, 719, 881
1180, 627, 224, 767, 877
1181, 166, 752, 102, 786
1182, 650, 590, 754, 783
1183, 488, 472, 482, 621
1184, 593, 767, 714, 884
1185, 576, 629, 676, 816
1186, 581, 644, 675, 756
1187, 679, 760, 591, 769
1188, 528, 530, 531, 788
1189, 590, 696, 862, 874
1190, 458, 636, 71, 777
1191, 625, 662, 594, 762
1192, 614, 831, 812, 886
1193, 494, 489, 733, 890
1194, 331, 726, 684, 903
1195, 573, 696, 782, 862
1196, 596, 788, 702, 828
1197, 589, 648, 724, 741
1198, 364, 693, 802, 859
1199, 607, 669, 632, 851
1200, 128, 633, 689, 833
1201, 690, 739, 593, 772
1202, 602, 721, 702, 854
1203, 700, 791, 627, 884
1204, 574, 771, 685, 811
1205, 533, 532, 543, 702
1206, 247, 624, 245, 805
1207, 152, 151, 146, 724
1208, 573, 717, 782, 832
1209, 621, 744, 583, 865
1210, 689, 748, 604, 888
1211, 717, 782, 653, 797
1212, 361, 138, 135, 643
1213, 261, 733, 640, 765
1214, 334, 784, 621, 903
1215, 320, 693, 364, 859
1216, 186, 354, 356, 711
1217, 39, 94, 727, 817
1218, 629, 775, 652, 816
1219, 521, 74, 516, 732
1220, 748, 888, 689, 896
1221, 687, 761, 620, 793
1222, 526, 704, 529, 788
1223, 85, 378, 519, 699
1224, 581, 653, 638, 800
1225, 138, 135, 643, 830
1226, 500, 458, 399, 777
1227, 591, 769, 678, 795
1228, 752, 802, 600, 879
1229, 280, 165, 175, 806
1230, 606, 722, 803, 843
1231, 664, 821, 613, 829
1232, 701, 713, 599, 835
1233, 580, 696, 619, 822
1234, 440, 296, 718, 792
1235, 649, 669, 579, 791
1236, 248, 245, 678, 805
1237, 634, 668, 717, 832
1238, 367, 361, 134, 781
1239, 579, 791, 794, 884
1240, 37, 818, 706, 893
1241, 600, 752, 706, 770
1242, 416, 750, 646, 784
1243, 352, 292, 635, 826
1244, 648, 756, 741, 800
1245, 625, 649, 824, 892
1246, 694, 698, 583, 838
1247, 586, 717, 668, 832
1248, 585, 722, 701, 876
1249, 543, 663, 546, 721
1250, 689, 738, 595, 837
1251, 607, 734, 763, 794
1252, 597, 697, 677, 864
1253, 657, 699, 596, 820
1254, 474, 473, 491, 821
1255, 590, 825, 696, 874
1256, 593, 690, 732, 739
1257, 261, 75, 386, 640
1258, 606, 722, 628, 803
1259, 661, 805, 624, 820
1260, 580, 821, 664, 829
1261, 696, 825, 590, 862
1262, 623, 760, 679, 906
1263, 303, 690, 74, 732
1264, 597, 677, 697, 829
1265, 684, 726, 621, 903
1266, 476, 469, 647, 731
1267, 587, 665, 670, 868
1268, 703, 765, 640, 822
1269, 70, 381, 499, 784
1270, 262, 290, 414, 733
1271, 617, 701, 655, 843
1272, 632, 858, 758, 872
1273, 446, 675, 408, 686
1274, 508, 92, 493, 675
1275, 707, 779, 656, 862
1276, 243, 624, 246, 820
1277, 393, 681, 239, 740
1278, 167, 787, 321, 801
1279, 578, 665, 670, 779
1280, 363, 747, 360, 805
1281, 625, 824, 778, 892
1282, 285, 446, 408, 686
1283, 687, 787, 167, 801
1284, 226, 227, 767, 840
1285, 619, 589, 715, 822
1286, 496, 658, 471, 902
1287, 544, 532, 534, 828
1288, 170, 801, 684, 885
1289, 589, 741, 724, 850
1290, 352, 711, 185, 759
1291, 363, 248, 678, 805
1292, 593, 700, 627, 884
1293, 476, 731, 647, 890
1294, 136, 137, 304, 887
1295, 286, 284, 675, 756
1296, 590, 736, 633, 751
1297, 419, 74, 521, 732
1298, 411, 217, 261, 765
1299, 613, 777, 776, 863
1300, 477, 731, 476, 890
1301, 623, 679, 587, 906
1302, 631, 729, 714, 738
1303, 340, 659, 203, 780
1304, 273, 786, 148, 793
1305, 804, 838, 674, 865
1306, 639, 774, 654, 880
1307, 604, 683, 633, 888
1308, 416, 381, 70, 784
1309, 577, 624, 768, 869
1310, 684, 801, 170, 903
1311, 587, 798, 634, 839
1312, 124, 346, 345, 807
1313, 136, 695, 137, 887
1314, 586, 716, 618, 861
1315, 38, 80, 37, 818
1316, 630, 797, 724, 850
1317, 535, 522, 524, 700
1318, 596, 699, 657, 828
1319, 471, 658, 481, 744
1320, 534, 532, 788, 828
1321, 646, 672, 621, 804
1322, 254, 710, 875, 893
1323, 137, 140, 304, 680
1324, 706, 749, 36, 852
1325, 593, 794, 700, 884
1326, 575, 668, 634, 799
1327, 589, 797, 630, 850
1328, 684, 801, 601, 838
1329, 597, 674, 650, 891
1330, 578, 868, 665, 882
1331, 488, 483, 472, 784
1332, 589, 619, 715, 743
1333, 93, 451, 394, 658
1334, 580, 697, 664, 821
1335, 482, 621, 744, 847
1336, 542, 854, 549, 872
1337, 612, 714, 767, 884
1338, 82, 686, 443, 737
1339, 654, 760, 639, 880
1340, 577, 685, 719, 869
1341, 235, 233, 631, 772
1342, 584, 680, 757, 856
1343, 345, 346, 205, 751
1344, 350, 618, 749, 752
1345, 614, 667, 658, 902
1346, 483, 499, 449, 745
1347, 650, 827, 597, 891
1348, 645, 758, 616, 818
1349, 259, 260, 267, 663
1350, 586, 634, 668, 799
1351, 40, 39, 94, 727
1352, 647, 731, 644, 890
1353, 415, 735, 636, 745
1354, 539, 718, 809, 872
1355, 686, 831, 614, 886
1356, 256, 164, 806, 866
1357, 267, 84, 417, 663
1358, 414, 733, 261, 765
1359, 223, 767, 224, 877
1360, 609, 827, 647, 834
1361, 621, 784, 750, 903
1362, 246, 243, 245, 624
1363, 118, 369, 760, 813
1364, 576, 676, 630, 797
1365, 38, 645, 80, 818
1366, 600, 693, 730, 771
1367, 623, 760, 117, 860
1368, 550, 699, 544, 828
1369, 620, 786, 106, 814
1370, 607, 739, 700, 851
1371, 655, 709, 592, 770
1372, 241, 243, 740, 746
1373, 588, 730, 693, 771
1374, 363, 248, 365, 678
1375, 628, 773, 579, 884
1376, 610, 643, 796, 900
1377, 633, 874, 707, 888
1378, 735, 745, 646, 766
1379, 658, 667, 583, 744
1380, 246, 624, 245, 820
1381, 280, 445, 652, 852
1382, 553, 568, 723, 791
1383, 162, 648, 282, 756
1384, 698, 753, 583, 905
1385, 368, 639, 369, 813
1386, 628, 579, 794, 884
1387, 323, 641, 94, 817
1388, 389, 390, 83, 901
1389, 706, 709, 592, 823
1390, 281, 648, 162, 866
1391, 464, 766, 677, 864
1392, 487, 675, 831, 902
1393, 630, 680, 599, 856
1394, 532, 702, 530, 788
1395, 329, 764, 623, 860
1396, 651, 751, 345, 857
1397, 533, 530, 532, 702
1398, 144, 146, 630, 826
1399, 168, 801, 170, 885
1400, 247, 624, 805, 820
1401, 330, 764, 329, 860
1402, 572, 637, 729, 748
1403, 378, 77, 565, 699
1404, 560, 539, 549, 718
1405, 487, 731, 675, 902
1406, 368, 240, 639, 746
1407, 571, 543, 546, 721
1408, 128, 689, 127, 833
1409, 732, 767, 627, 836
1410, 561, 545, 511, 790
1411, 644, 741, 609, 842
1412, 574, 632, 811, 858
1413, 597, 697, 827, 829
1414, 648, 800, 653, 908
1415, 588, 678, 719, 869
1416, 617, 713, 748, 888
1417, 597, 827, 650, 829
1418, 438, 555, 515, 727
1419, 753, 812, 96, 886
1420, 545, 828, 541, 898
1421, 457, 499, 483, 784
1422, 168, 170, 801, 903
1423, 642, 786, 620, 814
1424, 585, 759, 710, 849
1425, 589, 724, 797, 850
1426, 621, 784, 334, 847
1427, 267, 417, 77, 663
1428, 302, 732, 230, 855
1429, 585, 710, 662, 849
1430, 614, 686, 675, 831
1431, 337, 646, 416, 750
1432, 116, 115, 117, 760
1433, 441, 280, 775, 852
1434, 654, 774, 837, 880
1435, 494, 452, 433, 733
1436, 392, 243, 246, 820
1437, 245, 624, 247, 820
1438, 363, 678, 365, 769
1439, 225, 224, 223, 767
1440, 30, 812, 29, 831
1441, 663, 721, 702, 889
1442, 579, 669, 649, 841
1443, 157, 156, 741, 850
1444, 565, 77, 517, 699
1445, 153, 148, 108, 793
1446, 621, 726, 583, 744
1447, 447, 399, 71, 777
1448, 609, 640, 765, 822
1449, 645, 706, 600, 879
1450, 585, 849, 662, 876
1451, 603, 739, 690, 772
1452, 646, 673, 582, 804
1453, 519, 550, 545, 699
1454, 552, 40, 515, 727
1455, 593, 870, 794, 884
1456, 552, 40, 727, 789
1457, 627, 767, 593, 884
1458, 633, 683, 604, 833
1459, 697, 808, 597, 827
1460, 189, 778, 824, 892
1461, 619, 703, 580, 822
1462, 369, 368, 240, 639
1463, 365, 769, 678, 813
1464, 221, 796, 682, 853
1465, 343, 348, 128, 633
1466, 365, 366, 769, 813
1467, 304, 310, 219, 680
1468, 657, 740, 392, 820
1469, 623, 587, 868, 906
1470, 610, 796, 773, 900
1471, 389, 191, 390, 698
1472, 451, 658, 496, 812
1473, 578, 748, 671, 896
1474, 598, 799, 705, 839
1475, 176, 178, 710, 759
1476, 295, 418, 718, 792
1477, 657, 768, 624, 820
1478, 583, 694, 674, 725
1479, 562, 690, 384, 819
1480, 407, 94, 296, 718
1481, 220, 682, 190, 778
1482, 483, 486, 646, 745
1483, 405, 772, 690, 855
1484, 526, 525, 704, 739
1485, 616, 709, 706, 823
1486, 160, 806, 164, 866
1487, 586, 618, 799, 861
1488, 599, 680, 630, 785
1489, 399, 458, 71, 777
1490, 660, 722, 628, 763
1491, 798, 799, 634, 839
1492, 176, 178, 177, 710
1493, 149, 693, 355, 747
1494, 145, 743, 630, 850
1495, 498, 508, 493, 675
1496, 607, 739, 734, 794
1497, 245, 243, 244, 746
1498, 480, 468, 808, 902
1499, 573, 779, 665, 862
1500, 672, 677, 582, 766
1501, 175, 176, 629, 904
1502, 587, 687, 761, 839
1503, 82, 442, 432, 737
1504, 496, 812, 658, 902
1505, 365, 678, 244, 813
1506, 729, 748, 595, 803
1507, 110, 109, 107, 814
1508, 338, 735, 673, 810
1509, 390, 753, 83, 901
1510, 463, 677, 464, 766
1511, 700, 739, 607, 794
1512, 160, 159, 724, 866
1513, 590, 688, 626, 736
1514, 587, 761, 798, 839
1515, 84, 663, 267, 889
1516, 349, 150, 274, 743
1517, 371, 637, 375, 840
1518, 348, 346, 128, 633
1519, 663, 699, 596, 828
1520, 516, 690, 522, 732
1521, 352, 147, 292, 826
1522, 254, 710, 179, 875
1523, 676, 724, 630, 797
1524, 72, 664, 495, 776
1525, 488, 784, 621, 847
1526, 82, 432, 32, 901
1527, 659, 735, 340, 810
1528, 649, 723, 791, 824
1529, 522, 523, 524, 739
1530, 781, 840, 643, 900
1531, 38, 80, 645, 817
1532, 546, 544, 517, 663
1533, 76, 514, 556, 708
1534, 307, 331, 192, 684
1535, 531, 530, 542, 632
1536, 680, 720, 304, 887
1537, 355, 693, 353, 859
1538, 579, 763, 628, 794
1539, 179, 710, 662, 875
1540, 324, 185, 181, 759
1541, 299, 664, 776, 863
1542, 577, 768, 685, 869
1543, 555, 438, 407, 727
1544, 71, 458, 383, 745
1545, 591, 671, 670, 795
1546, 617, 713, 656, 856
1547, 465, 677, 462, 821
1548, 600, 730, 642, 770
1549, 562, 74, 384, 690
1550, 572, 628, 729, 773
1551, 332, 334, 847, 903
1552, 590, 626, 688, 825
1553, 553, 700, 535, 791
1554, 612, 773, 628, 884
1555, 628, 734, 577, 870
1556, 108, 761, 620, 814
1557, 464, 677, 465, 864
1558, 477, 675, 487, 731
1559, 323, 94, 39, 817
1560, 579, 841, 625, 876
1561, 621, 601, 750, 804
1562, 691, 868, 787, 906
1563, 160, 152, 676, 724
1564, 598, 684, 698, 838
1565, 503, 455, 402, 784
1566, 562, 516, 74, 690
1567, 689, 815, 127, 833
1568, 633, 590, 707, 874
1569, 231, 229, 232, 714
1570, 639, 760, 813, 880
1571, 200, 659, 340, 810
1572, 185, 181, 759, 849
1573, 620, 575, 798, 799
1574, 480, 808, 731, 902
1575, 535, 700, 536, 791
1576, 577, 631, 681, 881
1577, 587, 679, 670, 798
1578, 247, 805, 661, 820
1579, 273, 705, 786, 793
1580, 576, 816, 668, 845
1581, 664, 703, 580, 742
1582, 184, 625, 187, 892
1583, 621, 804, 672, 865
1584, 604, 689, 633, 833
1585, 719, 880, 803, 881
1586, 343, 633, 128, 833
1587, 391, 753, 658, 812
1588, 446, 97, 831, 886
1589, 264, 224, 225, 767
1590, 637, 748, 572, 835
1591, 195, 338, 337, 673
1592, 550, 517, 544, 699
1593, 169, 321, 787, 801
1594, 601, 754, 674, 895
1595, 270, 755, 364, 802
1596, 404, 250, 699, 820
1597, 319, 283, 287, 741
1598, 612, 729, 714, 870
1599, 529, 704, 541, 828
1600, 175, 177, 278, 775
1601, 580, 697, 821, 829
1602, 545, 699, 550, 828
1603, 760, 769, 115, 813
1604, 638, 827, 650, 891
1605, 334, 750, 335, 784
1606, 354, 292, 143, 728
1607, 599, 695, 680, 830
1608, 581, 675, 686, 756
1609, 78, 286, 423, 644
1610, 338, 673, 196, 810
1611, 575, 618, 770, 799
1612, 114, 365, 366, 769
1613, 610, 778, 682, 853
1614, 545, 541, 548, 898
1615, 596, 704, 788, 828
1616, 230, 302, 301, 732
1617, 592, 706, 749, 770
1618, 590, 650, 754, 862
1619, 736, 751, 590, 907
1620, 577, 719, 685, 803
1621, 685, 719, 606, 803
1622, 359, 226, 223, 796
1623, 425, 740, 657, 790
1624, 310, 680, 142, 743
1625, 599, 713, 701, 856
1626, 549, 555, 718, 727
1627, 667, 808, 468, 902
1628, 734, 739, 593, 794
1629, 292, 785, 635, 826
1630, 422, 76, 708, 892
1631, 572, 637, 835, 900
1632, 647, 808, 697, 827
1633, 238, 239, 393, 681
1634, 297, 662, 180, 762
1635, 504, 766, 636, 867
1636, 650, 674, 582, 754
1637, 223, 682, 221, 796
1638, 573, 674, 650, 754
1639, 325, 683, 317, 887
1640, 529, 534, 788, 828
1641, 660, 773, 722, 876
1642, 573, 665, 712, 754
1643, 628, 729, 612, 870
1644, 582, 636, 735, 766
1645, 494, 448, 492, 644
1646, 487, 477, 498, 675
1647, 447, 636, 403, 780
1648, 447, 777, 636, 780
1649, 443, 285, 291, 686
1650, 330, 857, 764, 860
1651, 771, 802, 615, 873
1652, 616, 706, 645, 818
1653, 476, 477, 469, 731
1654, 193, 169, 321, 787
1655, 367, 781, 371, 840
1656, 30, 96, 812, 886
1657, 642, 752, 600, 770
1658, 655, 668, 592, 816
1659, 601, 621, 750, 903
1660, 352, 185, 324, 759
1661, 691, 764, 868, 906
1662, 584, 713, 707, 888
1663, 700, 593, 739, 794
1664, 483, 646, 486, 766
1665, 234, 231, 233, 855
1666, 678, 719, 591, 795
1667, 523, 739, 690, 898
1668, 592, 706, 775, 852
1669, 331, 332, 726, 903
1670, 653, 782, 638, 800
1671, 572, 729, 637, 900
1672, 781, 815, 604, 833
1673, 263, 776, 275, 777
1674, 572, 722, 628, 773
1675, 682, 773, 610, 796
1676, 78, 448, 494, 644
1677, 598, 698, 684, 846
1678, 530, 632, 788, 854
1679, 185, 759, 711, 849
1680, 440, 323, 439, 641
1681, 635, 701, 599, 728
1682, 481, 471, 496, 658
1683, 458, 502, 383, 745
1684, 322, 755, 645, 817
1685, 607, 811, 632, 858
1686, 556, 514, 551, 708
1687, 671, 595, 748, 803
1688, 705, 793, 598, 839
1689, 464, 479, 766, 864
1690, 77, 259, 267, 663
1691, 323, 440, 94, 641
1692, 602, 789, 721, 854
1693, 35, 716, 34, 852
1694, 236, 233, 376, 774
1695, 691, 587, 787, 868
1696, 662, 762, 297, 792
1697, 540, 551, 559, 649
1698, 244, 678, 746, 813
1699, 649, 824, 579, 841
1700, 553, 535, 536, 791
1701, 648, 611, 737, 908
1702, 224, 264, 266, 836
1703, 343, 342, 347, 736
1704, 662, 849, 625, 876
1705, 621, 672, 744, 865
1706, 180, 762, 662, 849
1707, 668, 816, 655, 845
1708, 425, 657, 380, 790
1709, 456, 497, 506, 640
1710, 630, 757, 680, 856
1711, 364, 755, 270, 889
1712, 775, 852, 706, 893
1713, 595, 729, 637, 748
1714, 447, 415, 403, 636
1715, 589, 800, 715, 822
1716, 126, 376, 738, 837
1717, 426, 72, 300, 664
1718, 526, 788, 528, 851
1719, 207, 263, 401, 780
1720, 227, 714, 230, 767
1721, 579, 660, 763, 858
1722, 631, 774, 681, 881
1723, 102, 166, 350, 752
1724, 111, 113, 679, 769
1725, 583, 725, 674, 865
1726, 648, 581, 756, 800
1727, 475, 647, 697, 834
1728, 504, 745, 636, 766
1729, 604, 748, 637, 835
1730, 585, 655, 701, 722
1731, 579, 773, 682, 884
1732, 523, 690, 819, 898
1733, 549, 727, 718, 872
1734, 579, 660, 841, 876
1735, 101, 103, 102, 752
1736, 207, 780, 401, 907
1737, 591, 813, 760, 880
1738, 396, 721, 755, 789
1739, 601, 674, 712, 895
1740, 34, 429, 67, 852
1741, 120, 760, 119, 860
1742, 153, 315, 687, 761
1743, 581, 725, 653, 908
1744, 597, 667, 864, 865
1745, 586, 716, 692, 848
1746, 787, 868, 587, 906
1747, 169, 691, 193, 897
1748, 549, 854, 727, 872
1749, 592, 706, 823, 893
1750, 332, 847, 726, 903
1751, 35, 749, 716, 852
1752, 352, 354, 185, 711
1753, 280, 652, 445, 806
1754, 258, 257, 189, 892
1755, 770, 799, 618, 861
1756, 676, 806, 629, 904
1757, 479, 472, 483, 672
1758, 241, 243, 242, 740
1759, 101, 752, 100, 879
1760, 369, 240, 372, 639
1761, 183, 762, 180, 849
1762, 604, 748, 689, 815
1763, 120, 117, 760, 860
1764, 612, 729, 628, 773
1765, 601, 691, 673, 895
1766, 618, 752, 642, 770
1767, 615, 859, 663, 889
1768, 241, 242, 239, 740
1769, 637, 781, 371, 815
1770, 753, 886, 83, 901
1771, 525, 704, 739, 898
1772, 573, 650, 674, 891
1773, 358, 643, 361, 796
1774, 731, 808, 667, 902
1775, 578, 633, 707, 888
1776, 620, 793, 705, 839
1777, 168, 170, 155, 885
1778, 261, 414, 75, 733
1779, 576, 656, 717, 797
1780, 597, 667, 808, 864
1781, 368, 746, 639, 813
1782, 361, 358, 138, 643
1783, 584, 707, 874, 888
1784, 674, 694, 583, 838
1785, 671, 748, 617, 843
1786, 72, 299, 664, 776
1787, 537, 531, 669, 851
1788, 339, 735, 415, 745
1789, 68, 34, 35, 716
1790, 577, 681, 639, 881
1791, 148, 273, 106, 786
1792, 128, 127, 129, 833
1793, 328, 764, 691, 906
1794, 325, 342, 317, 683
1795, 159, 162, 156, 866
1796, 103, 105, 104, 642
1797, 111, 112, 109, 761
1798, 676, 611, 806, 866
1799, 251, 259, 661, 859
1800, 596, 788, 704, 811
1801, 171, 801, 750, 903
1802, 584, 656, 713, 856
1803, 367, 134, 371, 781
1804, 613, 783, 688, 825
1805, 636, 766, 677, 867
1806, 411, 261, 386, 640
1807, 443, 686, 82, 886
1808, 542, 632, 530, 854
1809, 221, 190, 220, 682
1810, 119, 760, 654, 860
1811, 176, 759, 629, 904
1812, 35, 68, 716, 749
1813, 379, 699, 85, 820
1814, 682, 877, 824, 884
1815, 687, 761, 315, 787
1816, 655, 816, 592, 845
1817, 120, 117, 119, 760
1818, 579, 682, 824, 884
1819, 129, 127, 815, 833
1820, 371, 781, 637, 840
1821, 563, 553, 568, 723
1822, 504, 463, 766, 867
1823, 681, 774, 639, 881
1824, 684, 838, 601, 903
1825, 608, 810, 659, 857
1826, 338, 199, 735, 810
1827, 254, 875, 444, 893
1828, 111, 113, 112, 679
1829, 182, 180, 297, 662
1830, 633, 736, 590, 874
1831, 429, 33, 265, 692
1832, 612, 767, 682, 884
1833, 700, 794, 607, 851
1834, 389, 173, 191, 846
1835, 655, 592, 823, 845
1836, 212, 742, 626, 894
1837, 31, 83, 886, 901
1838, 403, 340, 203, 780
1839, 591, 670, 671, 844
1840, 334, 335, 750, 903
1841, 688, 736, 590, 907
1842, 465, 464, 462, 677
1843, 178, 759, 181, 849
1844, 413, 657, 392, 820
1845, 271, 705, 166, 786
1846, 682, 778, 579, 824
1847, 673, 691, 608, 895
1848, 607, 763, 811, 858
1849, 755, 802, 615, 889
1850, 573, 712, 634, 832
1851, 322, 645, 80, 817
1852, 614, 812, 753, 886
1853, 620, 705, 799, 839
1854, 587, 761, 687, 787
1855, 537, 531, 538, 669
1856, 603, 681, 740, 768
1857, 584, 720, 680, 887
1858, 711, 778, 625, 876
1859, 633, 736, 683, 833
1860, 645, 802, 344, 879
1861, 624, 661, 820, 869
1862, 605, 737, 692, 908
1863, 344, 80, 322, 645
1864, 383, 415, 71, 745
1865, 684, 598, 846, 885
1866, 92, 286, 284, 675
1867, 529, 534, 532, 788
1868, 336, 337, 416, 750
1869, 379, 85, 413, 820
1870, 645, 755, 344, 802
1871, 767, 877, 682, 884
1872, 366, 115, 769, 813
1873, 726, 847, 621, 903
1874, 533, 543, 558, 721
1875, 138, 643, 358, 853
1876, 169, 801, 691, 897
1877, 376, 774, 738, 837
1878, 526, 541, 529, 704
1879, 409, 266, 723, 877
1880, 425, 392, 657, 740
1881, 381, 646, 428, 745
1882, 212, 214, 742, 894
1883, 610, 778, 711, 876
1884, 584, 707, 696, 874
1885, 159, 156, 724, 866
1886, 587, 761, 679, 798
1887, 327, 147, 352, 826
1888, 36, 749, 35, 852
1889, 670, 795, 671, 878
1890, 182, 662, 297, 792
1891, 405, 690, 303, 855
1892, 322, 344, 645, 755
1893, 775, 816, 592, 852
1894, 343, 347, 348, 736
1895, 281, 291, 282, 737
1896, 676, 724, 611, 866
1897, 679, 761, 587, 787
1898, 329, 116, 117, 906
1899, 573, 694, 653, 891
1900, 172, 169, 193, 897
1901, 312, 443, 82, 886
1902, 168, 155, 801, 885
1903, 531, 538, 669, 809
1904, 212, 214, 213, 742
1905, 495, 664, 491, 821
1906, 263, 275, 776, 863
1907, 143, 728, 292, 785
1908, 122, 123, 121, 654
1909, 652, 816, 775, 852
1910, 708, 841, 762, 892
1911, 207, 206, 208, 688
1912, 585, 635, 701, 845
1913, 605, 653, 871, 908
1914, 153, 108, 315, 761
1915, 717, 656, 782, 797
1916, 703, 742, 214, 894
1917, 121, 654, 123, 807
1918, 463, 464, 479, 766
1919, 582, 650, 754, 783
1920, 648, 741, 589, 800
1921, 624, 678, 805, 869
1922, 725, 871, 653, 908
1923, 702, 788, 632, 854
1924, 589, 630, 743, 850
1925, 706, 616, 823, 893
1926, 573, 712, 674, 754
1927, 389, 666, 173, 846
1928, 539, 718, 560, 809
1929, 171, 750, 801, 897
1930, 353, 693, 320, 859
1931, 340, 200, 203, 659
1932, 475, 476, 647, 834
1933, 380, 392, 413, 657
1934, 270, 364, 163, 802
1935, 597, 677, 672, 864
1936, 719, 730, 606, 795
1937, 626, 619, 720, 894
1938, 604, 637, 748, 815
1939, 162, 282, 283, 756
1940, 573, 694, 674, 712
1941, 443, 686, 291, 737
1942, 607, 632, 788, 851
1943, 158, 705, 273, 793
1944, 634, 712, 587, 839
1945, 385, 690, 405, 772
1946, 330, 329, 120, 860
1947, 595, 837, 774, 880
1948, 544, 546, 543, 663
1949, 240, 239, 237, 681
1950, 636, 745, 735, 766
1951, 719, 803, 577, 881
1952, 581, 653, 800, 908
1953, 214, 703, 213, 742
1954, 622, 747, 642, 814
1955, 105, 106, 104, 814
1956, 586, 634, 799, 832
1957, 694, 725, 653, 891
1958, 589, 743, 630, 757
1959, 170, 331, 684, 903
1960, 652, 592, 816, 852
1961, 623, 764, 329, 906
1962, 358, 643, 796, 853
1963, 588, 805, 678, 869
1964, 112, 679, 326, 787
1965, 407, 438, 94, 727
1966, 207, 206, 688, 907
1967, 106, 786, 104, 814
1968, 434, 513, 721, 789
1969, 476, 469, 475, 647
1970, 361, 135, 134, 781
1971, 585, 710, 629, 823
1972, 594, 762, 708, 841
1973, 585, 629, 710, 759
1974, 365, 244, 366, 813
1975, 622, 575, 795, 798
1976, 621, 750, 646, 804
1977, 489, 452, 494, 733
1978, 561, 511, 380, 790
1979, 363, 110, 360, 747
1980, 665, 779, 707, 862
1981, 312, 686, 443, 886
1982, 194, 691, 328, 899
1983, 391, 96, 753, 812
1984, 363, 360, 248, 805
1985, 353, 355, 149, 693
1986, 306, 184, 187, 892
1987, 113, 326, 112, 679
1988, 594, 625, 762, 841
1989, 783, 825, 613, 829
1990, 158, 271, 705, 846
1991, 580, 650, 827, 829
1992, 160, 159, 152, 724
1993, 612, 773, 682, 796
1994, 693, 771, 600, 802
1995, 598, 684, 838, 885
1996, 683, 720, 626, 874
1997, 578, 665, 707, 882
1998, 582, 754, 674, 804
1999, 581, 871, 725, 908
2000, 589, 638, 800, 822
2001, 578, 707, 779, 888
2002, 588, 730, 719, 795
2003, 494, 644, 492, 890
2004, 431, 852, 775, 893
2005, 691, 764, 328, 899
2006, 38, 817, 645, 818
2007, 256, 164, 253, 806
2008, 305, 217, 411, 703
2009, 280, 441, 445, 852
2010, 91, 275, 776, 777
2011, 405, 74, 303, 690
2012, 347, 211, 208, 736
2013, 80, 645, 344, 879
2014, 573, 653, 782, 891
2015, 816, 823, 592, 845
2016, 602, 755, 721, 789
2017, 623, 591, 760, 844
2018, 612, 767, 714, 840
2019, 440, 641, 294, 792
2020, 595, 738, 729, 881
2021, 203, 659, 202, 907
2022, 123, 654, 122, 837
2023, 630, 599, 785, 856
2024, 185, 186, 184, 711
2025, 590, 862, 754, 882
2026, 583, 698, 684, 838
2027, 342, 683, 343, 833
2028, 476, 647, 834, 890
2029, 643, 840, 796, 900
2030, 324, 327, 352, 759
2031, 440, 439, 294, 641
2032, 574, 811, 763, 858
2033, 631, 714, 593, 855
2034, 304, 219, 316, 720
2035, 578, 707, 665, 779
2036, 757, 782, 656, 797
2037, 602, 702, 632, 854
2038, 592, 749, 706, 852
2039, 593, 772, 734, 870
2040, 651, 608, 857, 868
2041, 674, 754, 712, 895
2042, 570, 510, 560, 718
2043, 187, 778, 189, 892
2044, 585, 759, 635, 845
2045, 631, 593, 772, 855
2046, 688, 780, 613, 863
2047, 658, 753, 391, 905
2048, 304, 720, 316, 887
2049, 402, 784, 455, 847
2050, 708, 809, 594, 841
2051, 303, 74, 302, 732
2052, 540, 537, 538, 669
2053, 497, 640, 733, 834
2054, 737, 756, 648, 908
2055, 615, 771, 693, 802
2056, 576, 797, 630, 856
2057, 114, 366, 115, 769
2058, 638, 782, 653, 891
2059, 254, 179, 293, 875
2060, 269, 755, 721, 889
2061, 675, 614, 831, 902
2062, 387, 741, 289, 842
2063, 187, 625, 778, 892
2064, 119, 654, 121, 860
2065, 347, 342, 211, 736
2066, 475, 647, 469, 808
2067, 686, 756, 737, 908
2068, 266, 563, 69, 723
2069, 637, 729, 612, 900
2070, 450, 491, 495, 664
2071, 447, 276, 777, 780
2072, 591, 719, 671, 795
2073, 451, 658, 93, 883
2074, 200, 202, 203, 659
2075, 91, 459, 454, 776
2076, 114, 363, 365, 769
2077, 675, 731, 614, 902
2078, 353, 320, 364, 859
2079, 158, 173, 271, 846
2080, 573, 754, 650, 862
2081, 666, 698, 598, 846
2082, 604, 637, 781, 835
2083, 616, 875, 710, 893
2084, 659, 751, 202, 907
2085, 750, 801, 601, 903
2086, 592, 709, 655, 823
2087, 272, 389, 388, 666
2088, 439, 641, 323, 818
2089, 605, 686, 737, 908
2090, 646, 750, 621, 784
2091, 562, 384, 89, 819
2092, 603, 704, 657, 898
2093, 392, 380, 425, 657
2094, 69, 563, 518, 723
2095, 580, 638, 696, 822
2096, 458, 461, 504, 636
2097, 521, 88, 419, 732
2098, 337, 381, 416, 646
2099, 632, 602, 854, 872
2100, 590, 659, 751, 882
2101, 614, 731, 667, 902
2102, 431, 36, 35, 852
2103, 179, 180, 182, 662
2104, 367, 359, 361, 796
2105, 175, 278, 280, 775
2106, 287, 644, 78, 842
2107, 584, 757, 656, 856
2108, 194, 193, 328, 691
2109, 439, 641, 818, 875
2110, 300, 664, 299, 742
2111, 495, 776, 664, 821
2112, 631, 729, 738, 881
2113, 270, 163, 755, 802
2114, 624, 596, 768, 869
2115, 672, 766, 582, 804
2116, 37, 430, 818, 893
2117, 264, 767, 301, 836
2118, 562, 523, 690, 819
2119, 708, 718, 594, 809
2120, 469, 647, 731, 808
2121, 526, 525, 541, 704
2122, 38, 322, 80, 817
2123, 707, 862, 696, 874
2124, 629, 592, 816, 823
2125, 608, 691, 673, 899
2126, 277, 160, 152, 676
2127, 396, 755, 322, 817
2128, 646, 582, 766, 804
2129, 658, 583, 726, 744
2130, 657, 704, 603, 768
2131, 565, 550, 519, 699
2132, 302, 303, 732, 855
2133, 654, 123, 807, 837
2134, 144, 630, 785, 826
2135, 271, 273, 705, 786
2136, 671, 719, 606, 878
2137, 537, 669, 540, 791
2138, 131, 371, 781, 815
2139, 342, 132, 683, 833
2140, 193, 787, 326, 906
2141, 590, 736, 626, 874
2142, 586, 799, 668, 861
2143, 682, 773, 612, 884
2144, 620, 799, 798, 839
2145, 572, 773, 729, 900
2146, 193, 326, 328, 906
2147, 146, 151, 145, 850
2148, 579, 669, 841, 858
2149, 643, 728, 610, 853
2150, 475, 697, 474, 834
2151, 390, 753, 698, 905
2152, 601, 674, 804, 838
2153, 95, 396, 322, 817
2154, 320, 149, 103, 693
2155, 683, 626, 736, 874
2156, 223, 226, 225, 767
2157, 179, 662, 182, 875
2158, 71, 415, 447, 636
2159, 362, 288, 433, 733
2160, 295, 418, 86, 718
2161, 609, 715, 800, 822
2162, 234, 772, 405, 855
2163, 122, 774, 374, 837
2164, 272, 666, 388, 848
2165, 362, 433, 452, 733
2166, 227, 230, 301, 767
2167, 91, 424, 459, 776
2168, 593, 714, 631, 870
2169, 338, 196, 199, 810
2170, 593, 631, 772, 870
2171, 611, 724, 648, 866
2172, 119, 118, 369, 760
2173, 470, 667, 471, 744
2174, 708, 649, 841, 892
2175, 640, 733, 609, 765
2176, 258, 311, 723, 824
2177, 592, 823, 775, 893
2178, 104, 166, 102, 786
2179, 271, 166, 273, 786
2180, 684, 601, 801, 903
2181, 637, 729, 595, 738
2182, 589, 715, 741, 850
2183, 629, 823, 816, 845
2184, 673, 691, 601, 897
2185, 601, 801, 750, 897
2186, 205, 751, 206, 907
2187, 247, 249, 661, 805
2188, 135, 695, 133, 781
2189, 590, 862, 707, 874
2190, 338, 195, 196, 673
2191, 582, 650, 783, 829
2192, 671, 795, 719, 878
2193, 751, 857, 651, 882
2194, 557, 732, 535, 836
2195, 31, 82, 32, 901
2196, 588, 747, 678, 805
2197, 185, 711, 184, 849
2198, 439, 294, 641, 875
2199, 599, 728, 643, 830
2200, 140, 142, 310, 680
2201, 729, 773, 612, 900
2202, 610, 796, 643, 853
2203, 580, 696, 650, 825
2204, 246, 245, 247, 820
2205, 587, 712, 665, 895
2206, 628, 577, 803, 870
2207, 658, 753, 614, 812
2208, 599, 713, 695, 835
2209, 438, 515, 40, 727
2210, 629, 585, 823, 845
2211, 404, 699, 379, 820
2212, 91, 263, 275, 777
2213, 607, 704, 788, 811
2214, 113, 326, 679, 906
2215, 695, 713, 604, 835
2216, 222, 824, 682, 877
2217, 73, 380, 511, 790
2218, 573, 674, 694, 891
2219, 122, 121, 119, 654
2220, 598, 705, 666, 846
2221, 394, 391, 658, 812
2222, 585, 629, 759, 845
2223, 706, 818, 616, 893
2224, 347, 208, 206, 736
2225, 257, 76, 422, 892
2226, 30, 96, 29, 812
2227, 300, 299, 213, 742
2228, 226, 228, 227, 840
2229, 609, 644, 842, 890
2230, 272, 173, 389, 666
2231, 573, 782, 653, 832
2232, 479, 672, 766, 864
2233, 620, 798, 761, 839
2234, 487, 675, 493, 831
2235, 341, 807, 651, 860
2236, 223, 222, 682, 877
2237, 642, 752, 618, 786
2238, 461, 636, 458, 777
2239, 326, 787, 679, 906
2240, 626, 825, 590, 874
2241, 222, 221, 223, 682
2242, 263, 777, 276, 780
2243, 653, 694, 573, 832
2244, 592, 775, 706, 893
2245, 402, 334, 784, 847
2246, 646, 750, 673, 804
2247, 360, 747, 355, 805
2248, 635, 585, 711, 759
2249, 169, 167, 321, 801
2250, 562, 89, 520, 819
2251, 523, 522, 516, 690
2252, 389, 388, 666, 901
2253, 342, 343, 132, 833
2254, 632, 809, 858, 872
2255, 324, 181, 178, 759
2256, 674, 725, 694, 891
2257, 714, 729, 631, 870
2258, 585, 701, 655, 845
2259, 171, 168, 801, 903
2260, 503, 402, 406, 784
2261, 496, 451, 481, 658
2262, 357, 728, 139, 830
2263, 381, 337, 428, 646
2264, 594, 858, 809, 872
2265, 235, 234, 233, 772
2266, 595, 748, 689, 896
2267, 552, 437, 40, 789
2268, 630, 797, 757, 856
2269, 589, 741, 715, 800
2270, 523, 819, 566, 898
2271, 440, 294, 296, 792
2272, 588, 719, 685, 869
2273, 635, 759, 629, 845
2274, 516, 522, 521, 732
2275, 673, 750, 601, 804
2276, 434, 513, 571, 721
2277, 591, 671, 719, 880
2278, 685, 768, 596, 869
2279, 653, 782, 717, 832
2280, 29, 812, 490, 831
2281, 555, 560, 549, 718
2282, 555, 570, 560, 718
2283, 254, 177, 710, 775
2284, 213, 214, 305, 703
2285, 473, 495, 491, 821
2286, 630, 743, 680, 757
2287, 98, 706, 37, 879
2288, 122, 372, 374, 774
2289, 589, 757, 630, 797
2290, 602, 789, 727, 817
2291, 105, 318, 107, 814
2292, 576, 629, 816, 845
2293, 385, 690, 772, 819
2294, 573, 665, 754, 862
2295, 690, 603, 819, 898
2296, 518, 569, 410, 723
2297, 579, 841, 660, 858
2298, 255, 192, 331, 905
2299, 592, 629, 775, 823
2300, 112, 761, 679, 787
2301, 178, 181, 180, 849
2302, 157, 741, 715, 850
2303, 702, 788, 596, 811
2304, 310, 150, 349, 743
2305, 487, 498, 493, 675
2306, 126, 376, 377, 738
2307, 315, 761, 112, 787
2308, 609, 842, 733, 890
2309, 493, 675, 395, 831
2310, 645, 817, 641, 818
2311, 29, 490, 453, 831
2312, 128, 125, 127, 689
2313, 395, 493, 92, 675
2314, 640, 609, 733, 834
2315, 371, 375, 228, 840
2316, 390, 698, 252, 905
2317, 620, 761, 687, 839
2318, 277, 174, 160, 676
2319, 284, 408, 92, 675
2320, 573, 694, 712, 832
2321, 651, 608, 868, 882
2322, 614, 658, 812, 902
2323, 233, 232, 376, 738
2324, 517, 550, 565, 699
2325, 483, 449, 486, 745
2326, 497, 506, 640, 834
2327, 255, 331, 726, 905
2328, 350, 749, 308, 752
2329, 749, 752, 618, 770
2330, 690, 739, 603, 898
2331, 632, 809, 669, 858
2332, 318, 149, 355, 747
2333, 689, 807, 125, 837
2334, 91, 776, 454, 777
2335, 396, 721, 269, 755
2336, 609, 834, 647, 890
2337, 657, 740, 603, 790
2338, 673, 601, 750, 897
2339, 236, 372, 237, 774
2340, 99, 101, 100, 879
2341, 682, 796, 610, 853
2342, 199, 340, 735, 810
2343, 226, 796, 359, 840
2344, 313, 753, 96, 886
2345, 620, 786, 705, 793
2346, 204, 205, 206, 907
2347, 167, 153, 687, 885
2348, 603, 657, 790, 898
2349, 658, 726, 583, 905
2350, 635, 728, 599, 785
2351, 277, 174, 676, 904
2352, 167, 155, 153, 885
2353, 584, 683, 720, 887
2354, 269, 270, 755, 889
2355, 408, 675, 284, 756
2356, 650, 590, 825, 862
2357, 631, 577, 870, 881
2358, 114, 115, 113, 769
2359, 99, 802, 101, 879
2360, 545, 548, 511, 790
2361, 461, 504, 636, 867
2362, 626, 742, 703, 894
2363, 118, 368, 369, 813
2364, 431, 775, 279, 893
2365, 477, 476, 492, 890
2366, 254, 293, 444, 875
2367, 728, 830, 357, 853
2368, 356, 354, 143, 728
2369, 138, 830, 643, 853
2370, 247, 661, 250, 820
2371, 446, 686, 312, 886
2372, 468, 471, 470, 667
2373, 72, 299, 300, 664
2374, 624, 740, 657, 820
2375, 469, 731, 480, 808
2376, 357, 143, 139, 728
2377, 108, 109, 761, 814
2378, 475, 478, 476, 834
2379, 444, 875, 818, 893
2380, 596, 657, 768, 828
2381, 671, 803, 719, 880
2382, 578, 671, 844, 896
2383, 183, 297, 180, 762
2384, 523, 516, 562, 690
2385, 649, 625, 841, 892
2386, 526, 529, 528, 788
2387, 606, 719, 671, 803
2388, 704, 734, 607, 739
2389, 97, 30, 831, 886
2390, 36, 706, 308, 749
2391, 299, 742, 664, 863
2392, 90, 381, 428, 745
2393, 507, 75, 362, 733
2394, 373, 510, 86, 708
2395, 98, 308, 36, 706
2396, 536, 791, 700, 851
2397, 660, 722, 585, 876
2398, 325, 316, 720, 887
2399, 687, 801, 167, 885
2400, 576, 717, 668, 816
2401, 395, 675, 446, 831
2402, 321, 315, 112, 787
2403, 670, 795, 575, 798
2404, 158, 271, 273, 705
2405, 595, 774, 738, 881
2406, 469, 480, 468, 808
2407, 623, 844, 654, 860
2408, 641, 817, 323, 818
2409, 581, 648, 756, 908
2410, 673, 196, 810, 899
2411, 551, 514, 559, 649
2412, 586, 652, 716, 861
2413, 238, 235, 681, 772
2414, 541, 704, 525, 898
2415, 309, 34, 716, 848
2416, 294, 792, 641, 875
2417, 504, 486, 745, 766
2418, 222, 190, 682, 824
2419, 536, 700, 527, 851
2420, 249, 360, 355, 805
2421, 481, 658, 451, 883
2422, 589, 638, 782, 800
2423, 485, 831, 812, 902
2424, 123, 125, 807, 837
2425, 679, 787, 587, 906
2426, 629, 759, 635, 904
2427, 704, 768, 657, 828
2428, 629, 592, 775, 816
2429, 192, 252, 191, 698
2430, 719, 795, 606, 878
2431, 596, 768, 704, 828
2432, 525, 739, 523, 898
2433, 463, 677, 766, 867
2434, 408, 446, 395, 675
2435, 409, 266, 69, 723
2436, 36, 431, 279, 893
2437, 157, 715, 314, 850
2438, 606, 795, 730, 878
2439, 83, 753, 313, 886
2440, 155, 167, 801, 885
2441, 73, 425, 380, 790
2442, 219, 215, 720, 894
2443, 609, 733, 834, 890
2444, 348, 347, 206, 736
2445, 145, 314, 150, 850
2446, 145, 150, 743, 850
2447, 388, 848, 666, 901
2448, 196, 673, 195, 899
2449, 219, 216, 215, 894
2450, 662, 758, 594, 792
2451, 463, 462, 464, 677
2452, 658, 481, 744, 883
2453, 657, 603, 740, 768
2454, 512, 553, 563, 836
2455, 359, 223, 221, 796
2456, 738, 774, 631, 881
2457, 254, 775, 710, 893
2458, 617, 843, 655, 878
2459, 310, 142, 150, 743
2460, 607, 788, 632, 811
2461, 97, 446, 312, 886
2462, 254, 278, 177, 775
2463, 529, 541, 534, 828
2464, 709, 730, 600, 770
2465, 600, 730, 709, 771
2466, 88, 301, 732, 836
2467, 624, 805, 661, 869
2468, 391, 93, 394, 658
2469, 609, 715, 741, 800
2470, 460, 777, 776, 867
2471, 641, 727, 602, 872
2472, 619, 765, 703, 822
2473, 84, 269, 721, 889
2474, 141, 144, 142, 785
2475, 252, 390, 191, 698
2476, 434, 571, 84, 721
2477, 521, 557, 88, 732
2478, 194, 195, 897, 899
2479, 447, 403, 276, 780
2480, 356, 728, 357, 853
2481, 599, 785, 728, 830
2482, 199, 200, 340, 810
2483, 342, 132, 317, 683
2484, 160, 164, 159, 866
2485, 554, 708, 551, 809
2486, 387, 715, 157, 741
2487, 108, 107, 109, 814
2488, 170, 332, 331, 903
2489, 485, 490, 812, 831
2490, 325, 720, 215, 894
2491, 269, 721, 396, 789
2492, 31, 83, 313, 886
2493, 488, 455, 784, 847
2494, 126, 689, 125, 837
2495, 142, 145, 150, 743
2496, 118, 760, 115, 813
2497, 251, 259, 250, 661
2498, 438, 40, 94, 727
2499, 662, 710, 616, 875
2500, 575, 795, 670, 878
2501, 578, 888, 748, 896
2502, 643, 599, 830, 835
2503, 585, 711, 759, 849
2504, 252, 698, 192, 905
2505, 695, 830, 599, 835
2506, 204, 751, 205, 907
2507, 712, 754, 665, 895
2508, 584, 720, 683, 874
2509, 537, 669, 791, 851
2510, 176, 327, 759, 904
2511, 624, 657, 740, 768
2512, 673, 897, 195, 899
2513, 641, 594, 758, 792
2514, 442, 82, 443, 737
2515, 214, 216, 703, 894
2516, 648, 737, 611, 866
2517, 299, 776, 275, 863
2518, 374, 774, 376, 837
2519, 335, 750, 416, 784
2520, 611, 724, 676, 797
2521, 650, 825, 696, 862
2522, 37, 706, 36, 893
2523, 287, 286, 78, 644
2524, 302, 74, 419, 732
2525, 651, 857, 341, 860
2526, 126, 127, 125, 689
2527, 558, 789, 547, 854
2528, 84, 267, 268, 889
2529, 613, 780, 688, 783
2530, 594, 758, 660, 858
2531, 637, 840, 781, 900
2532, 803, 870, 577, 881
2533, 297, 762, 418, 792
2534, 593, 732, 690, 855
2535, 615, 802, 693, 859
2536, 585, 711, 849, 876
2537, 595, 803, 671, 880
2538, 601, 712, 674, 838
2539, 485, 453, 490, 831
2540, 158, 273, 148, 793
2541, 764, 857, 608, 868
2542, 167, 153, 315, 687
2543, 500, 461, 458, 777
2544, 350, 308, 100, 752
2545, 462, 677, 463, 867
2546, 309, 68, 351, 716
2547, 654, 844, 760, 880
2548, 637, 612, 840, 900
2549, 220, 190, 188, 778
2550, 404, 379, 250, 820
2551, 760, 844, 591, 880
2552, 37, 36, 430, 893
2553, 138, 357, 830, 853
2554, 573, 782, 638, 891
2555, 390, 391, 753, 905
2556, 654, 837, 595, 880
2557, 427, 883, 658, 905
2558, 604, 781, 637, 815
2559, 641, 792, 758, 875
2560, 758, 792, 662, 875
2561, 234, 385, 405, 772
2562, 485, 487, 831, 902
2563, 668, 770, 592, 861
2564, 384, 690, 385, 819
2565, 130, 127, 377, 815
2566, 677, 766, 672, 864
2567, 713, 748, 604, 835
2568, 667, 583, 744, 865
2569, 706, 752, 600, 879
2570, 622, 798, 761, 814
2571, 339, 428, 735, 745
2572, 134, 135, 133, 781
2573, 625, 841, 660, 876
2574, 549, 515, 555, 727
2575, 605, 886, 753, 901
2576, 602, 727, 641, 817
2577, 393, 239, 242, 740
2578, 606, 655, 722, 843
2579, 324, 176, 327, 759
2580, 207, 209, 263, 863
2581, 390, 252, 391, 905
2582, 660, 758, 574, 858
2583, 633, 683, 736, 874
2584, 660, 841, 594, 858
2585, 367, 359, 796, 840
2586, 418, 298, 708, 762
2587, 628, 794, 734, 870
2588, 646, 766, 672, 804
2589, 592, 770, 749, 861
2590, 258, 311, 410, 723
2591, 726, 883, 255, 905
2592, 231, 230, 714, 855
2593, 568, 559, 723, 791
2594, 368, 241, 240, 746
2595, 677, 821, 697, 829
2596, 216, 217, 214, 703
2597, 654, 807, 121, 860
2598, 203, 780, 659, 907
2599, 604, 748, 713, 888
2600, 290, 387, 289, 842
2601, 594, 792, 641, 872
2602, 309, 33, 34, 848
2603, 679, 761, 622, 798
2604, 729, 870, 803, 881
2605, 131, 130, 371, 815
2606, 158, 705, 793, 846
2607, 385, 384, 405, 690
2608, 356, 143, 357, 728
2609, 518, 563, 568, 723
2610, 334, 333, 335, 903
2611, 247, 249, 250, 661
2612, 562, 52, 89, 384
2613, 136, 133, 695, 887
2614, 603, 734, 704, 739
2615, 562, 520, 523, 819
2616, 186, 185, 354, 711
2617, 364, 320, 163, 802
2618, 480, 731, 487, 902
2619, 641, 792, 718, 872
2620, 330, 341, 857, 860
2621, 641, 758, 818, 875
2622, 151, 724, 156, 850
2623, 157, 156, 319, 741
2624, 81, 37, 430, 818
2625, 474, 475, 465, 697
2626, 590, 659, 783, 907
2627, 428, 338, 339, 735
2628, 307, 170, 331, 684
2629, 581, 756, 686, 908
2630, 708, 762, 298, 892
2631, 301, 264, 225, 767
2632, 485, 812, 496, 902
2633, 81, 444, 818, 893
2634, 594, 718, 792, 872
2635, 194, 897, 691, 899
2636, 482, 847, 744, 883
2637, 124, 125, 346, 807
2638, 749, 770, 618, 861
2639, 129, 815, 131, 833
2640, 85, 379, 378, 699
2641, 468, 471, 667, 902
2642, 674, 712, 694, 838
2643, 643, 830, 695, 835
2644, 572, 722, 701, 843
2645, 583, 674, 838, 865
2646, 358, 796, 221, 853
2647, 175, 174, 176, 904
2648, 655, 843, 606, 878
2649, 781, 835, 637, 900
2650, 355, 353, 251, 859
2651, 660, 574, 763, 858
2652, 366, 118, 115, 813
2653, 384, 74, 405, 690
2654, 669, 809, 594, 858
2655, 655, 701, 722, 843
2656, 190, 778, 682, 824
2657, 111, 114, 113, 769
2658, 568, 540, 559, 791
2659, 547, 552, 727, 789
2660, 475, 474, 478, 834
2661, 198, 200, 810, 857
2662, 620, 761, 798, 814
2663, 507, 362, 452, 733
2664, 654, 760, 623, 860
2665, 140, 310, 304, 680
2666, 137, 695, 135, 830
2667, 594, 758, 858, 872
2668, 476, 834, 478, 890
2669, 178, 179, 177, 710
2670, 461, 636, 777, 867
2671, 408, 284, 285, 756
2672, 126, 374, 376, 837
2673, 616, 818, 758, 875
2674, 427, 255, 883, 905
2675, 238, 235, 237, 681
2676, 170, 684, 307, 885
2677, 84, 268, 269, 889
2678, 550, 544, 534, 828
2679, 30, 313, 96, 886
2680, 547, 789, 727, 854
2681, 243, 392, 242, 740
2682, 619, 715, 765, 822
2683, 467, 672, 479, 864
2684, 595, 880, 774, 881
2685, 95, 40, 437, 789
2686, 67, 445, 441, 852
2687, 323, 817, 38, 818
2688, 81, 818, 430, 893
2689, 37, 98, 36, 706
2690, 581, 800, 648, 908
2691, 636, 777, 613, 780
2692, 462, 821, 677, 867
2693, 639, 774, 880, 881
2694, 536, 537, 791, 851
2695, 98, 37, 80, 879
2696, 604, 815, 689, 833
2697, 459, 424, 72, 776
2698, 606, 803, 671, 843
2699, 645, 600, 802, 879
2700, 397, 269, 396, 789
2701, 325, 316, 215, 720
2702, 616, 758, 662, 875
2703, 738, 774, 595, 837
2704, 198, 197, 857, 899
2705, 89, 520, 52, 562
2706, 655, 823, 585, 845
2707, 314, 157, 387, 715
2708, 574, 685, 763, 811
2709, 400, 295, 86, 718
2710, 93, 658, 427, 883
2711, 489, 834, 733, 890
2712, 153, 793, 687, 885
2713, 460, 454, 776, 777
2714, 592, 852, 652, 861
2715, 626, 742, 688, 825
2716, 704, 734, 603, 768
2717, 133, 135, 136, 695
2718, 690, 772, 593, 855
2719, 647, 827, 697, 834
2720, 623, 760, 654, 844
2721, 694, 712, 598, 838
2722, 626, 696, 825, 874
2723, 554, 551, 538, 809
2724, 591, 769, 760, 813
2725, 460, 776, 821, 867
2726, 580, 638, 822, 827
2727, 590, 783, 650, 825
2728, 353, 149, 320, 693
2729, 436, 490, 29, 812
2730, 667, 725, 583, 865
2731, 99, 344, 802, 879
2732, 373, 86, 418, 708
2733, 231, 230, 229, 714
2734, 659, 590, 751, 907
2735, 287, 289, 741, 842
2736, 250, 249, 251, 661
2737, 198, 201, 200, 857
2738, 136, 135, 137, 695
2739, 539, 560, 554, 809
2740, 137, 139, 140, 830
2741, 597, 725, 667, 865
2742, 187, 186, 188, 778
2743, 775, 823, 710, 893
2744, 29, 97, 30, 831
2745, 72, 275, 299, 776
2746, 480, 477, 487, 731
2747, 773, 796, 612, 900
2748, 627, 877, 767, 884
2749, 818, 875, 616, 893
2750, 157, 151, 156, 850
2751, 441, 280, 278, 775
2752, 590, 783, 688, 907
2753, 227, 229, 230, 714
2754, 566, 819, 790, 898
2755, 404, 77, 378, 699
2756, 726, 847, 420, 883
2757, 359, 358, 361, 796
2758, 497, 733, 489, 834
2759, 526, 524, 525, 739
2760, 552, 515, 547, 727
2761, 595, 803, 880, 881
2762, 755, 802, 645, 873
2763, 522, 535, 557, 732
2764, 444, 81, 818, 875
2765, 194, 195, 172, 897
2766, 664, 613, 776, 863
2767, 470, 471, 481, 744
2768, 669, 594, 809, 841
2769, 762, 841, 625, 892
2770, 255, 726, 420, 883
2771, 685, 771, 588, 869
2772, 101, 163, 320, 802
2773, 616, 710, 823, 893
2774, 262, 414, 261, 765
2775, 518, 410, 69, 723
2776, 594, 641, 758, 872
2777, 239, 238, 237, 681
2778, 628, 803, 729, 870
2779, 525, 524, 523, 739
2780, 564, 790, 566, 819
2781, 483, 486, 479, 766
2782, 114, 111, 363, 769
2783, 618, 786, 705, 799
2784, 333, 750, 335, 903
2785, 182, 662, 792, 875
2786, 391, 96, 313, 753
2787, 549, 547, 727, 854
2788, 705, 786, 620, 799
2789, 68, 308, 350, 749
2790, 592, 652, 816, 861
2791, 636, 613, 777, 867
2792, 197, 764, 857, 899
2793, 396, 269, 270, 755
2794, 518, 559, 569, 723
2795, 553, 557, 535, 836
2796, 93, 391, 427, 658
2797, 613, 664, 776, 821
2798, 244, 746, 368, 813
2799, 425, 393, 740, 790
2800, 373, 556, 510, 708
2801, 513, 558, 721, 789
2802, 296, 295, 718, 792
2803, 328, 764, 197, 899
2804, 247, 245, 248, 805
2805, 557, 88, 732, 836
2806, 222, 190, 221, 682
2807, 710, 775, 629, 823
2808, 609, 765, 715, 822
2809, 595, 671, 748, 896
2810, 688, 783, 780, 907
2811, 482, 744, 481, 883
2812, 536, 568, 553, 791
2813, 643, 830, 728, 853
2814, 339, 338, 199, 735
2815, 466, 808, 468, 864
2816, 325, 317, 316, 887
2817, 301, 302, 88, 732
2818, 603, 772, 690, 819
2819, 422, 708, 298, 892
2820, 490, 1, 29, 453
2821, 515, 2, 40, 552
2822, 605, 871, 753, 886
2823, 467, 466, 468, 864
2824, 472, 479, 467, 672
2825, 652, 852, 716, 861
2826, 776, 777, 613, 867
2827, 287, 289, 319, 741
2828, 334, 406, 402, 784
2829, 8, 402, 503, 455
2830, 608, 691, 764, 868
2831, 715, 589, 743, 850
2832, 35, 34, 67, 852
2833, 154, 846, 793, 885
2834, 36, 308, 35, 749
2835, 227, 225, 226, 767
2836, 513, 567, 558, 789
2837, 442, 443, 291, 737
2838, 203, 202, 204, 907
2839, 367, 226, 359, 840
2840, 152, 156, 151, 724
2841, 695, 781, 643, 835
2842, 707, 862, 590, 882
2843, 598, 793, 705, 846
2844, 537, 528, 531, 851
2845, 194, 328, 197, 899
2846, 312, 82, 31, 886
2847, 339, 340, 415, 735
2848, 580, 827, 697, 829
2849, 439, 818, 81, 875
2850, 597, 725, 865, 891
2851, 251, 260, 259, 859
2852, 662, 594, 762, 792
2853, 572, 835, 643, 900
2854, 535, 527, 536, 700
2855, 615, 802, 755, 873
2856, 454, 500, 15, 777
2857, 444, 439, 81, 875
2858, 674, 865, 725, 891
2859, 488, 455, 503, 784
2860, 432, 265, 33, 692
2861, 409, 224, 266, 877
2862, 141, 143, 292, 785
2863, 120, 119, 121, 860
2864, 134, 131, 371, 781
2865, 358, 221, 220, 853
2866, 275, 424, 91, 776
2867, 595, 729, 803, 881
2868, 549, 542, 547, 854
2869, 661, 805, 588, 869
2870, 662, 762, 625, 849
2871, 464, 465, 466, 864
2872, 101, 99, 163, 802
2873, 665, 754, 608, 895
2874, 129, 131, 132, 833
2875, 198, 857, 810, 899
2876, 497, 489, 478, 834
2877, 168, 155, 167, 801
2878, 407, 65, 555, 570
2879, 187, 189, 257, 892
2880, 613, 821, 677, 829
2881, 488, 482, 455, 847
2882, 364, 260, 859, 889
2883, 399, 15, 500, 777
2884, 608, 754, 665, 882
2885, 238, 385, 235, 772
2886, 277, 676, 826, 904
2887, 509, 451, 93, 883
2888, 597, 865, 674, 891
2889, 279, 775, 254, 893
2890, 176, 324, 178, 759
2891, 311, 824, 222, 877
2892, 590, 688, 783, 825
2893, 812, 831, 614, 902
2894, 460, 461, 777, 867
2895, 81, 430, 444, 893
2896, 691, 587, 868, 895
2897, 525, 523, 566, 898
2898, 316, 219, 215, 720
2899, 716, 852, 749, 861
2900, 591, 678, 769, 813
2901, 408, 395, 92, 675
2902, 332, 420, 726, 847
2903, 443, 312, 446, 686
2904, 244, 243, 241, 746
2905, 459, 72, 495, 776
2906, 608, 691, 868, 895
2907, 597, 864, 672, 865
2908, 650, 580, 825, 829
2909, 605, 686, 871, 886
2910, 134, 133, 131, 781
2911, 288, 733, 290, 842
2912, 594, 841, 669, 858
2913, 169, 171, 801, 897
2914, 197, 764, 330, 857
2915, 687, 793, 620, 839
2916, 158, 793, 154, 846
2917, 253, 280, 445, 806
2918, 520, 89, 382, 819
2919, 727, 854, 602, 872
2920, 449, 90, 502, 745
2921, 400, 407, 296, 718
2922, 753, 871, 614, 886
2923, 155, 170, 307, 885
2924, 285, 443, 446, 686
2925, 287, 78, 288, 842
2926, 46, 565, 378, 77
2927, 523, 520, 566, 819
2928, 589, 782, 757, 797
2929, 373, 418, 298, 708
2930, 144, 147, 146, 826
2931, 123, 126, 125, 837
2932, 212, 325, 215, 894
2933, 165, 164, 160, 806
2934, 222, 311, 190, 824
2935, 519, 561, 48, 85
2936, 256, 737, 281, 866
2937, 536, 537, 540, 791
2938, 50, 73, 511, 790
2939, 277, 826, 327, 904
2940, 499, 11, 449, 90
2941, 210, 742, 299, 863
2942, 654, 595, 837, 896
2943, 420, 847, 79, 883
2944, 625, 849, 711, 876
2945, 90, 502, 12, 449
2946, 277, 147, 327, 826
2947, 177, 179, 254, 710
2948, 171, 333, 168, 903
2949, 38, 323, 39, 817
2950, 244, 368, 366, 813
2951, 154, 793, 153, 885
2952, 608, 651, 857, 882
2953, 387, 157, 289, 741
2954, 643, 835, 781, 900
2955, 671, 843, 617, 878
2956, 565, 46, 517, 77
2957, 163, 344, 755, 802
2958, 460, 461, 454, 777
2959, 395, 446, 97, 831
2960, 548, 566, 790, 898
2961, 295, 297, 418, 792
2962, 598, 793, 687, 839
2963, 202, 751, 204, 907
2964, 427, 658, 391, 905
2965, 504, 486, 502, 745
2966, 726, 744, 621, 847
2967, 274, 262, 218, 765
2968, 420, 331, 332, 726
2969, 595, 654, 880, 896
2970, 677, 821, 613, 867
2971, 217, 305, 214, 703
2972, 665, 862, 707, 882
2973, 453, 485, 487, 831
2974, 702, 632, 788, 811
2975, 595, 880, 671, 896
2976, 520, 382, 564, 819
2977, 776, 613, 821, 867
2978, 80, 344, 99, 879
2979, 493, 435, 453, 831
2980, 158, 154, 161, 846
2981, 558, 547, 533, 854
2982, 592, 749, 852, 861
2983, 608, 673, 810, 899
2984, 203, 401, 780, 907
2985, 606, 843, 671, 878
2986, 754, 862, 665, 882
2987, 499, 381, 11, 90
2988, 254, 279, 278, 775
2989, 543, 571, 513, 721
2990, 101, 102, 100, 752
2991, 548, 566, 564, 790
2992, 181, 185, 184, 849
2993, 50, 511, 564, 790
2994, 384, 562, 53, 74
2995, 665, 608, 868, 895
2996, 691, 801, 601, 897
2997, 212, 213, 210, 742
2998, 524, 527, 535, 700
2999, 434, 84, 269, 721
3000, 468, 480, 471, 902
3001, 152, 159, 156, 724
3002, 718, 727, 641, 872
3003, 427, 255, 370, 883
3004, 339, 415, 383, 745
3005, 507, 21, 75, 456
3006, 458, 13, 71, 383
3007, 482, 472, 470, 744
3008, 268, 267, 260, 889
3009, 587, 665, 868, 895
3010, 658, 744, 726, 883
3011, 594, 809, 718, 872
3012, 504, 463, 486, 766
3013, 90, 383, 502, 745
3014, 171, 750, 333, 903
3015, 370, 255, 420, 883
3016, 459, 454, 16, 91
3017, 575, 730, 795, 878
3018, 362, 290, 288, 733
3019, 516, 53, 562, 74
3020, 8, 402, 406, 503
3021, 727, 789, 602, 854
3022, 51, 382, 520, 89
3023, 603, 739, 704, 898
3024, 329, 330, 197, 764
3025, 121, 123, 124, 807
3026, 97, 312, 30, 886
3027, 401, 263, 276, 780
3028, 309, 34, 68, 716
3029, 502, 90, 12, 383
3030, 478, 474, 506, 834
3031, 422, 373, 298, 708
3032, 232, 375, 377, 738
3033, 654, 837, 807, 896
3034, 807, 837, 689, 896
3035, 291, 281, 256, 737
3036, 475, 469, 466, 808
3037, 50, 382, 73, 790
3038, 311, 723, 824, 877
3039, 29, 453, 435, 831
3040, 81, 38, 37, 818
3041, 91, 16, 459, 424
3042, 592, 816, 668, 861
3043, 318, 360, 110, 747
3044, 536, 527, 537, 851
3045, 183, 180, 181, 849
3046, 554, 510, 556, 708
3047, 124, 123, 125, 807
3048, 311, 409, 723, 877
3049, 386, 456, 20, 501
3050, 83, 390, 313, 753
3051, 532, 530, 529, 788
3052, 604, 781, 695, 835
3053, 163, 99, 344, 802
3054, 591, 844, 671, 880
3055, 426, 450, 18, 72
3056, 400, 65, 407, 570
3057, 460, 821, 462, 867
3058, 457, 70, 10, 499
3059, 373, 422, 76, 708
3060, 513, 558, 543, 721
3061, 569, 60, 410, 398
3062, 32, 848, 388, 901
3063, 358, 359, 221, 796
3064, 608, 764, 691, 899
3065, 623, 868, 764, 906
3066, 218, 261, 217, 765
3067, 521, 54, 516, 74
3068, 458, 13, 383, 502
3069, 461, 463, 504, 867
3070, 270, 163, 344, 755
3071, 189, 778, 190, 824
3072, 19, 450, 426, 501
3073, 199, 340, 339, 735
3074, 330, 120, 341, 860
3075, 328, 329, 764, 906
3076, 210, 299, 209, 863
3077, 382, 564, 51, 520
3078, 373, 76, 556, 708
3079, 734, 794, 593, 870
3080, 204, 202, 205, 751
3081, 665, 868, 608, 882
3082, 54, 521, 419, 74
3083, 526, 528, 527, 851
3084, 285, 284, 282, 756
3085, 382, 50, 564, 790
3086, 147, 277, 146, 826
3087, 108, 106, 107, 814
3088, 419, 88, 302, 732
3089, 138, 357, 139, 830
3090, 402, 332, 334, 847
3091, 284, 286, 283, 756
3092, 618, 716, 749, 861
3093, 631, 870, 729, 881
3094, 314, 387, 274, 715
3095, 263, 91, 276, 777
3096, 198, 197, 330, 857
3097, 234, 235, 385, 772
3098, 431, 441, 775, 852
3099, 436, 505, 490, 812
3100, 410, 311, 69, 723
3101, 382, 790, 564, 819
3102, 686, 614, 871, 886
3103, 321, 112, 326, 787
3104, 484, 509, 370, 883
3105, 302, 230, 303, 855
3106, 169, 172, 171, 897
3107, 364, 268, 260, 889
3108, 136, 317, 133, 887
3109, 57, 421, 512, 563
3110, 484, 847, 482, 883
3111, 400, 86, 64, 570
3112, 138, 358, 357, 853
3113, 493, 395, 435, 831
3114, 138, 137, 135, 830
3115, 318, 355, 360, 747
3116, 507, 75, 22, 362
3117, 469, 477, 480, 731
3118, 255, 331, 420, 726
3119, 465, 462, 473, 821
3120, 687, 793, 598, 885
3121, 171, 336, 750, 897
3122, 453, 487, 493, 831
3123, 780, 783, 659, 907
3124, 436, 1, 29, 490
3125, 552, 2, 40, 437
3126, 431, 441, 279, 775
3127, 509, 370, 6, 484
3128, 436, 394, 505, 812
3129, 179, 182, 293, 875
3130, 202, 345, 205, 751
3131, 295, 400, 296, 718
3132, 207, 204, 206, 907
3133, 35, 308, 68, 749
3134, 321, 326, 193, 787
3135, 77, 45, 517, 417
3136, 336, 172, 195, 897
3137, 378, 379, 404, 699
3138, 394, 96, 391, 812
3139, 246, 413, 392, 820
3140, 60, 569, 514, 398
3141, 689, 837, 595, 896
3142, 460, 454, 459, 776
3143, 296, 294, 295, 792
3144, 227, 301, 225, 767
3145, 744, 847, 726, 883
3146, 388, 32, 33, 848
3147, 333, 171, 335, 750
3148, 510, 64, 86, 570
3149, 335, 416, 70, 784
3150, 455, 484, 7, 847
3151, 223, 224, 222, 877
3152, 322, 396, 344, 755
3153, 370, 509, 93, 883
3154, 489, 478, 834, 890
3155, 311, 409, 69, 723
3156, 293, 439, 444, 875
3157, 507, 452, 497, 733
3158, 389, 83, 388, 901
3159, 332, 333, 334, 903
3160, 45, 546, 517, 417
3161, 419, 521, 55, 88
3162, 117, 115, 118, 760
3163, 39, 95, 322, 817
3164, 764, 608, 857, 899
3165, 91, 454, 15, 777
3166, 485, 490, 496, 812
3167, 370, 79, 484, 883
3168, 130, 129, 127, 815
3169, 503, 406, 457, 784
3170, 194, 196, 195, 899
3171, 485, 496, 471, 902
3172, 153, 154, 148, 793
3173, 530, 528, 529, 788
3174, 242, 425, 393, 740
3175, 571, 546, 44, 84
3176, 421, 266, 264, 836
3177, 130, 131, 129, 815
3178, 99, 100, 98, 879
3179, 552, 567, 437, 789
3180, 438, 2, 40, 515
3181, 113, 116, 326, 906
3182, 368, 244, 241, 746
3183, 350, 100, 102, 752
3184, 399, 91, 15, 777
3185, 810, 857, 608, 899
3186, 435, 29, 1, 453
3187, 691, 897, 673, 899
3188, 605, 871, 686, 908
3189, 253, 165, 280, 806
3190, 531, 539, 538, 809
3191, 107, 106, 105, 814
3192, 196, 198, 810, 899
3193, 658, 883, 726, 905
3194, 155, 154, 153, 885
3195, 438, 555, 66, 515
3196, 161, 191, 173, 846
3197, 79, 847, 484, 883
3198, 459, 17, 72, 424
3199, 220, 356, 357, 853
3200, 482, 470, 481, 744
3201, 268, 270, 269, 889
3202, 380, 48, 561, 85
3203, 272, 388, 309, 848
3204, 28, 435, 453, 493
3205, 390, 391, 313, 753
3206, 520, 564, 566, 819
3207, 201, 330, 341, 857
3208, 93, 427, 370, 883
3209, 515, 549, 547, 727
3210, 79, 6, 370, 484
3211, 89, 384, 385, 819
3212, 521, 522, 557, 732
3213, 81, 323, 38, 818
3214, 72, 450, 18, 495
3215, 417, 44, 546, 84
3216, 7, 484, 79, 847
3217, 425, 242, 392, 740
3218, 364, 270, 268, 889
3219, 403, 203, 401, 780
3220, 109, 112, 315, 761
3221, 513, 42, 567, 434
3222, 414, 362, 75, 733
3223, 117, 118, 119, 760
3224, 374, 236, 376, 774
3225, 183, 181, 184, 849
3226, 328, 116, 329, 906
3227, 370, 420, 79, 883
3228, 129, 343, 128, 833
3229, 533, 542, 530, 854
3230, 289, 157, 319, 741
3231, 159, 281, 162, 866
3232, 489, 497, 452, 733
3233, 483, 488, 457, 784
3234, 232, 377, 376, 738
3235, 169, 171, 168, 801
3236, 671, 880, 844, 896
3237, 456, 21, 75, 386
3238, 362, 22, 507, 452
3239, 109, 315, 108, 761
3240, 569, 410, 59, 518
3241, 386, 20, 87, 501
3242, 406, 457, 9, 503
3243, 421, 57, 266, 563
3244, 484, 482, 481, 883
3245, 275, 72, 424, 776
3246, 144, 141, 292, 785
3247, 123, 122, 374, 837
3248, 69, 58, 518, 563
3249, 196, 197, 198, 899
3250, 426, 87, 19, 501
3251, 463, 479, 486, 766
3252, 581, 686, 871, 908
3253, 402, 455, 7, 847
3254, 258, 189, 311, 824
3255, 437, 567, 397, 789
3256, 557, 55, 521, 88
3257, 366, 368, 118, 813
3258, 106, 273, 104, 786
3259, 329, 197, 328, 764
3260, 249, 248, 360, 805
3261, 497, 478, 506, 834
3262, 168, 333, 170, 903
3263, 793, 846, 598, 885
3264, 496, 490, 505, 812
3265, 136, 304, 316, 887
3266, 554, 556, 551, 708
3267, 276, 399, 447, 777
3268, 207, 401, 204, 907
3269, 442, 291, 256, 737
3270, 203, 204, 401, 907
3271, 210, 213, 299, 742
3272, 83, 31, 32, 901
3273, 464, 467, 479, 864
3274, 92, 508, 26, 423
3275, 247, 250, 379, 820
3276, 367, 371, 228, 840
3277, 495, 17, 72, 459
3278, 332, 79, 420, 847
3279, 540, 568, 536, 791
3280, 381, 10, 70, 499
3281, 279, 441, 278, 775
3282, 42, 397, 567, 434
3283, 545, 534, 541, 828
3284, 335, 406, 334, 784
3285, 414, 290, 362, 733
3286, 231, 303, 230, 855
3287, 188, 190, 189, 778
3288, 396, 95, 397, 789
3289, 81, 439, 323, 818
3290, 282, 284, 283, 756
3291, 336, 416, 335, 750
3292, 547, 558, 552, 789
3293, 448, 78, 25, 423
3294, 58, 69, 266, 563
3295, 171, 172, 336, 897
3296, 796, 840, 612, 900
3297, 166, 104, 273, 786
3298, 374, 372, 236, 774
3299, 214, 215, 216, 894
3300, 534, 545, 550, 828
3301, 93, 509, 5, 451
3302, 261, 218, 262, 765
3303, 145, 151, 314, 850
3304, 79, 402, 7, 847
3305, 650, 825, 783, 829
3306, 335, 171, 336, 750
3307, 485, 480, 487, 902
3308, 403, 401, 276, 780
3309, 157, 314, 151, 850
3310, 189, 190, 311, 824
3311, 88, 264, 301, 836
3312, 407, 555, 66, 438
3313, 188, 189, 187, 778
3314, 196, 198, 199, 810
3315, 148, 154, 158, 793
3316, 430, 36, 279, 893
3317, 568, 559, 518, 723
3318, 790, 819, 603, 898
3319, 86, 373, 63, 510
3320, 247, 248, 249, 805
3321, 169, 168, 167, 801
3322, 448, 26, 508, 423
3323, 182, 792, 294, 875
3324, 557, 512, 56, 836
3325, 421, 56, 512, 836
3326, 164, 256, 281, 866
3327, 332, 170, 333, 903
3328, 406, 70, 457, 784
3329, 494, 492, 489, 890
3330, 418, 297, 298, 762
3331, 469, 468, 466, 808
3332, 69, 59, 410, 518
3333, 165, 253, 164, 806
3334, 96, 436, 29, 812
3335, 396, 270, 344, 755
3336, 182, 297, 295, 792
3337, 502, 486, 449, 745
3338, 405, 303, 234, 855
3339, 556, 63, 373, 510
3340, 158, 161, 173, 846
3341, 39, 322, 38, 817
3342, 88, 557, 56, 836
3343, 255, 252, 192, 905
3344, 436, 505, 3, 490
3345, 509, 5, 370, 93
3346, 462, 460, 473, 821
3347, 98, 80, 99, 879
3348, 199, 198, 200, 810
3349, 155, 307, 154, 885
3350, 367, 228, 226, 840
3351, 132, 343, 129, 833
3352, 28, 435, 493, 395
3353, 120, 121, 341, 860
3354, 511, 548, 564, 790
3355, 298, 297, 183, 762
3356, 460, 462, 461, 867
3357, 214, 212, 215, 894
3358, 412, 382, 89, 819
3359, 457, 9, 70, 406
3360, 209, 275, 263, 863
3361, 78, 25, 494, 448
3362, 454, 461, 500, 777
3363, 327, 176, 174, 904
3364, 402, 79, 332, 847
3365, 437, 552, 41, 567
3366, 512, 557, 553, 836
3367, 509, 481, 451, 883
3368, 257, 306, 187, 892
3369, 421, 88, 56, 836
3370, 844, 880, 654, 896
3371, 489, 476, 478, 890
3372, 260, 353, 364, 859
3373, 554, 538, 539, 809
3374, 406, 335, 70, 784
3375, 277, 327, 174, 904
3376, 394, 505, 3, 436
3377, 311, 222, 409, 877
3378, 328, 326, 116, 906
3379, 138, 139, 137, 830
3380, 126, 123, 374, 837
3381, 339, 383, 428, 745
3382, 514, 76, 61, 398
3383, 76, 61, 556, 514
3384, 164, 281, 159, 866
3385, 541, 525, 548, 898
3386, 571, 43, 434, 84
3387, 182, 294, 293, 875
3388, 422, 298, 306, 892
3389, 425, 382, 393, 790
3390, 198, 330, 201, 857
3391, 461, 462, 463, 867
3392, 48, 47, 519, 85
3393, 385, 412, 89, 819
3394, 444, 279, 254, 893
3395, 435, 395, 97, 831
3396, 90, 428, 383, 745
3397, 13, 71, 14, 458
3398, 397, 437, 41, 567
3399, 520, 52, 51, 89
3400, 295, 294, 182, 792
3401, 303, 231, 234, 855
3402, 299, 275, 209, 863
3403, 309, 388, 33, 848
3404, 439, 293, 294, 875
3405, 382, 425, 73, 790
3406, 260, 251, 353, 859
3407, 467, 464, 466, 864
3408, 220, 357, 358, 853
3409, 246, 247, 379, 820
3410, 527, 528, 537, 851
3411, 399, 276, 91, 777
3412, 547, 542, 533, 854
3413, 503, 457, 488, 784
3414, 567, 552, 558, 789
3415, 289, 287, 288, 842
3416, 437, 397, 95, 789
3417, 317, 136, 316, 887
3418, 32, 388, 83, 901
3419, 362, 433, 23, 452
3420, 196, 194, 197, 899
3421, 513, 43, 434, 571
3422, 15, 16, 454, 91
3423, 10, 9, 70, 457
3424, 565, 47, 46, 378
3425, 76, 556, 62, 373
3426, 431, 35, 67, 852
3427, 482, 484, 455, 847
3428, 30, 31, 313, 886
3429, 562, 53, 52, 384
3430, 495, 460, 459, 776
3431, 516, 54, 53, 74
3432, 427, 391, 252, 905
3433, 78, 494, 24, 433
3434, 431, 67, 441, 852
3435, 557, 56, 55, 88
3436, 438, 66, 2, 515
3437, 1, 28, 435, 453
3438, 31, 30, 312, 886
3439, 484, 481, 509, 883
3440, 49, 50, 73, 511
3441, 97, 29, 435, 831
3442, 11, 12, 449, 90
3443, 485, 471, 480, 902
3444, 7, 6, 79, 484
3445, 72, 18, 17, 495
3446, 46, 45, 517, 77
3447, 20, 21, 456, 386
3448, 413, 246, 379, 820
3449, 433, 494, 23, 452
3450, 93, 5, 4, 451
3451, 224, 409, 222, 877
3452, 394, 436, 96, 812
3453, 288, 290, 289, 842
3454, 383, 13, 12, 502
3455, 88, 421, 264, 836
3456, 476, 489, 492, 890
3457, 436, 3, 1, 490
3458, 51, 50, 564, 382
3459, 62, 61, 556, 76
3460, 430, 279, 444, 893
3461, 505, 3, 4, 394
3462, 552, 41, 2, 437
3463, 266, 57, 58, 563
3464, 397, 41, 42, 567
3465, 493, 27, 28, 395
3466, 15, 14, 399, 500
3467, 402, 8, 7, 455
3468, 556, 63, 62, 373
3469, 508, 26, 27, 92
3470, 24, 25, 494, 78
3471, 59, 69, 58, 518
3472, 6, 5, 370, 509
3473, 75, 22, 21, 507
3474, 255, 427, 252, 905
3475, 64, 65, 400, 570
3476, 87, 20, 19, 501
3477, 44, 43, 571, 84
3478, 525, 566, 548, 898
3479, 11, 10, 381, 499
3480, 546, 45, 44, 417
3481, 49, 48, 561, 380
3482, 555, 66, 65, 407
3483, 406, 9, 8, 503
3484, 23, 24, 494, 433
3485, 257, 422, 306, 892
3486, 513, 43, 42, 434
3487, 63, 64, 86, 510
3488, 410, 59, 60, 569
3489, 23, 22, 362, 452
3490, 514, 61, 60, 398
3491, 18, 19, 450, 426
3492, 56, 57, 421, 512
3493, 521, 55, 54, 419
3494, 25, 26, 448, 423
3495, 16, 17, 459, 424
3496, 709, 758, 823, 616
3497, 709, 823, 758, 660
3498, 585, 758, 823, 660
3499, 692, 717, 652, 586
3500, 652, 717, 692, 611
3501, 647, 725, 827, 581
3502, 387, 842, 765, 609
3503, 702, 544, 543, 663
3504, 702, 543, 544, 532
3505, 713, 683, 888, 584
3506, 713, 888, 683, 604
3507, 806, 265, 256, 692
3508, 806, 256, 265, 253
3509, 192, 846, 191, 161
3510, 191, 846, 192, 698
3511, 722, 823, 660, 585
3512, 660, 823, 722, 709
3513, 795, 642, 588, 730
3514, 795, 588, 642, 622
3515, 765, 290, 387, 262
3516, 765, 387, 290, 842
3517, 848, 351, 705, 716
3518, 848, 705, 351, 272
3519, 765, 842, 733, 609
3520, 733, 842, 765, 290
3521, 801, 587, 787, 691
3522, 801, 787, 587, 687
3523, 713, 843, 748, 572
3524, 748, 843, 713, 617
3525, 765, 349, 216, 218
3526, 765, 216, 349, 619
3527, 816, 586, 861, 652
3528, 816, 861, 586, 668
3529, 744, 467, 472, 470
3530, 744, 472, 467, 672
3531, 819, 238, 385, 412
3532, 819, 385, 238, 772
3533, 873, 600, 574, 771
3534, 873, 574, 600, 645
3535, 709, 574, 600, 771
3536, 709, 600, 574, 645
3537, 823, 662, 758, 585
3538, 823, 758, 662, 616
3539, 408, 686, 756, 285
3540, 756, 686, 408, 675
3541, 807, 844, 896, 578
3542, 896, 844, 807, 654
3543, 830, 141, 728, 139
3544, 830, 728, 141, 785
3545, 143, 728, 141, 139
3546, 143, 141, 728, 785
3547, 735, 403, 415, 636
3548, 735, 415, 403, 340
3549, 688, 208, 742, 626
3550, 211, 208, 742, 210
3551, 211, 742, 208, 626
3552, 746, 239, 740, 241
3553, 746, 740, 239, 681
3554, 743, 757, 584, 680
3555, 584, 757, 743, 619
3556, 584, 720, 743, 680
3557, 743, 720, 584, 619
3558, 857, 202, 345, 201
3559, 857, 345, 202, 751
3560, 845, 856, 617, 576
3561, 617, 856, 845, 701
3562, 165, 904, 676, 174
3563, 676, 904, 165, 806
3564, 676, 160, 165, 174
3565, 165, 160, 676, 806
3566, 741, 162, 283, 648
3567, 741, 283, 162, 319
3568, 892, 849, 184, 625
3569, 892, 184, 849, 306
3570, 884, 870, 628, 612
3571, 884, 628, 870, 794
3572, 857, 623, 868, 764
3573, 857, 868, 623, 651
3574, 756, 287, 286, 283
3575, 756, 286, 287, 644
3576, 229, 840, 227, 228
3577, 227, 840, 229, 714
3578, 846, 307, 154, 161
3579, 846, 154, 307, 885
3580, 866, 156, 648, 162
3581, 866, 648, 156, 724
3582, 821, 474, 465, 697
3583, 821, 465, 474, 473
3584, 815, 375, 371, 637
3585, 815, 371, 375, 130
3586, 765, 387, 274, 262
3587, 765, 274, 387, 715
3588, 76, 892, 398, 649
3589, 76, 398, 892, 257
3590, 258, 398, 892, 649
3591, 258, 892, 398, 257
3592, 892, 183, 298, 306
3593, 892, 298, 183, 762
3594, 787, 167, 315, 687
3595, 787, 315, 167, 321
3596, 765, 216, 217, 218
3597, 765, 217, 216, 703
3598, 423, 508, 675, 92
3599, 423, 675, 508, 448
3600, 900, 610, 572, 773
3601, 900, 572, 610, 643
3602, 836, 224, 767, 627
3603, 836, 767, 224, 264
3604, 884, 791, 824, 579
3605, 884, 824, 791, 627
3606, 898, 545, 790, 548
3607, 898, 790, 545, 657
3608, 745, 458, 504, 636
3609, 745, 504, 458, 502
3610, 393, 819, 382, 412
3611, 382, 819, 393, 790
3612, 742, 300, 305, 213
3613, 742, 305, 300, 664
3614, 345, 807, 341, 124
3615, 341, 807, 345, 651
3616, 852, 429, 445, 652
3617, 852, 445, 429, 67
3618, 104, 814, 642, 105
3619, 642, 814, 104, 786
3620, 905, 684, 583, 698
3621, 905, 583, 684, 726
3622, 458, 399, 14, 500
3623, 458, 14, 399, 71
3624, 906, 193, 691, 328
3625, 906, 691, 193, 787
3626, 857, 345, 341, 201
3627, 857, 341, 345, 651
3628, 256, 737, 265, 442
3629, 256, 265, 737, 692
3630, 432, 265, 737, 442
3631, 432, 737, 265, 692
3632, 846, 271, 666, 173
3633, 846, 666, 271, 705
3634, 272, 666, 271, 173
3635, 272, 271, 666, 705
3636, 798, 795, 679, 591
3637, 798, 679, 795, 622
3638, 769, 679, 795, 591
3639, 769, 795, 679, 622
3640, 378, 519, 47, 85
3641, 378, 47, 519, 565
3642, 813, 880, 719, 639
3643, 719, 880, 813, 591
3644, 193, 897, 194, 172
3645, 194, 897, 193, 691
3646, 569, 398, 649, 514
3647, 649, 398, 569, 410
3648, 567, 434, 789, 513
3649, 789, 434, 567, 397
3650, 827, 808, 725, 647
3651, 827, 725, 808, 597
3652, 817, 873, 755, 645
3653, 755, 873, 817, 602
3654, 901, 432, 848, 692
3655, 901, 848, 432, 32
3656, 33, 848, 432, 692
3657, 33, 432, 848, 32
3658, 570, 407, 718, 555
3659, 570, 718, 407, 400
3660, 850, 150, 715, 314
3661, 850, 715, 150, 743
3662, 274, 715, 150, 314
3663, 274, 150, 715, 743
3664, 789, 269, 434, 397
3665, 789, 434, 269, 721
3666, 848, 34, 429, 33
3667, 848, 429, 34, 716
3668, 856, 797, 656, 576
3669, 856, 656, 797, 757
3670, 826, 292, 144, 147
3671, 826, 144, 292, 785
3672, 341, 807, 121, 124
3673, 341, 121, 807, 860
3674, 90, 499, 745, 449
3675, 90, 745, 499, 381
3676, 511, 380, 49, 561
3677, 511, 49, 380, 73
3678, 394, 451, 4, 505
3679, 394, 4, 451, 93
3680, 563, 421, 836, 266
3681, 563, 836, 421, 512
3682, 501, 426, 664, 450
3683, 501, 664, 426, 87
3684, 570, 86, 718, 400
3685, 570, 718, 86, 510
3686, 821, 495, 460, 473
3687, 821, 460, 495, 776
3688, 493, 92, 27, 395
3689, 27, 92, 493, 508
3690, 209, 863, 208, 210
3691, 742, 863, 208, 688
3692, 742, 208, 863, 210
3693, 863, 208, 207, 209
3694, 863, 207, 208, 688

*NSET, NSET=CONSTRAINT_1
1, 3, 4, 5, 6, 7, 8, 9, 10, 11, 12, 13, 14, 15, 16, 17
18, 19, 20, 21, 22, 23, 24, 25, 26, 27, 28, 448, 449, 450, 451, 452
453, 454, 455, 456, 457, 458, 459, 460, 461, 462, 463, 464, 465, 466, 467, 468
469, 470, 471, 472, 473, 474, 475, 476, 477, 478, 479, 480, 481, 482, 483, 484
485, 486, 487, 488, 489, 490, 491, 492, 493, 494, 495, 496, 497, 498, 499, 500
501, 502, 503, 504, 505, 506, 507, 508, 509

*NSET, NSET=LOAD_1
528

*MATERIAL, NAME=STRUCTURAL_STEEL
*ELASTIC
200000.000000, 0.300000

*SOLID SECTION, ELSET=ALL_ELEMENTS, MATERIAL=STRUCTURAL_STEEL

*BOUNDARY
CONSTRAINT_1, 1, 3

*STEP, NLGEOM=NO
*STATIC
0.1, 1.0

*CLOAD
LOAD_1, 1, 10000.000000

*NODE FILE
U, RF
*EL FILE
S, E

*END STEP
