*HEADING
Beam fixed at both ends with distributed load on top surface.

*NODE, NSET=ALL_NODES
1, 0.000000, 0.000000, 0.000000
2, 0.000000, 0.000000, 10.000000
3, 100.000000, 0.000000, 10.000000
4, 100.000000, 0.000000, 0.000000
5, 100.000000, 10.000000, 10.000000
6, 100.000000, 10.000000, 0.000000
7, 0.000000, 10.000000, 10.000000
8, 0.000000, 10.000000, 0.000000
9, 0.000000, 0.000000, 2.000000
10, 0.000000, 0.000000, 4.000000
11, 0.000000, 0.000000, 6.000000
12, 0.000000, 0.000000, 8.000000
13, 2.222222, 0.000000, 10.000000
14, 4.444445, 0.000000, 10.000000
15, 6.666667, 0.000000, 10.000000
16, 8.888889, 0.000000, 10.000000
17, 11.111111, 0.000000, 10.000000
18, 13.333333, 0.000000, 10.000000
19, 15.555555, 0.000000, 10.000000
20, 17.777779, 0.000000, 10.000000
21, 20.000000, 0.000000, 10.000000
22, 22.222221, 0.000000, 10.000000
23, 24.444445, 0.000000, 10.000000
24, 26.666666, 0.000000, 10.000000
25, 28.888889, 0.000000, 10.000000
26, 31.111111, 0.000000, 10.000000
27, 33.333332, 0.000000, 10.000000
28, 35.555557, 0.000000, 10.000000
29, 37.777779, 0.000000, 10.000000
30, 40.000000, 0.000000, 10.000000
31, 42.222221, 0.000000, 10.000000
32, 44.444443, 0.000000, 10.000000
33, 46.666668, 0.000000, 10.000000
34, 48.888889, 0.000000, 10.000000
35, 51.111111, 0.000000, 10.000000
36, 53.333332, 0.000000, 10.000000
37, 55.555557, 0.000000, 10.000000
38, 57.777779, 0.000000, 10.000000
39, 60.000000, 0.000000, 10.000000
40, 62.222221, 0.000000, 10.000000
41, 64.444443, 0.000000, 10.000000
42, 66.666664, 0.000000, 10.000000
43, 68.888885, 0.000000, 10.000000
44, 71.111115, 0.000000, 10.000000
45, 73.333336, 0.000000, 10.000000
46, 75.555557, 0.000000, 10.000000
47, 77.777779, 0.000000, 10.000000
48, 80.000000, 0.000000, 10.000000
49, 82.222221, 0.000000, 10.000000
50, 84.444443, 0.000000, 10.000000
51, 86.666664, 0.000000, 10.000000
52, 88.888885, 0.000000, 10.000000
53, 91.111115, 0.000000, 10.000000
54, 93.333336, 0.000000, 10.000000
55, 95.555557, 0.000000, 10.000000
56, 97.777779, 0.000000, 10.000000
57, 100.000000, 0.000000, 2.000000
58, 100.000000, 0.000000, 4.000000
59, 100.000000, 0.000000, 6.000000
60, 100.000000, 0.000000, 8.000000
61, 2.222222, 0.000000, 0.000000
62, 4.444445, 0.000000, 0.000000
63, 6.666667, 0.000000, 0.000000
64, 8.888889, 0.000000, 0.000000
65, 11.111111, 0.000000, 0.000000
66, 13.333333, 0.000000, 0.000000
67, 15.555555, 0.000000, 0.000000
68, 17.777779, 0.000000, 0.000000
69, 20.000000, 0.000000, 0.000000
70, 22.222221, 0.000000, 0.000000
71, 24.444445, 0.000000, 0.000000
72, 26.666666, 0.000000, 0.000000
73, 28.888889, 0.000000, 0.000000
74, 31.111111, 0.000000, 0.000000
75, 33.333332, 0.000000, 0.000000
76, 35.555557, 0.000000, 0.000000
77, 37.777779, 0.000000, 0.000000
78, 40.000000, 0.000000, 0.000000
79, 42.222221, 0.000000, 0.000000
80, 44.444443, 0.000000, 0.000000
81, 46.666668, 0.000000, 0.000000
82, 48.888889, 0.000000, 0.000000
83, 51.111111, 0.000000, 0.000000
84, 53.333332, 0.000000, 0.000000
85, 55.555557, 0.000000, 0.000000
86, 57.777779, 0.000000, 0.000000
87, 60.000000, 0.000000, 0.000000
88, 62.222221, 0.000000, 0.000000
89, 64.444443, 0.000000, 0.000000
90, 66.666664, 0.000000, 0.000000
91, 68.888885, 0.000000, 0.000000
92, 71.111115, 0.000000, 0.000000
93, 73.333336, 0.000000, 0.000000
94, 75.555557, 0.000000, 0.000000
95, 77.777779, 0.000000, 0.000000
96, 80.000000, 0.000000, 0.000000
97, 82.222221, 0.000000, 0.000000
98, 84.444443, 0.000000, 0.000000
99, 86.666664, 0.000000, 0.000000
100, 88.888885, 0.000000, 0.000000
101, 91.111115, 0.000000, 0.000000
102, 93.333336, 0.000000, 0.000000
103, 95.555557, 0.000000, 0.000000
104, 97.777779, 0.000000, 0.000000
105, 100.000000, 2.000000, 10.000000
106, 100.000000, 4.000000, 10.000000
107, 100.000000, 6.000000, 10.000000
108, 100.000000, 8.000000, 10.000000
109, 100.000000, 10.000000, 2.000000
110, 100.000000, 10.000000, 4.000000
111, 100.000000, 10.000000, 6.000000
112, 100.000000, 10.000000, 8.000000
113, 100.000000, 2.000000, 0.000000
114, 100.000000, 4.000000, 0.000000
115, 100.000000, 6.000000, 0.000000
116, 100.000000, 8.000000, 0.000000
117, 97.777779, 10.000000, 10.000000
118, 95.555557, 10.000000, 10.000000
119, 93.333336, 10.000000, 10.000000
120, 91.111115, 10.000000, 10.000000
121, 88.888885, 10.000000, 10.000000
122, 86.666664, 10.000000, 10.000000
123, 84.444443, 10.000000, 10.000000
124, 82.222221, 10.000000, 10.000000
125, 80.000000, 10.000000, 10.000000
126, 77.777779, 10.000000, 10.000000
127, 75.555557, 10.000000, 10.000000
128, 73.333336, 10.000000, 10.000000
129, 71.111115, 10.000000, 10.000000
130, 68.888885, 10.000000, 10.000000
131, 66.666664, 10.000000, 10.000000
132, 64.444443, 10.000000, 10.000000
133, 62.222221, 10.000000, 10.000000
134, 60.000000, 10.000000, 10.000000
135, 57.777779, 10.000000, 10.000000
136, 55.555557, 10.000000, 10.000000
137, 53.333332, 10.000000, 10.000000
138, 51.111111, 10.000000, 10.000000
139, 48.888889, 10.000000, 10.000000
140, 46.666668, 10.000000, 10.000000
141, 44.444443, 10.000000, 10.000000
142, 42.222221, 10.000000, 10.000000
143, 40.000000, 10.000000, 10.000000
144, 37.777779, 10.000000, 10.000000
145, 35.555557, 10.000000, 10.000000
146, 33.333332, 10.000000, 10.000000
147, 31.111111, 10.000000, 10.000000
148, 28.888889, 10.000000, 10.000000
149, 26.666666, 10.000000, 10.000000
150, 24.444445, 10.000000, 10.000000
151, 22.222221, 10.000000, 10.000000
152, 20.000000, 10.000000, 10.000000
153, 17.777779, 10.000000, 10.000000
154, 15.555555, 10.000000, 10.000000
155, 13.333333, 10.000000, 10.000000
156, 11.111111, 10.000000, 10.000000
157, 8.888889, 10.000000, 10.000000
158, 6.666667, 10.000000, 10.000000
159, 4.444445, 10.000000, 10.000000
160, 2.222222, 10.000000, 10.000000
161, 0.000000, 10.000000, 2.000000
162, 0.000000, 10.000000, 4.000000
163, 0.000000, 10.000000, 6.000000
164, 0.000000, 10.000000, 8.000000
165, 97.777779, 10.000000, 0.000000
166, 95.555557, 10.000000, 0.000000
167, 93.333336, 10.000000, 0.000000
168, 91.111115, 10.000000, 0.000000
169, 88.888885, 10.000000, 0.000000
170, 86.666664, 10.000000, 0.000000
171, 84.444443, 10.000000, 0.000000
172, 82.222221, 10.000000, 0.000000
173, 80.000000, 10.000000, 0.000000
174, 77.777779, 10.000000, 0.000000
175, 75.555557, 10.000000, 0.000000
176, 73.333336, 10.000000, 0.000000
177, 71.111115, 10.000000, 0.000000
178, 68.888885, 10.000000, 0.000000
179, 66.666664, 10.000000, 0.000000
180, 64.444443, 10.000000, 0.000000
181, 62.222221, 10.000000, 0.000000
182, 60.000000, 10.000000, 0.000000
183, 57.777779, 10.000000, 0.000000
184, 55.555557, 10.000000, 0.000000
185, 53.333332, 10.000000, 0.000000
186, 51.111111, 10.000000, 0.000000
187, 48.888889, 10.000000, 0.000000
188, 46.666668, 10.000000, 0.000000
189, 44.444443, 10.000000, 0.000000
190, 42.222221, 10.000000, 0.000000
191, 40.000000, 10.000000, 0.000000
192, 37.777779, 10.000000, 0.000000
193, 35.555557, 10.000000, 0.000000
194, 33.333332, 10.000000, 0.000000
195, 31.111111, 10.000000, 0.000000
196, 28.888889, 10.000000, 0.000000
197, 26.666666, 10.000000, 0.000000
198, 24.444445, 10.000000, 0.000000
199, 22.222221, 10.000000, 0.000000
200, 20.000000, 10.000000, 0.000000
201, 17.777779, 10.000000, 0.000000
202, 15.555555, 10.000000, 0.000000
203, 13.333333, 10.000000, 0.000000
204, 11.111111, 10.000000, 0.000000
205, 8.888889, 10.000000, 0.000000
206, 6.666667, 10.000000, 0.000000
207, 4.444445, 10.000000, 0.000000
208, 2.222222, 10.000000, 0.000000
209, 0.000000, 8.000000, 10.000000
210, 0.000000, 6.000000, 10.000000
211, 0.000000, 4.000000, 10.000000
212, 0.000000, 2.000000, 10.000000
213, 0.000000, 8.000000, 0.000000
214, 0.000000, 6.000000, 0.000000
215, 0.000000, 4.000000, 0.000000
216, 0.000000, 2.000000, 0.000000
217, 98.368401, 0.000000, 4.999173
218, 1.628918, 0.000000, 4.997925
219, 83.339584, 0.000000, 8.042962
220, 87.783714, 0.000000, 8.061418
221, 92.233147, 0.000000, 8.077028
222, 76.666664, 0.000000, 8.075500
223, 72.149132, 0.000000, 1.866774
224, 16.662460, 0.000000, 8.064987
225, 12.219468, 0.000000, 8.074057
226, 7.776415, 0.000000, 8.078793
227, 54.504135, 0.000000, 8.291541
228, 21.108082, 0.000000, 8.061151
229, 25.552519, 0.000000, 8.054311
230, 29.996954, 0.000000, 8.046652
231, 34.444008, 0.000000, 8.064393
232, 38.760639, 0.000000, 8.188262
233, 43.333332, 0.000000, 8.075500
234, 47.849407, 0.000000, 8.150393
235, 58.888889, 0.000000, 8.075500
236, 63.351978, 0.000000, 8.029424
237, 67.777779, 0.000000, 8.075500
238, 78.760979, 0.000000, 1.768897
239, 89.965324, 0.000000, 1.995907
240, 85.555557, 0.000000, 1.924501
241, 14.441713, 0.000000, 1.858076
242, 9.997272, 0.000000, 1.857939
243, 18.886135, 0.000000, 1.857209
244, 27.777779, 0.000000, 1.924501
245, 45.555557, 0.000000, 1.924501
246, 61.111111, 0.000000, 1.924501
247, 36.666668, 0.000000, 1.924501
248, 56.666668, 0.000000, 1.924501
249, 23.333334, 0.000000, 1.924501
250, 40.797173, 0.000000, 2.018986
251, 52.222221, 0.000000, 1.924501
252, 32.222221, 0.000000, 1.924501
253, 65.453232, 0.000000, 2.023609
254, 72.222221, 0.000000, 8.075499
255, 94.481949, 0.000000, 1.988281
256, 5.519693, 0.000000, 1.986632
257, 96.753876, 0.000000, 7.983664
258, 3.248893, 0.000000, 7.981237
259, 94.464050, 0.000000, 8.069875
260, 93.354973, 0.000000, 6.164897
261, 91.138092, 0.000000, 6.145146
262, 92.265999, 0.000000, 4.241887
263, 94.473305, 0.000000, 4.266088
264, 90.056076, 0.000000, 4.216610
265, 88.919647, 0.000000, 6.127343
266, 87.837471, 0.000000, 4.184470
267, 86.698990, 0.000000, 6.100819
268, 5.541255, 0.000000, 8.067872
269, 6.661881, 0.000000, 6.163985
270, 8.880713, 0.000000, 6.155713
271, 7.767995, 0.000000, 4.244715
272, 5.560462, 0.000000, 4.251916
273, 9.978133, 0.000000, 4.237266
274, 4.567609, 0.000000, 6.075427
275, 95.440903, 0.000000, 6.079927
276, 96.854797, 0.000000, 1.729292
277, 7.765332, 0.000000, 1.917316
278, 3.142738, 0.000000, 1.727654
279, 92.227188, 0.000000, 1.865895
280, 85.616516, 0.000000, 4.155418
281, 84.477417, 0.000000, 6.078977
282, 83.394722, 0.000000, 4.126696
283, 82.255455, 0.000000, 6.052094
284, 81.172745, 0.000000, 4.098226
285, 80.033852, 0.000000, 6.071931
286, 11.096813, 0.000000, 6.150467
287, 12.197013, 0.000000, 4.223332
288, 85.568474, 0.000000, 8.047362
289, 13.316976, 0.000000, 6.141590
290, 14.418186, 0.000000, 4.212507
291, 15.537954, 0.000000, 6.131385
292, 16.640160, 0.000000, 4.202029
293, 17.762327, 0.000000, 6.124564
294, 18.862291, 0.000000, 4.191795
295, 19.985077, 0.000000, 6.117683
296, 21.084476, 0.000000, 4.181586
297, 22.207373, 0.000000, 6.108115
298, 23.306671, 0.000000, 4.171392
299, 24.429594, 0.000000, 6.100285
300, 25.528870, 0.000000, 4.161201
301, 26.651804, 0.000000, 6.090592
302, 27.751068, 0.000000, 4.151010
303, 28.874010, 0.000000, 6.082605
304, 29.973267, 0.000000, 4.140820
305, 31.095156, 0.000000, 6.070974
306, 32.219086, 0.000000, 8.007655
307, 33.336727, 0.000000, 6.094199
308, 35.504341, 0.000000, 6.166208
309, 34.510563, 0.000000, 4.160069
310, 36.892673, 0.000000, 4.485867
311, 38.708546, 0.000000, 3.169110
312, 38.820114, 0.000000, 5.185680
313, 27.771807, 0.000000, 8.045693
314, 87.777779, 0.000000, 1.962720
315, 23.327372, 0.000000, 8.053977
316, 90.008881, 0.000000, 8.067055
317, 18.882620, 0.000000, 8.061398
318, 36.562862, 0.000000, 8.134999
319, 14.437625, 0.000000, 8.068670
320, 25.555555, 0.000000, 1.939091
321, 34.444443, 0.000000, 1.938785
322, 78.894531, 0.000000, 8.042634
323, 77.802406, 0.000000, 6.110827
324, 75.559662, 0.000000, 6.144304
325, 76.605934, 0.000000, 4.245418
326, 74.435013, 0.000000, 4.361075
327, 75.515663, 0.000000, 2.337160
328, 81.120514, 0.000000, 8.012776
329, 73.332443, 0.000000, 6.172312
330, 72.179604, 0.000000, 4.144929
331, 50.000000, 0.000000, 1.924501
332, 51.111111, 0.000000, 3.849002
333, 53.333332, 0.000000, 3.849002
334, 48.888889, 0.000000, 3.849002
335, 52.222221, 0.000000, 5.640964
336, 54.444443, 0.000000, 5.699693
337, 50.083565, 0.000000, 5.703166
338, 47.825634, 0.000000, 5.864142
339, 51.151508, 0.000000, 7.661007
340, 43.281010, 0.000000, 1.940248
341, 44.435722, 0.000000, 3.851626
342, 42.222221, 0.000000, 3.849002
343, 43.333332, 0.000000, 5.773503
344, 41.096050, 0.000000, 5.776259
345, 45.555557, 0.000000, 5.773503
346, 46.671326, 0.000000, 3.860105
347, 63.232712, 0.000000, 1.892772
348, 62.121887, 0.000000, 3.795467
349, 59.983276, 0.000000, 3.840079
350, 61.111111, 0.000000, 5.773503
351, 63.327377, 0.000000, 5.652138
352, 58.888889, 0.000000, 5.773503
353, 57.774990, 0.000000, 3.847515
354, 56.666546, 0.000000, 5.703120
355, 45.558662, 0.000000, 8.145864
356, 61.111111, 0.000000, 8.075500
357, 58.885635, 0.000000, 1.922766
358, 21.149166, 0.000000, 1.988988
359, 56.666668, 0.000000, 8.075500
360, 12.219298, 0.000000, 1.852747
361, 16.663677, 0.000000, 1.851845
362, 41.086647, 0.000000, 8.025795
363, 54.444443, 0.000000, 1.924501
364, 65.642227, 0.000000, 8.116067
365, 66.764679, 0.000000, 6.206007
366, 68.905228, 0.000000, 6.160166
367, 67.796837, 0.000000, 4.369732
368, 65.556198, 0.000000, 4.355013
369, 69.915230, 0.000000, 4.286550
370, 68.849152, 0.000000, 2.339009
371, 71.092453, 0.000000, 6.152493
372, 70.000000, 0.000000, 8.075500
373, 55.555557, 0.000000, 3.849002
374, 47.778553, 0.000000, 1.926351
375, 74.444984, 0.000000, 8.077935
376, 30.000000, 0.000000, 1.921423
377, 9.998385, 0.000000, 8.078247
378, 83.333336, 0.000000, 1.914222
379, 32.188599, 0.000000, 4.137284
380, 81.111115, 0.000000, 1.898954
381, 78.975044, 0.000000, 3.903923
382, 98.301376, 0.000000, 3.000000
383, 96.431587, 0.000000, 4.012521
384, 1.543871, 0.000000, 6.931237
385, 98.456093, 0.000000, 6.931850
386, 1.690171, 0.000000, 3.000000
387, 3.572705, 0.000000, 4.009205
388, 40.328819, 0.000000, 3.999807
389, 37.597347, 0.000000, 6.441546
390, 73.955566, 0.000000, 1.571323
391, 70.616081, 0.000000, 2.707069
392, 67.286781, 0.000000, 1.582888
393, 63.938282, 0.000000, 3.543800
394, 52.714005, 0.000000, 8.418626
395, 49.384384, 0.000000, 7.295212
396, 64.945839, 0.000000, 6.440480
397, 77.276382, 0.000000, 2.591484
398, 38.838451, 0.000000, 1.371977
399, 1.426733, 0.000000, 8.582747
400, 98.573654, 0.000000, 8.583181
401, 98.513298, 0.000000, 1.417320
402, 1.411026, 0.000000, 1.345531
403, 39.621037, 0.000000, 6.638992
404, 97.100372, 0.000000, 6.024887
405, 2.899342, 0.000000, 6.024881
406, 6.660436, 0.000000, 3.085885
407, 93.382210, 0.000000, 3.108563
408, 8.869150, 0.000000, 3.079754
409, 42.222221, 0.000000, 6.924501
410, 44.444443, 0.000000, 6.924501
411, 46.666668, 0.000000, 6.924501
412, 55.555557, 0.000000, 6.924501
413, 62.107189, 0.000000, 6.915784
414, 60.000000, 0.000000, 6.924501
415, 57.777779, 0.000000, 6.924501
416, 11.093825, 0.000000, 3.056156
417, 91.173912, 0.000000, 3.103410
418, 13.315650, 0.000000, 3.047310
419, 76.747520, 0.000000, 1.183998
420, 70.230621, 0.000000, 1.310198
421, 66.830833, 0.000000, 3.013975
422, 49.769329, 0.000000, 8.692583
423, 53.359013, 0.000000, 6.955687
424, 73.447647, 0.000000, 3.009411
425, 15.537575, 0.000000, 3.041291
426, 17.759684, 0.000000, 3.035856
427, 33.341457, 0.000000, 3.040160
428, 19.968258, 0.000000, 3.070966
429, 100.000000, 8.664915, 4.919480
430, 100.000000, 1.722613, 4.983654
431, 100.000000, 5.096679, 1.627552
432, 100.000000, 5.097003, 8.353497
433, 100.000000, 1.692971, 3.007482
434, 100.000000, 3.292525, 3.961510
435, 100.000000, 3.244789, 6.002001
436, 100.000000, 5.196152, 5.000000
437, 100.000000, 3.108504, 8.146995
438, 100.000000, 8.119090, 3.152349
439, 100.000000, 6.998155, 8.305769
440, 100.000000, 3.161073, 1.880449
441, 100.000000, 1.590001, 6.944758
442, 100.000000, 8.254759, 6.841078
443, 100.000000, 6.942277, 1.616308
444, 100.000000, 6.143356, 6.682132
445, 100.000000, 6.111247, 3.199031
446, 100.000000, 6.823038, 4.765812
447, 100.000000, 1.464102, 8.535898
448, 100.000000, 8.535898, 8.535898
449, 100.000000, 8.535898, 1.464102
450, 100.000000, 1.464102, 1.464102
451, 100.000000, 4.582019, 6.896970
452, 100.000000, 4.581232, 3.102498
453, 1.631599, 10.000000, 4.999173
454, 98.371078, 10.000000, 4.997925
455, 16.660414, 10.000000, 8.041821
456, 21.148344, 10.000000, 8.065214
457, 12.216286, 10.000000, 8.061418
458, 7.766850, 10.000000, 8.077028
459, 26.003160, 10.000000, 2.129043
460, 87.712662, 10.000000, 1.851036
461, 30.000000, 10.000000, 1.924501
462, 45.453228, 10.000000, 7.976391
463, 92.224266, 10.000000, 8.077615
464, 83.333366, 10.000000, 8.075501
465, 78.888885, 10.000000, 8.075500
466, 74.444443, 10.000000, 8.075500
467, 70.000000, 10.000000, 8.075500
468, 65.555557, 10.000000, 8.075500
469, 61.129757, 10.000000, 8.029424
470, 56.666668, 10.000000, 8.075500
471, 52.150593, 10.000000, 8.150393
472, 41.111111, 10.000000, 8.075500
473, 36.666668, 10.000000, 8.075500
474, 10.034678, 10.000000, 1.995907
475, 18.774792, 10.000000, 1.868785
476, 14.444445, 10.000000, 1.924501
477, 27.761845, 10.000000, 8.019237
478, 32.240868, 10.000000, 8.029424
479, 54.444443, 10.000000, 1.924501
480, 38.870243, 10.000000, 1.970576
481, 63.333332, 10.000000, 1.924501
482, 43.351978, 10.000000, 1.970576
483, 81.111130, 10.000000, 1.918871
484, 76.666664, 10.000000, 1.791962
485, 72.222221, 10.000000, 1.924501
486, 67.759132, 10.000000, 1.970576
487, 58.888889, 10.000000, 1.924501
488, 47.777779, 10.000000, 1.924501
489, 34.444443, 10.000000, 1.924501
490, 87.780846, 10.000000, 8.074597
491, 92.223373, 10.000000, 1.858443
492, 5.518050, 10.000000, 1.988281
493, 96.851288, 10.000000, 1.717299
494, 3.246125, 10.000000, 7.983664
495, 96.751106, 10.000000, 7.981237
496, 5.535946, 10.000000, 8.069875
497, 6.645030, 10.000000, 6.164897
498, 8.861904, 10.000000, 6.145146
499, 7.734002, 10.000000, 4.241887
500, 5.526698, 10.000000, 4.266088
501, 9.943926, 10.000000, 4.216610
502, 11.080350, 10.000000, 6.127343
503, 12.162532, 10.000000, 4.184470
504, 13.301007, 10.000000, 6.100819
505, 94.458855, 10.000000, 8.067676
506, 93.338982, 10.000000, 6.162945
507, 91.120041, 10.000000, 6.156474
508, 92.232010, 10.000000, 4.243324
509, 94.444763, 10.000000, 4.248918
510, 90.017319, 10.000000, 4.233664
511, 95.433426, 10.000000, 6.074721
512, 94.487015, 10.000000, 1.976662
513, 4.559100, 10.000000, 6.079927
514, 3.145201, 10.000000, 1.729292
515, 7.772810, 10.000000, 1.865895
516, 14.383486, 10.000000, 4.155418
517, 15.522582, 10.000000, 6.078787
518, 16.605280, 10.000000, 4.126696
519, 17.740862, 10.000000, 6.036715
520, 88.898117, 10.000000, 6.152123
521, 87.750671, 10.000000, 4.131350
522, 18.906851, 10.000000, 8.038724
523, 20.098566, 10.000000, 6.102160
524, 22.336721, 10.000000, 6.208469
525, 21.381748, 10.000000, 4.157126
526, 23.459349, 10.000000, 4.399901
527, 24.469604, 10.000000, 6.319177
528, 25.715687, 10.000000, 4.495798
529, 22.557428, 10.000000, 2.376198
530, 18.968819, 10.000000, 4.163172
531, 14.431530, 10.000000, 8.047141
532, 12.222222, 10.000000, 1.962720
533, 9.991117, 10.000000, 8.067055
534, 27.941378, 10.000000, 1.907207
535, 29.005156, 10.000000, 3.794736
536, 31.130489, 10.000000, 3.839957
537, 30.000000, 10.000000, 5.773503
538, 32.299282, 10.000000, 5.690733
539, 27.777779, 10.000000, 5.773503
540, 32.225452, 10.000000, 1.922994
541, 50.000000, 10.000000, 1.924501
542, 48.888889, 10.000000, 3.849002
543, 46.750233, 10.000000, 3.800755
544, 51.111111, 10.000000, 3.849002
545, 47.791706, 10.000000, 5.632923
546, 45.555061, 10.000000, 5.582158
547, 49.918755, 10.000000, 5.701826
548, 52.174534, 10.000000, 5.864044
549, 48.849094, 10.000000, 7.660658
550, 56.666668, 10.000000, 1.924501
551, 55.555557, 10.000000, 3.849002
552, 57.777779, 10.000000, 3.849002
553, 60.000000, 10.000000, 3.849002
554, 58.888889, 10.000000, 5.773503
555, 61.185402, 10.000000, 5.692026
556, 56.666668, 10.000000, 5.773503
557, 36.579994, 10.000000, 1.883933
558, 35.457542, 10.000000, 3.536159
559, 65.468880, 10.000000, 1.883933
560, 64.346436, 10.000000, 3.536159
561, 85.556015, 10.000000, 8.075315
562, 84.444450, 10.000000, 6.151000
563, 82.222260, 10.000000, 6.151069
564, 83.416840, 10.000000, 4.274947
565, 81.111275, 10.000000, 4.226716
566, 85.481293, 10.000000, 4.267023
567, 84.445465, 10.000000, 2.560725
568, 86.656013, 10.000000, 6.144441
569, 81.111115, 10.000000, 8.075517
570, 54.441338, 10.000000, 8.145864
571, 38.888889, 10.000000, 8.075500
572, 40.000000, 10.000000, 6.150998
573, 42.138657, 10.000000, 6.199245
574, 41.111111, 10.000000, 4.226497
575, 43.330902, 10.000000, 4.281106
576, 38.814598, 10.000000, 4.307974
577, 37.765396, 10.000000, 6.297117
578, 35.637058, 10.000000, 6.481432
579, 34.544701, 10.000000, 8.171139
580, 41.111111, 10.000000, 1.924501
581, 63.420006, 10.000000, 8.116067
582, 64.542458, 10.000000, 6.463840
583, 66.682999, 10.000000, 6.335678
584, 89.998192, 10.000000, 1.783201
585, 76.666664, 10.000000, 8.075500
586, 77.759132, 10.000000, 6.105732
587, 72.222221, 10.000000, 8.075500
588, 73.333336, 10.000000, 6.150998
589, 71.111115, 10.000000, 6.150998
590, 72.222221, 10.000000, 4.226497
591, 74.384758, 10.000000, 4.442540
592, 70.000000, 10.000000, 4.226497
593, 68.891609, 10.000000, 6.181778
594, 67.780952, 10.000000, 8.111409
595, 58.888889, 10.000000, 8.075500
596, 78.805344, 10.000000, 1.853237
597, 77.736694, 10.000000, 3.810290
598, 74.444443, 10.000000, 1.850692
599, 70.000000, 10.000000, 1.924501
600, 61.111111, 10.000000, 1.924501
601, 45.656158, 10.000000, 1.875892
602, 54.444443, 10.000000, 5.773503
603, 75.458931, 10.000000, 6.227708
604, 62.218269, 10.000000, 3.650743
605, 43.218784, 10.000000, 8.115269
606, 67.741264, 10.000000, 4.283771
607, 30.000000, 10.000000, 8.075500
608, 53.325386, 10.000000, 3.864092
609, 52.220898, 10.000000, 1.927016
610, 33.333611, 10.000000, 3.648769
611, 79.996925, 10.000000, 6.276044
612, 90.004166, 10.000000, 8.075618
613, 16.666666, 10.000000, 1.914222
614, 23.332869, 10.000000, 8.140074
615, 1.698624, 10.000000, 3.000000
616, 3.568414, 10.000000, 4.012521
617, 98.456131, 10.000000, 6.931237
618, 98.309830, 10.000000, 3.000000
619, 96.428291, 10.000000, 4.005773
620, 1.543904, 10.000000, 6.931850
621, 25.487337, 10.000000, 8.168770
622, 20.650835, 10.000000, 2.094213
623, 86.173935, 10.000000, 2.663121
624, 79.515015, 10.000000, 3.460905
625, 82.708923, 10.000000, 2.675749
626, 33.833984, 10.000000, 6.557684
627, 37.276901, 10.000000, 3.481005
628, 47.286777, 10.000000, 8.417089
629, 66.168541, 10.000000, 3.479241
630, 76.172279, 10.000000, 4.624157
631, 62.723099, 10.000000, 6.518995
632, 50.616058, 10.000000, 7.294957
633, 44.928867, 10.000000, 3.502097
634, 43.939327, 10.000000, 6.430834
635, 27.263496, 10.000000, 3.597384
636, 26.242451, 10.000000, 6.555297
637, 98.513931, 10.000000, 1.416623
638, 98.573265, 10.000000, 8.582747
639, 1.426342, 10.000000, 8.583181
640, 1.486699, 10.000000, 1.417320
641, 24.356264, 10.000000, 2.719205
642, 2.899630, 10.000000, 6.024887
643, 97.100655, 10.000000, 6.024881
644, 93.341316, 10.000000, 3.086859
645, 6.617791, 10.000000, 3.108563
646, 28.888889, 10.000000, 6.924501
647, 31.111111, 10.000000, 6.924501
648, 57.777779, 10.000000, 6.924501
649, 60.000000, 10.000000, 6.924501
650, 73.333336, 10.000000, 3.075499
651, 71.111115, 10.000000, 3.075499
652, 55.555557, 10.000000, 6.924501
653, 68.888885, 10.000000, 3.075499
654, 53.333332, 10.000000, 6.924501
655, 42.222221, 10.000000, 3.075499
656, 40.000000, 10.000000, 3.075499
657, 91.120865, 10.000000, 3.048799
658, 88.912994, 10.000000, 3.087301
659, 17.778151, 10.000000, 3.050447
660, 8.826086, 10.000000, 3.103410
661, 83.362961, 10.000000, 1.221068
662, 85.523537, 10.000000, 1.221640
663, 79.059761, 10.000000, 4.896328
664, 34.468803, 10.000000, 5.024556
665, 36.641518, 10.000000, 4.978253
666, 65.533066, 10.000000, 4.976028
667, 50.230820, 10.000000, 8.692496
668, 63.357140, 10.000000, 5.020273
669, 75.519409, 10.000000, 3.131060
670, 46.895599, 10.000000, 7.010680
671, 0.000000, 4.919667, 8.363011
672, 0.000000, 4.903321, 1.627552
673, 0.000000, 8.277387, 4.983654
674, 0.000000, 1.580808, 5.118616
675, 0.000000, 8.307029, 3.007482
676, 0.000000, 6.707476, 3.961510
677, 0.000000, 6.755342, 6.002090
678, 0.000000, 4.803848, 5.000000
679, 0.000000, 1.916013, 3.180797
680, 0.000000, 6.893291, 8.148029
681, 0.000000, 1.482631, 6.999218
682, 0.000000, 6.838927, 1.880449
683, 0.000000, 2.945765, 8.086056
684, 0.000000, 8.410319, 6.944945
685, 0.000000, 3.061902, 1.619694
686, 0.000000, 3.895300, 3.204336
687, 0.000000, 4.005577, 6.641621
688, 0.000000, 3.267949, 4.695477
689, 0.000000, 1.464102, 8.535898
690, 0.000000, 8.535898, 8.535898
691, 0.000000, 1.464102, 1.464102
692, 0.000000, 8.535898, 1.464102
693, 0.000000, 5.418768, 3.102498
694, 0.000000, 5.433547, 6.880178
695, 0.000000, 2.727743, 6.092225
696, 98.368401, 5.000827, 0.000000
697, 1.631599, 4.999173, 0.000000
698, 87.783714, 1.938582, 0.000000
699, 7.766850, 8.077028, 0.000000
700, 12.216286, 8.061418, 0.000000
701, 92.233147, 1.922971, 0.000000
702, 16.660414, 8.041821, 0.000000
703, 83.339584, 1.958179, 0.000000
704, 78.851578, 1.934783, 0.000000
705, 21.148420, 8.065217, 0.000000
706, 25.574499, 8.146317, 0.000000
707, 74.425499, 1.853683, 0.000000
708, 30.000000, 8.075500, 0.000000
709, 70.000000, 1.924501, 0.000000
710, 54.444443, 1.924501, 0.000000
711, 34.444443, 1.924501, 0.000000
712, 38.907536, 8.029424, 0.000000
713, 45.574200, 1.970576, 0.000000
714, 50.000000, 1.924501, 0.000000
715, 63.333332, 8.075500, 0.000000
716, 58.786564, 2.023609, 0.000000
717, 67.759132, 8.029424, 0.000000
718, 41.092464, 1.970576, 0.000000
719, 89.965790, 8.004705, 0.000000
720, 10.034212, 1.995294, 0.000000
721, 14.444445, 1.924501, 0.000000
722, 85.555557, 8.075500, 0.000000
723, 18.888889, 1.924501, 0.000000
724, 81.111115, 8.075500, 0.000000
725, 23.342634, 1.976422, 0.000000
726, 76.657364, 8.023578, 0.000000
727, 27.644482, 1.925357, 0.000000
728, 72.355515, 8.074643, 0.000000
729, 65.555557, 1.918752, 0.000000
730, 52.222221, 8.075500, 0.000000
731, 47.759132, 8.029424, 0.000000
732, 56.685310, 8.029424, 0.000000
733, 43.333332, 8.075500, 0.000000
734, 34.360878, 8.123746, 0.000000
735, 94.497597, 7.986581, 0.000000
736, 5.502400, 2.013418, 0.000000
737, 96.753876, 2.016337, 0.000000
738, 3.246125, 7.983664, 0.000000
739, 5.535946, 8.069875, 0.000000
740, 6.645030, 6.164897, 0.000000
741, 8.861904, 6.145146, 0.000000
742, 7.734002, 4.241887, 0.000000
743, 5.526698, 4.266088, 0.000000
744, 9.943926, 4.216610, 0.000000
745, 11.080350, 6.127343, 0.000000
746, 12.162532, 4.184470, 0.000000
747, 13.301007, 6.100819, 0.000000
748, 94.464050, 1.930126, 0.000000
749, 93.354973, 3.835103, 0.000000
750, 91.138092, 3.854854, 0.000000
751, 92.265999, 5.758113, 0.000000
752, 94.473305, 5.733912, 0.000000
753, 90.056076, 5.783390, 0.000000
754, 88.919647, 3.872657, 0.000000
755, 87.837471, 5.815530, 0.000000
756, 86.698990, 3.899181, 0.000000
757, 4.559100, 6.079927, 0.000000
758, 95.440903, 3.920073, 0.000000
759, 96.857407, 8.266519, 0.000000
760, 3.142593, 1.733482, 0.000000
761, 7.765332, 1.917316, 0.000000
762, 92.234665, 8.082685, 0.000000
763, 14.383486, 4.155418, 0.000000
764, 15.522582, 6.078787, 0.000000
765, 16.605280, 4.126696, 0.000000
766, 17.740862, 6.036715, 0.000000
767, 85.616516, 5.844582, 0.000000
768, 84.477417, 3.921213, 0.000000
769, 83.394722, 5.873304, 0.000000
770, 82.259140, 3.963285, 0.000000
771, 81.093132, 1.961275, 0.000000
772, 79.901428, 3.897840, 0.000000
773, 77.718788, 3.773254, 0.000000
774, 78.664337, 5.767576, 0.000000
775, 76.305115, 5.491004, 0.000000
776, 74.392075, 6.814821, 0.000000
777, 74.329834, 5.049410, 0.000000
778, 81.031181, 5.836828, 0.000000
779, 18.906864, 8.038725, 0.000000
780, 20.098572, 6.102160, 0.000000
781, 22.281212, 6.226746, 0.000000
782, 21.335661, 4.232424, 0.000000
783, 23.694885, 4.508996, 0.000000
784, 25.607929, 3.185179, 0.000000
785, 25.670168, 4.950590, 0.000000
786, 18.968819, 4.163172, 0.000000
787, 21.111111, 2.019534, 0.000000
788, 78.888885, 7.980466, 0.000000
789, 85.568474, 1.952859, 0.000000
790, 14.431530, 8.047141, 0.000000
791, 87.777779, 8.037279, 0.000000
792, 12.222222, 1.962720, 0.000000
793, 9.991117, 8.067055, 0.000000
794, 90.008881, 1.932945, 0.000000
795, 72.154671, 1.875518, 0.000000
796, 71.035454, 3.803658, 0.000000
797, 68.959846, 3.793198, 0.000000
798, 70.000000, 5.773503, 0.000000
799, 67.781593, 5.651972, 0.000000
800, 72.267075, 5.748134, 0.000000
801, 67.873169, 1.865995, 0.000000
802, 61.111111, 8.075500, 0.000000
803, 62.222221, 6.150998, 0.000000
804, 60.083565, 6.199245, 0.000000
805, 64.360878, 6.199245, 0.000000
806, 63.235840, 4.282785, 0.000000
807, 65.458603, 4.377748, 0.000000
808, 65.454956, 8.124108, 0.000000
809, 61.108791, 4.376459, 0.000000
810, 58.886738, 4.418800, 0.000000
811, 62.181221, 2.339119, 0.000000
812, 36.666668, 1.924501, 0.000000
813, 35.555557, 3.716463, 0.000000
814, 33.416901, 3.520831, 0.000000
815, 37.694210, 3.778665, 0.000000
816, 36.636211, 5.735647, 0.000000
817, 38.881939, 5.648154, 0.000000
818, 38.788288, 1.872210, 0.000000
819, 45.468884, 8.116067, 0.000000
820, 44.346432, 6.206007, 0.000000
821, 42.289452, 6.208413, 0.000000
822, 43.333332, 4.226497, 0.000000
823, 41.113277, 4.306863, 0.000000
824, 45.549770, 4.347970, 0.000000
825, 32.208294, 8.083540, 0.000000
826, 31.108789, 6.284877, 0.000000
827, 28.952900, 6.210492, 0.000000
828, 30.029316, 4.263859, 0.000000
829, 27.716787, 4.267270, 0.000000
830, 27.856001, 8.134398, 0.000000
831, 33.233131, 6.488774, 0.000000
832, 70.006966, 8.166612, 0.000000
833, 32.319717, 1.821559, 0.000000
834, 30.000000, 1.924501, 0.000000
835, 43.333332, 1.924501, 0.000000
836, 47.864452, 1.883933, 0.000000
837, 48.986900, 3.793993, 0.000000
838, 51.127445, 3.839834, 0.000000
839, 50.000000, 5.773503, 0.000000
840, 52.222221, 5.773503, 0.000000
841, 47.781609, 5.693061, 0.000000
842, 53.336056, 3.847474, 0.000000
843, 54.444443, 5.773503, 0.000000
844, 56.566048, 1.892772, 0.000000
845, 54.444443, 8.075500, 0.000000
846, 50.000000, 8.075500, 0.000000
847, 41.208988, 8.125636, 0.000000
848, 36.635597, 8.009136, 0.000000
849, 58.989491, 8.124108, 0.000000
850, 52.225399, 1.922718, 0.000000
851, 55.455673, 3.795212, 0.000000
852, 56.663567, 5.718723, 0.000000
853, 16.666666, 1.914222, 0.000000
854, 83.333336, 8.085778, 0.000000
855, 23.314665, 8.149413, 0.000000
856, 76.685333, 1.850587, 0.000000
857, 98.301376, 7.000000, 0.000000
858, 96.434196, 5.983289, 0.000000
859, 1.698624, 3.000000, 0.000000
860, 3.565806, 4.016711, 0.000000
861, 98.456093, 3.068150, 0.000000
862, 1.543904, 6.931850, 0.000000
863, 75.643997, 3.565674, 0.000000
864, 24.355999, 6.434327, 0.000000
865, 27.053053, 6.374079, 0.000000
866, 72.946945, 3.625921, 0.000000
867, 66.163033, 6.476500, 0.000000
868, 67.168060, 3.559520, 0.000000
869, 31.604918, 3.432467, 0.000000
870, 60.624146, 1.562046, 0.000000
871, 47.168064, 3.559520, 0.000000
872, 35.057037, 6.523073, 0.000000
873, 46.165272, 6.440480, 0.000000
874, 39.498604, 3.559520, 0.000000
875, 40.501396, 6.440480, 0.000000
876, 58.279175, 6.440480, 0.000000
877, 57.271717, 3.569823, 0.000000
878, 63.950092, 2.747232, 0.000000
879, 25.550335, 1.332300, 0.000000
880, 74.449661, 8.667700, 0.000000
881, 1.426342, 8.583181, 0.000000
882, 98.573654, 1.416819, 0.000000
883, 98.513298, 8.582681, 0.000000
884, 1.486699, 1.417320, 0.000000
885, 2.899630, 6.024887, 0.000000
886, 97.100372, 3.975113, 0.000000
887, 6.617791, 3.108563, 0.000000
888, 93.382210, 6.891437, 0.000000
889, 71.111115, 6.924501, 0.000000
890, 28.847647, 3.095247, 0.000000
891, 69.004173, 6.920518, 0.000000
892, 55.555557, 6.924501, 0.000000
893, 53.333332, 6.924501, 0.000000
894, 51.111111, 6.924501, 0.000000
895, 49.003811, 6.917914, 0.000000
896, 37.765320, 6.855590, 0.000000
897, 42.337055, 3.082082, 0.000000
898, 44.335400, 3.084565, 0.000000
899, 8.825980, 3.094108, 0.000000
900, 91.174019, 6.905892, 0.000000
901, 17.782413, 3.032148, 0.000000
902, 82.217590, 6.967853, 0.000000
903, 63.574314, 1.323377, 0.000000
904, 34.420773, 5.027593, 0.000000
905, 60.317490, 2.944006, 0.000000
906, 32.251408, 4.954191, 0.000000
907, 98.368401, 5.000827, 10.000000
908, 1.631599, 4.999173, 10.000000
909, 87.783714, 1.938582, 10.000000
910, 7.766850, 8.077028, 10.000000
911, 12.216286, 8.061418, 10.000000
912, 92.233147, 1.922971, 10.000000
913, 16.660414, 8.041821, 10.000000
914, 83.339584, 1.958179, 10.000000
915, 78.851578, 1.934783, 10.000000
916, 21.148420, 8.065217, 10.000000
917, 25.574499, 8.146317, 10.000000
918, 74.425499, 1.853683, 10.000000
919, 30.000000, 8.075500, 10.000000
920, 70.000000, 1.924501, 10.000000
921, 54.444443, 1.924501, 10.000000
922, 34.444443, 1.924501, 10.000000
923, 45.574200, 1.970576, 10.000000
924, 50.000000, 1.924501, 10.000000
925, 63.333332, 8.075500, 10.000000
926, 38.907536, 8.029424, 10.000000
927, 58.786564, 2.023609, 10.000000
928, 67.759132, 8.029424, 10.000000
929, 41.092464, 1.970576, 10.000000
930, 89.965790, 8.004705, 10.000000
931, 10.034212, 1.995294, 10.000000
932, 14.444445, 1.924501, 10.000000
933, 85.555557, 8.075500, 10.000000
934, 18.888889, 1.924501, 10.000000
935, 81.111115, 8.075500, 10.000000
936, 23.342634, 1.976422, 10.000000
937, 76.657364, 8.023578, 10.000000
938, 27.644482, 1.925357, 10.000000
939, 72.355515, 8.074643, 10.000000
940, 65.555557, 1.918752, 10.000000
941, 52.222221, 8.075500, 10.000000
942, 47.759132, 8.029424, 10.000000
943, 56.685310, 8.029424, 10.000000
944, 43.333332, 8.075500, 10.000000
945, 34.360878, 8.123746, 10.000000
946, 94.497597, 7.986581, 10.000000
947, 5.502400, 2.013418, 10.000000
948, 96.753876, 2.016337, 10.000000
949, 3.246125, 7.983664, 10.000000
950, 5.535946, 8.069875, 10.000000
951, 6.645030, 6.164897, 10.000000
952, 8.861904, 6.145146, 10.000000
953, 7.734002, 4.241887, 10.000000
954, 5.526698, 4.266088, 10.000000
955, 9.943926, 4.216610, 10.000000
956, 11.080350, 6.127343, 10.000000
957, 12.162532, 4.184470, 10.000000
958, 13.301007, 6.100819, 10.000000
959, 94.464050, 1.930126, 10.000000
960, 93.354973, 3.835103, 10.000000
961, 91.138092, 3.854854, 10.000000
962, 92.265999, 5.758113, 10.000000
963, 94.473305, 5.733912, 10.000000
964, 90.056076, 5.783390, 10.000000
965, 88.919647, 3.872657, 10.000000
966, 87.837471, 5.815530, 10.000000
967, 86.698990, 3.899181, 10.000000
968, 4.559100, 6.079927, 10.000000
969, 95.440903, 3.920073, 10.000000
970, 96.857407, 8.266519, 10.000000
971, 3.142593, 1.733482, 10.000000
972, 7.765332, 1.917316, 10.000000
973, 92.234665, 8.082685, 10.000000
974, 14.383486, 4.155418, 10.000000
975, 15.522582, 6.078787, 10.000000
976, 16.605280, 4.126696, 10.000000
977, 17.740862, 6.036715, 10.000000
978, 85.616516, 5.844582, 10.000000
979, 84.477417, 3.921213, 10.000000
980, 83.394722, 5.873304, 10.000000
981, 82.259140, 3.963285, 10.000000
982, 81.093132, 1.961275, 10.000000
983, 79.901428, 3.897840, 10.000000
984, 77.718788, 3.773254, 10.000000
985, 78.664337, 5.767576, 10.000000
986, 76.305115, 5.491004, 10.000000
987, 74.392075, 6.814821, 10.000000
988, 74.329834, 5.049410, 10.000000
989, 81.031181, 5.836828, 10.000000
990, 18.906864, 8.038725, 10.000000
991, 20.098572, 6.102160, 10.000000
992, 22.281212, 6.226746, 10.000000
993, 21.335661, 4.232424, 10.000000
994, 23.694885, 4.508996, 10.000000
995, 25.607929, 3.185179, 10.000000
996, 25.670168, 4.950590, 10.000000
997, 18.968819, 4.163172, 10.000000
998, 21.111111, 2.019534, 10.000000
999, 78.888885, 7.980466, 10.000000
1000, 85.568474, 1.952859, 10.000000
1001, 14.431530, 8.047141, 10.000000
1002, 87.777779, 8.037279, 10.000000
1003, 12.222222, 1.962720, 10.000000
1004, 9.991117, 8.067055, 10.000000
1005, 90.008881, 1.932945, 10.000000
1006, 72.154671, 1.875518, 10.000000
1007, 71.035454, 3.803658, 10.000000
1008, 68.959846, 3.793198, 10.000000
1009, 70.000000, 5.773503, 10.000000
1010, 67.781593, 5.651972, 10.000000
1011, 72.267075, 5.748134, 10.000000
1012, 67.873169, 1.865995, 10.000000
1013, 61.111111, 8.075500, 10.000000
1014, 62.222221, 6.150998, 10.000000
1015, 60.083565, 6.199245, 10.000000
1016, 64.360878, 6.199245, 10.000000
1017, 63.235840, 4.282785, 10.000000
1018, 65.458603, 4.377748, 10.000000
1019, 65.454956, 8.124108, 10.000000
1020, 61.108791, 4.376459, 10.000000
1021, 58.886738, 4.418800, 10.000000
1022, 62.181221, 2.339119, 10.000000
1023, 36.666668, 1.924501, 10.000000
1024, 35.555557, 3.716463, 10.000000
1025, 33.416901, 3.520831, 10.000000
1026, 37.694210, 3.778665, 10.000000
1027, 36.636211, 5.735647, 10.000000
1028, 38.881939, 5.648154, 10.000000
1029, 38.788288, 1.872210, 10.000000
1030, 45.468884, 8.116067, 10.000000
1031, 44.346432, 6.206007, 10.000000
1032, 42.289452, 6.208413, 10.000000
1033, 43.333332, 4.226497, 10.000000
1034, 41.113277, 4.306863, 10.000000
1035, 45.549770, 4.347970, 10.000000
1036, 32.208294, 8.083540, 10.000000
1037, 31.108789, 6.284877, 10.000000
1038, 28.952900, 6.210492, 10.000000
1039, 30.029316, 4.263859, 10.000000
1040, 27.716787, 4.267270, 10.000000
1041, 27.856001, 8.134398, 10.000000
1042, 33.233131, 6.488774, 10.000000
1043, 70.006966, 8.166612, 10.000000
1044, 32.319717, 1.821559, 10.000000
1045, 30.000000, 1.924501, 10.000000
1046, 43.333332, 1.924501, 10.000000
1047, 47.864452, 1.883933, 10.000000
1048, 48.986900, 3.793993, 10.000000
1049, 51.127445, 3.839834, 10.000000
1050, 50.000000, 5.773503, 10.000000
1051, 52.222221, 5.773503, 10.000000
1052, 47.781609, 5.693061, 10.000000
1053, 53.336056, 3.847474, 10.000000
1054, 54.444443, 5.773503, 10.000000
1055, 56.566048, 1.892772, 10.000000
1056, 54.444443, 8.075500, 10.000000
1057, 50.000000, 8.075500, 10.000000
1058, 41.208988, 8.125636, 10.000000
1059, 36.635597, 8.009136, 10.000000
1060, 58.989491, 8.124108, 10.000000
1061, 52.225399, 1.922718, 10.000000
1062, 55.455673, 3.795212, 10.000000
1063, 56.663567, 5.718723, 10.000000
1064, 16.666666, 1.914222, 10.000000
1065, 83.333336, 8.085778, 10.000000
1066, 23.314665, 8.149413, 10.000000
1067, 76.685333, 1.850587, 10.000000
1068, 98.301376, 7.000000, 10.000000
1069, 96.434196, 5.983289, 10.000000
1070, 1.698624, 3.000000, 10.000000
1071, 3.565806, 4.016711, 10.000000
1072, 98.456093, 3.068150, 10.000000
1073, 1.543904, 6.931850, 10.000000
1074, 75.643997, 3.565674, 10.000000
1075, 24.355999, 6.434327, 10.000000
1076, 27.053053, 6.374079, 10.000000
1077, 72.946945, 3.625921, 10.000000
1078, 66.163033, 6.476500, 10.000000
1079, 67.168060, 3.559520, 10.000000
1080, 31.604918, 3.432467, 10.000000
1081, 60.624146, 1.562046, 10.000000
1082, 47.168064, 3.559520, 10.000000
1083, 35.057037, 6.523073, 10.000000
1084, 46.165272, 6.440480, 10.000000
1085, 39.498604, 3.559520, 10.000000
1086, 40.501396, 6.440480, 10.000000
1087, 58.279175, 6.440480, 10.000000
1088, 57.271717, 3.569823, 10.000000
1089, 63.950092, 2.747232, 10.000000
1090, 25.550335, 1.332300, 10.000000
1091, 74.449661, 8.667700, 10.000000
1092, 1.426342, 8.583181, 10.000000
1093, 98.573654, 1.416819, 10.000000
1094, 98.513298, 8.582681, 10.000000
1095, 1.486699, 1.417320, 10.000000
1096, 2.899630, 6.024887, 10.000000
1097, 97.100372, 3.975113, 10.000000
1098, 6.617791, 3.108563, 10.000000
1099, 93.382210, 6.891437, 10.000000
1100, 71.111115, 6.924501, 10.000000
1101, 28.847647, 3.095247, 10.000000
1102, 69.004173, 6.920518, 10.000000
1103, 55.555557, 6.924501, 10.000000
1104, 53.333332, 6.924501, 10.000000
1105, 51.111111, 6.924501, 10.000000
1106, 49.003811, 6.917914, 10.000000
1107, 37.765320, 6.855590, 10.000000
1108, 42.337055, 3.082082, 10.000000
1109, 44.335400, 3.084565, 10.000000
1110, 8.825980, 3.094108, 10.000000
1111, 91.174019, 6.905892, 10.000000
1112, 17.782413, 3.032148, 10.000000
1113, 82.217590, 6.967853, 10.000000
1114, 63.574314, 1.323377, 10.000000
1115, 34.420773, 5.027593, 10.000000
1116, 60.317490, 2.944006, 10.000000
1117, 32.251408, 4.954191, 10.000000
1118, 75.231102, 5.021446, 5.000000
1119, 6.825169, 4.997068, 5.003980
1120, 93.164894, 5.000000, 5.000000
1121, 55.359962, 5.000000, 4.990461
1122, 62.245010, 4.988559, 5.000000
1123, 26.828194, 5.012419, 5.000000
1124, 13.557430, 4.993157, 5.000000
1125, 68.983139, 5.002661, 4.993127
1126, 49.052364, 5.009493, 4.970767
1127, 84.583084, 5.013907, 5.000000
1128, 35.555099, 4.990735, 4.998540
1129, 44.051655, 4.874911, 4.908428
1130, 20.271263, 4.992909, 5.000000
1131, 79.907402, 5.394613, 5.328714
1132, 39.802139, 4.260483, 5.701081
1133, 31.190351, 4.434607, 5.681386
1134, 88.872940, 4.359247, 5.640753
1135, 3.492657, 3.672792, 5.654893
1136, 96.410217, 3.987577, 3.608063
1137, 58.806255, 6.280992, 3.819217
1138, 65.602219, 6.338034, 6.224177
1139, 10.191275, 3.700576, 6.232570
1140, 52.208397, 3.566428, 3.571712
1141, 10.013297, 6.320267, 3.575055
1142, 38.325230, 6.592293, 3.485137
1143, 16.914394, 6.281412, 6.281412
1144, 23.545177, 6.532361, 5.580247
1145, 52.203892, 6.342165, 6.353559
1146, 72.101311, 6.441835, 6.369558
1147, 33.234100, 3.311272, 3.312537
1148, 3.298745, 6.172846, 3.367394
1149, 82.243065, 6.749360, 3.343910
1150, 58.505981, 3.634055, 6.397081
1151, 17.197754, 3.583624, 3.578660
1152, 37.743050, 6.740705, 6.715917
1153, 96.354065, 6.421009, 6.356067
1154, 18.097826, 6.730855, 3.244219
1155, 90.452530, 6.573129, 3.420038
1156, 18.087593, 3.238610, 6.728978
1157, 77.840294, 3.324098, 3.447234
1158, 32.432594, 6.674437, 3.358583
1159, 72.110306, 4.553798, 3.350705
1160, 82.486870, 6.802007, 6.750860
1161, 46.486370, 6.618150, 6.586893
1162, 3.703697, 6.826286, 6.826286
1163, 66.091202, 3.504555, 3.442358
1164, 29.241947, 3.878283, 3.134385
1165, 87.027550, 6.744416, 3.327165
1166, 96.805115, 3.187474, 6.812526
1167, 28.557547, 3.073642, 6.833510
1168, 41.695011, 6.672082, 3.291065
1169, 60.020676, 3.255951, 3.276418
1170, 33.328434, 6.737264, 6.705745
1171, 22.759445, 3.370154, 6.834763
1172, 23.894922, 3.678858, 3.465332
1173, 41.738956, 3.208732, 3.243771
1174, 46.615261, 3.338332, 3.328083
1175, 41.880840, 6.694001, 6.706039
1176, 77.586456, 6.679564, 3.249054
1177, 46.750919, 6.711970, 3.267797
1178, 90.920525, 3.298542, 3.257533
1179, 11.366767, 3.313089, 3.145954
1180, 90.917686, 6.739209, 6.701869
1181, 46.405033, 3.298613, 6.642179
1182, 9.020020, 6.751190, 6.751190
1183, 82.198524, 3.316976, 6.685566
1184, 81.765930, 3.383027, 3.313731
1185, 64.466698, 3.267354, 6.763896
1186, 66.859680, 6.786672, 3.208565
1187, 52.222221, 6.919211, 3.105853
1188, 37.807365, 3.358362, 3.254279
1189, 77.594841, 3.514863, 6.722510
1190, 57.489475, 6.731390, 6.793655
1191, 51.214504, 3.189185, 6.722263
1192, 77.324677, 6.805888, 6.829772
1193, 29.053686, 6.711485, 6.742150
1194, 71.213081, 3.265201, 6.730622
1195, 86.852547, 6.757800, 6.602798
1196, 86.857666, 3.490420, 3.230245
1197, 95.169861, 6.966214, 3.397065
1198, 33.821503, 3.062280, 6.864423
1199, 37.147678, 3.088121, 6.961358
1200, 63.709774, 6.950434, 3.000627
1201, 43.336414, 2.934667, 7.134502
1202, 91.498131, 3.074669, 6.925331
1203, 86.238953, 3.063581, 6.936419
1204, 70.057388, 7.056263, 2.921509
1205, 56.865150, 2.947342, 3.091001
1206, 60.649467, 6.898626, 6.961527
1207, 2.831790, 2.910287, 2.803224
1208, 28.430275, 6.956857, 3.051731
1209, 12.167837, 7.010571, 7.010571
1210, 67.628647, 2.936790, 6.947065
1211, 8.270445, 3.050406, 3.058326
1212, 6.077980, 2.854140, 7.022178
1213, 54.264442, 3.101669, 7.157305
1214, 61.336109, 2.908859, 7.158175
1215, 63.076084, 2.878962, 2.935984
1216, 74.278221, 2.939814, 7.096020
1217, 35.451340, 7.093527, 2.894546
1218, 68.398285, 7.144547, 7.045939
1219, 69.586571, 2.918212, 2.852120
1220, 20.956209, 7.103687, 7.103695
1221, 6.156638, 7.021524, 2.859008
1222, 26.093426, 7.050769, 7.071746
1223, 14.345146, 2.841358, 2.894380
1224, 74.587326, 2.821584, 2.998376
1225, 56.037010, 7.147524, 2.975017
1226, 14.430438, 2.726002, 6.783465
1227, 21.047668, 2.800664, 3.102347
1228, 49.406010, 7.129264, 7.046741
1229, 25.123159, 6.827110, 2.641331
1230, 22.176863, 6.064242, 2.974177
1231, 14.418374, 6.753288, 2.716506
1232, 93.801483, 2.899748, 2.762245
1233, 73.495956, 7.134760, 3.840506
1234, 49.468349, 2.780980, 2.780980
1235, 25.634350, 2.751166, 6.492303
1236, 93.718399, 7.308515, 7.156144
1237, 5.474356, 2.801317, 3.824308
1238, 49.453320, 7.355573, 2.754469
1239, 54.733009, 7.290363, 7.272361
1240, 94.146492, 3.833711, 7.330275
1241, 61.182568, 5.661998, 2.526230
1242, 6.378376, 7.284995, 7.461798
1243, 97.566414, 6.628061, 2.460858
1244, 63.249599, 5.637580, 7.488867
1245, 74.622513, 7.452806, 6.970877
1246, 35.534653, 5.568659, 7.579707
1247, 35.583347, 7.574338, 5.473924
1248, 79.750092, 5.111569, 2.597486
1249, 84.314232, 2.704521, 2.478788
1250, 14.629720, 7.501094, 5.355010
1251, 31.109173, 2.433664, 7.520336
1252, 54.525375, 2.447623, 4.489393
1253, 44.214142, 7.343567, 2.478904
1254, 14.628227, 5.370039, 7.501355
1255, 80.000008, 7.583339, 7.518812
1256, 54.491295, 4.549855, 2.440897
1257, 88.897560, 2.434244, 7.565756
1258, 79.875755, 2.625501, 5.195270
1259, 2.313245, 2.326761, 7.391101
1260, 39.817974, 7.532754, 5.382179
1261, 61.083893, 7.596487, 4.397086
1262, 44.175728, 3.832247, 2.506983
1263, 39.972866, 2.441381, 7.633844
1264, 44.168659, 7.478178, 5.545320
1265, 2.338441, 4.861430, 7.512369
1266, 26.526648, 3.692825, 2.573051
1267, 48.779243, 2.572935, 7.598611
1268, 35.519001, 2.374973, 2.371707
1269, 39.827187, 4.768404, 2.318310
1270, 94.858322, 2.505158, 5.155622
1271, 84.154152, 7.582196, 4.906887
1272, 44.345573, 5.354476, 7.494352
1273, 92.873978, 5.966691, 2.560599
1274, 84.101135, 4.897760, 7.584947
1275, 35.548923, 2.359545, 5.002691
1276, 84.103760, 2.420146, 5.094334
1277, 31.104904, 2.356593, 2.265676
1278, 30.376402, 7.631498, 4.673857
1279, 24.706472, 4.915929, 7.587992
1280, 20.222374, 7.632348, 4.589890
1281, 12.252419, 2.331595, 5.397920
1282, 97.695694, 2.309488, 2.290863
1283, 54.153236, 7.610840, 4.736890
1284, 20.606470, 2.490390, 5.654217
1285, 56.400761, 4.520848, 7.671381
1286, 44.654499, 2.342312, 4.968211
1287, 92.465607, 7.478547, 4.766974
1288, 8.047868, 4.465128, 7.448669
1289, 19.866581, 5.012862, 2.437438
1290, 69.314064, 4.787897, 7.629699
1291, 18.970043, 5.503728, 7.710599
1292, 72.903343, 2.379078, 4.946298
1293, 63.342182, 7.487777, 5.671305
1294, 75.223839, 5.689053, 2.423737
1295, 8.110816, 2.368821, 5.529412
1296, 12.140128, 5.621291, 2.295598
1297, 75.890877, 2.362336, 5.172147
1298, 88.743820, 7.647501, 5.057686
1299, 7.277499, 7.622416, 5.084892
1300, 97.827377, 7.868999, 7.838674
1301, 48.328312, 2.547470, 5.070419
1302, 88.957886, 4.734268, 2.422222
1303, 80.017464, 7.688267, 2.383910
1304, 75.527847, 5.128133, 7.539136
1305, 12.309449, 7.126652, 4.353034
1306, 50.520824, 5.069590, 2.393498
1307, 2.853949, 7.805611, 2.297333
1308, 31.194340, 7.610010, 7.736084
1309, 70.182594, 7.742018, 5.354053
1310, 8.035362, 5.439253, 2.278003
1311, 27.366230, 2.571849, 4.669193
1312, 80.814255, 7.705245, 5.143992
1313, 79.971474, 2.605992, 7.770823
1314, 75.786568, 7.533486, 4.759702
1315, 69.400032, 2.301843, 5.281315
1316, 50.679760, 7.734857, 4.917238
1317, 2.350453, 7.684977, 5.007624
1318, 84.444664, 7.824053, 7.825441
1319, 15.451274, 7.731137, 7.715095
1320, 97.672928, 2.290604, 4.755198
1321, 5.249861, 5.092201, 7.682364
1322, 39.822250, 7.395184, 7.823189
1323, 84.633118, 6.265996, 2.850848
1324, 12.465340, 4.215864, 7.092892
1325, 48.202347, 4.971403, 7.304817
1326, 5.131921, 4.805200, 2.394113
1327, 4.806841, 7.705022, 4.804835
1328, 18.834522, 2.976667, 2.060017
1329, 34.965202, 4.756185, 2.367872
1330, 88.869118, 7.853884, 7.516097
1331, 79.783623, 2.223881, 2.308830
1332, 39.739368, 2.324405, 4.263244
1333, 56.384613, 2.414546, 6.106229
1334, 61.627323, 2.186733, 4.790016
1335, 79.891220, 5.103616, 7.810897
1336, 41.423424, 4.426541, 7.544147
1337, 68.565193, 5.135447, 2.575820
1338, 26.791298, 7.754091, 4.770677
1339, 30.431551, 5.816489, 2.284041
1340, 89.968857, 2.218817, 5.227710
1341, 89.878372, 4.651421, 7.845228
1342, 20.175348, 7.423756, 2.151955
1343, 15.828646, 4.246770, 5.485840
1344, 48.228848, 7.680782, 4.967666
1345, 9.047899, 2.205103, 7.757398
1346, 59.921394, 7.797759, 2.245956
1347, 97.848022, 5.114400, 7.528040
1348, 2.036752, 7.983706, 7.779052
1349, 27.168610, 4.920947, 7.688205
1350, 92.468857, 2.332068, 4.840922
1351, 16.364811, 5.393191, 2.178993
1352, 64.579956, 5.153700, 4.373875
1353, 73.156967, 4.912843, 7.901347
1354, 23.841654, 7.680091, 7.687493
1355, 8.647072, 7.767363, 2.219685
1356, 64.490448, 7.833123, 7.786811
1357, 18.637960, 7.808702, 7.037949
1358, 82.236023, 5.162527, 5.081540
1359, 71.894768, 2.225265, 2.761045
1360, 97.684975, 7.655849, 4.694165
1361, 53.706657, 2.251143, 2.251143
1362, 35.980133, 7.825891, 7.731317
1363, 30.624430, 5.272915, 7.867975
1364, 84.103729, 2.268028, 7.731791
1365, 66.029846, 2.113708, 5.379521
1366, 60.005322, 4.775057, 7.896926
1367, 39.911781, 7.793024, 2.157832
1368, 71.111115, 7.940140, 7.882627
1369, 38.667690, 4.777310, 7.763330
1370, 50.651791, 5.242444, 7.777549
1371, 41.821777, 2.245414, 5.424870
1372, 15.531807, 2.012715, 4.765905
1373, 44.408604, 7.701206, 7.906113
1374, 53.362961, 5.113931, 8.005741
1375, 19.842741, 2.142248, 7.856190
1376, 11.404728, 2.165760, 7.596975
1377, 32.222286, 1.999740, 5.470219
1378, 29.946730, 2.523922, 4.970567
1379, 37.747597, 7.968200, 1.884395
1380, 77.576790, 5.193564, 5.073602
1381, 37.803116, 5.137372, 5.129140
1382, 58.455750, 2.115976, 4.605798
1383, 50.609688, 2.119991, 4.722369
1384, 92.247284, 5.128662, 7.749814
1385, 28.927408, 2.021257, 1.948075
1386, 67.060150, 7.929103, 5.265471
1387, 29.364155, 5.539332, 4.757590
1388, 23.806990, 2.071275, 5.178595
1389, 57.372009, 7.878695, 4.755137
1390, 2.121022, 2.158486, 4.773320
1391, 87.636154, 2.426795, 5.167019
1392, 10.563025, 5.363625, 7.843813
1393, 64.088226, 4.820089, 2.111243
1394, 11.102794, 7.705698, 2.030884
1395, 48.217571, 4.954303, 2.786156
1396, 53.174660, 4.381546, 5.535698
1397, 57.285305, 5.191147, 2.280908
1398, 33.245853, 5.070829, 4.820680
1399, 78.501015, 7.761159, 5.079915
1400, 2.138874, 5.457372, 5.339340
1401, 22.453737, 5.464442, 7.806270
1402, 59.983799, 5.201344, 5.513152
1403, 10.309815, 7.935287, 5.221282
1404, 66.762520, 4.481935, 5.441766
1405, 66.946953, 5.081549, 7.745982
1406, 46.366913, 5.065815, 4.862076
1407, 94.863297, 4.858559, 2.113508
1408, 37.729694, 8.089850, 4.980282
1409, 97.723679, 4.948971, 5.235571
1410, 98.018768, 4.453003, 2.230147
1411, 39.954895, 2.501027, 1.984907
1412, 31.112789, 7.993218, 2.016336
1413, 42.294849, 4.966305, 1.907851
1414, 87.619469, 4.798770, 7.505074
1415, 88.840210, 2.233376, 2.357403
1416, 41.785328, 5.164565, 5.008440
1417, 83.181137, 4.669882, 2.005331
1418, 67.529976, 2.073176, 2.448544
1419, 72.144142, 6.783475, 2.032705
1420, 86.855026, 5.172905, 4.966887
1421, 10.970662, 5.730819, 5.555801
1422, 18.534853, 2.177107, 4.766668
1423, 4.676450, 5.530125, 5.290963
1424, 73.109581, 4.529944, 5.659046
1425, 33.333351, 1.759713, 1.929052
1426, 51.410465, 7.854376, 7.873955
1427, 51.247414, 5.393617, 4.522726
1428, 22.442350, 7.969914, 4.196768
1429, 57.541233, 4.545350, 4.555069
1430, 57.758690, 2.078336, 7.932202
1431, 75.883430, 7.890730, 2.281933
1432, 98.008545, 1.960569, 8.039431
1433, 37.164497, 5.208182, 2.130755
1434, 90.917007, 4.893690, 4.851819
1435, 22.500406, 4.623121, 4.972083
1436, 2.118566, 4.845106, 2.113531
1437, 82.222229, 8.078967, 1.751756
1438, 8.985445, 4.574059, 4.548458
1439, 35.461430, 2.008043, 7.992175
1440, 16.381613, 2.217173, 7.786586
1441, 69.563210, 2.188463, 7.811537
1442, 16.372437, 7.780177, 2.227287
1443, 33.466873, 7.996969, 4.850994
1444, 20.672199, 4.126198, 7.196596
1445, 42.087601, 8.114116, 4.973060
1446, 24.691889, 4.481779, 5.394328
1447, 31.323774, 4.294943, 3.530322
1448, 76.512383, 2.049107, 2.205108
1449, 15.984472, 6.105533, 4.259892
1450, 54.053600, 7.813884, 2.186116

*ELEMENT, TYPE=C3D4, ELSET=ALL_ELEMENTS
1, 1136, 1153, 1120, 1270
2, 1170, 1198, 1117, 1363
3, 251, 1140, 850, 1234
4, 1185, 1334, 1215, 1365
5, 925, 1206, 469, 1356
6, 1139, 1179, 273, 1295
7, 773, 1176, 1157, 1248
8, 855, 1230, 1229, 1428
9, 873, 1177, 1253, 1262
10, 273, 1179, 1139, 1281
11, 1153, 1240, 1120, 1270
12, 925, 1013, 469, 1206
13, 251, 850, 1140, 1361
14, 511, 1197, 1153, 1236
15, 935, 1065, 1113, 1160
16, 1143, 1154, 519, 1357
17, 1067, 1189, 222, 1216
18, 361, 1151, 853, 1223
19, 283, 1184, 1258, 1276
20, 260, 1202, 221, 1240
21, 1115, 1117, 1170, 1198
22, 802, 715, 481, 1200
23, 600, 802, 481, 1200
24, 600, 802, 1200, 1346
25, 491, 1155, 762, 1273
26, 873, 1253, 820, 1262
27, 341, 1262, 1173, 1286
28, 1115, 1198, 1170, 1246
29, 912, 259, 221, 1240
30, 584, 491, 657, 1155
31, 1197, 1236, 509, 1287
32, 925, 469, 581, 1356
33, 912, 221, 1202, 1240
34, 509, 1197, 511, 1236
35, 283, 1258, 1183, 1276
36, 1183, 1258, 1184, 1276
37, 791, 1155, 658, 1165
38, 1143, 1151, 1130, 1156
39, 1130, 1151, 1143, 1154
40, 584, 762, 491, 1155
41, 489, 1158, 734, 1217
42, 732, 550, 1225, 1346
43, 560, 629, 666, 1200
44, 1155, 1273, 491, 1287
45, 260, 221, 259, 1240
46, 1136, 1166, 1153, 1270
47, 1165, 1195, 566, 1271
48, 259, 912, 959, 1240
49, 753, 750, 1273, 1302
50, 657, 1155, 491, 1287
51, 1166, 1240, 1153, 1270
52, 1153, 1166, 1136, 1409
53, 259, 959, 1166, 1240
54, 1179, 1211, 273, 1295
55, 1199, 1275, 1188, 1332
56, 1221, 1307, 1148, 1327
57, 1178, 1273, 750, 1302
58, 568, 566, 1165, 1195
59, 928, 594, 1218, 1356
60, 928, 468, 594, 1356
61, 732, 487, 550, 1346
62, 879, 784, 1172, 1266
63, 568, 1195, 1165, 1298
64, 629, 1186, 666, 1200
65, 925, 1244, 1206, 1356
66, 744, 1179, 1141, 1310
67, 734, 540, 825, 1412
68, 631, 1206, 1293, 1356
69, 623, 567, 662, 1323
70, 1147, 1158, 906, 1447
71, 1157, 1294, 773, 1448
72, 906, 1158, 1147, 1329
73, 1141, 1179, 744, 1296
74, 1146, 1159, 1125, 1309
75, 1191, 1213, 335, 1252
76, 666, 1200, 1186, 1386
77, 666, 1293, 1200, 1386
78, 870, 1169, 246, 1215
79, 1114, 1185, 236, 1214
80, 1174, 1262, 245, 1286
81, 753, 1273, 1155, 1302
82, 259, 1240, 1166, 1270
83, 963, 1236, 1153, 1240
84, 340, 1173, 341, 1262
85, 629, 666, 1186, 1386
86, 310, 1275, 1199, 1332
87, 222, 1216, 1189, 1297
88, 341, 245, 1262, 1286
89, 351, 1215, 1334, 1365
90, 1159, 1204, 1125, 1309
91, 1120, 1153, 1136, 1197
92, 1014, 1206, 925, 1244
93, 1191, 1252, 335, 1383
94, 658, 1165, 1155, 1298
95, 533, 1004, 1182, 1209
96, 222, 1067, 915, 1189
97, 959, 948, 259, 1166
98, 567, 623, 566, 1323
99, 322, 222, 915, 1189
100, 251, 332, 1140, 1234
101, 670, 628, 1161, 1228
102, 1133, 1198, 1170, 1363
103, 351, 1334, 1185, 1365
104, 928, 1218, 1078, 1356
105, 850, 1140, 838, 1234
106, 600, 1200, 1261, 1346
107, 1013, 925, 1014, 1206
108, 714, 331, 251, 1234
109, 714, 251, 850, 1234
110, 567, 854, 1323, 1437
111, 552, 1225, 1346, 1389
112, 568, 1165, 521, 1298
113, 1159, 1224, 777, 1294
114, 798, 796, 1159, 1337
115, 802, 1241, 1200, 1346
116, 1155, 1165, 791, 1302
117, 259, 948, 257, 1166
118, 361, 425, 1151, 1223
119, 1078, 1356, 1218, 1405
120, 492, 1307, 1221, 1327
121, 798, 1159, 1204, 1337
122, 873, 824, 1177, 1262
123, 1200, 1293, 1138, 1386
124, 938, 1167, 313, 1235
125, 644, 491, 1273, 1287
126, 312, 310, 1199, 1332
127, 464, 1065, 569, 1160
128, 870, 246, 811, 1215
129, 1164, 1208, 829, 1266
130, 1135, 1259, 1212, 1321
131, 568, 566, 521, 1165
132, 807, 1186, 1163, 1337
133, 887, 736, 1211, 1237
134, 393, 1215, 351, 1365
135, 554, 1261, 1206, 1389
136, 595, 1060, 1190, 1206
137, 783, 1172, 1229, 1230
138, 543, 633, 1177, 1264
139, 273, 286, 1139, 1295
140, 361, 853, 1151, 1328
141, 935, 569, 1065, 1160
142, 604, 600, 1200, 1261
143, 1125, 1159, 1146, 1424
144, 1218, 1356, 1138, 1405
145, 1155, 1273, 1178, 1302
146, 1153, 1197, 511, 1360
147, 332, 1140, 1234, 1383
148, 342, 341, 1173, 1286
149, 1061, 394, 1191, 1213
150, 275, 259, 1166, 1270
151, 566, 1195, 568, 1271
152, 1174, 1177, 824, 1262
153, 1167, 1235, 938, 1349
154, 798, 1204, 1159, 1419
155, 406, 1211, 256, 1237
156, 796, 1219, 1159, 1337
157, 273, 1139, 286, 1281
158, 487, 732, 849, 1346
159, 744, 1211, 1179, 1310
160, 1143, 1156, 1254, 1343
161, 571, 1152, 1322, 1362
162, 716, 357, 1169, 1205
163, 1136, 1282, 1232, 1407
164, 981, 1274, 1183, 1335
165, 942, 1161, 628, 1228
166, 567, 566, 1271, 1323
167, 1183, 1274, 1160, 1335
168, 1135, 1237, 274, 1390
169, 1215, 1352, 1185, 1365
170, 928, 1019, 468, 1356
171, 761, 887, 736, 1211
172, 809, 1169, 905, 1215
173, 803, 1200, 802, 1241
174, 256, 406, 277, 1211
175, 253, 1163, 729, 1215
176, 840, 842, 1256, 1306
177, 1151, 1156, 1143, 1343
178, 528, 1144, 1229, 1338
179, 762, 1155, 900, 1273
180, 831, 734, 1158, 1217
181, 753, 750, 751, 1273
182, 1140, 1256, 842, 1306
183, 482, 1168, 733, 1253
184, 1252, 1383, 1191, 1396
185, 359, 227, 1055, 1213
186, 1079, 1210, 1185, 1405
187, 730, 1187, 609, 1238
188, 588, 1146, 590, 1233
189, 560, 1200, 666, 1293
190, 254, 1194, 1006, 1216
191, 1198, 1251, 1117, 1363
192, 312, 1199, 1263, 1332
193, 1125, 1194, 1159, 1424
194, 460, 791, 658, 1165
195, 1114, 236, 1022, 1214
196, 1186, 1200, 1138, 1386
197, 1125, 1146, 1194, 1424
198, 1232, 1282, 758, 1407
199, 612, 463, 973, 1180
200, 829, 1164, 827, 1208
201, 847, 733, 482, 1168
202, 1163, 1186, 807, 1393
203, 1146, 1011, 1290, 1353
204, 1143, 1154, 1151, 1449
205, 322, 1189, 915, 1313
206, 730, 609, 846, 1238
207, 541, 846, 609, 1238
208, 824, 1177, 1174, 1395
209, 559, 808, 1186, 1200
210, 701, 794, 279, 1178
211, 1115, 1025, 1117, 1198
212, 873, 820, 824, 1262
213, 584, 658, 719, 1155
214, 256, 277, 761, 1211
215, 1254, 1343, 1156, 1440
216, 623, 1165, 566, 1323
217, 928, 1078, 1019, 1356
218, 260, 1202, 1240, 1350
219, 1159, 1194, 1125, 1315
220, 312, 389, 403, 1263
221, 1218, 1356, 583, 1386
222, 1153, 1197, 1120, 1236
223, 1163, 1215, 393, 1365
224, 359, 1213, 1055, 1430
225, 903, 253, 878, 1215
226, 827, 1208, 1164, 1339
227, 1188, 1275, 310, 1332
228, 486, 1186, 717, 1204
229, 274, 1212, 1135, 1259
230, 628, 1161, 1030, 1373
231, 589, 590, 588, 1146
232, 713, 835, 245, 1262
233, 1213, 1252, 1191, 1396
234, 393, 1163, 253, 1215
235, 1039, 1167, 1101, 1349
236, 1181, 1201, 1109, 1272
237, 644, 491, 512, 1273
238, 1135, 1212, 274, 1237
239, 1177, 1264, 1161, 1344
240, 975, 1143, 977, 1254
241, 519, 1143, 517, 1250
242, 458, 533, 910, 1182
243, 355, 923, 1181, 1201
244, 533, 1004, 910, 1182
245, 408, 1179, 242, 1211
246, 595, 1190, 649, 1206
247, 732, 876, 849, 1346
248, 688, 1390, 686, 1400
249, 590, 1146, 589, 1309
250, 554, 1206, 1190, 1389
251, 408, 273, 1179, 1211
252, 1206, 1261, 1137, 1389
253, 715, 802, 803, 1200
254, 312, 1199, 389, 1263
255, 530, 1154, 1280, 1357
256, 713, 245, 374, 1174
257, 610, 1158, 489, 1217
258, 600, 481, 604, 1200
259, 416, 242, 408, 1179
260, 1185, 1122, 1215, 1334
261, 1047, 234, 923, 1181
262, 234, 1181, 1047, 1267
263, 946, 1153, 1236, 1300
264, 355, 923, 234, 1181
265, 491, 762, 512, 1273
266, 260, 1240, 259, 1270
267, 527, 1222, 1144, 1338
268, 1187, 1256, 1121, 1396
269, 840, 1256, 1187, 1306
270, 713, 374, 836, 1174
271, 921, 1055, 227, 1213
272, 416, 408, 273, 1179
273, 342, 341, 340, 1173
274, 590, 1233, 1146, 1309
275, 1163, 1352, 1215, 1365
276, 745, 744, 1141, 1310
277, 355, 234, 411, 1181
278, 359, 412, 227, 1213
279, 1130, 1154, 1143, 1280
280, 745, 1141, 744, 1296
281, 1116, 1214, 1081, 1430
282, 1030, 628, 942, 1161
283, 1150, 1214, 414, 1382
284, 528, 527, 1144, 1338
285, 653, 1186, 1204, 1386
286, 245, 1174, 713, 1262
287, 1121, 1283, 1187, 1396
288, 1139, 1179, 1295, 1438
289, 229, 938, 313, 1235
290, 590, 1204, 1233, 1309
291, 830, 1208, 459, 1229
292, 1187, 1121, 1256, 1283
293, 383, 1232, 1136, 1282
294, 919, 1041, 607, 1193
295, 762, 888, 735, 1273
296, 359, 1333, 1213, 1430
297, 1135, 1265, 1259, 1321
298, 1211, 1295, 1179, 1438
299, 944, 1058, 605, 1175
300, 341, 245, 340, 1262
301, 1225, 1346, 1137, 1397
302, 804, 1241, 1137, 1397
303, 1185, 1215, 1122, 1352
304, 946, 1236, 495, 1300
305, 258, 1212, 274, 1259
306, 1165, 1271, 566, 1323
307, 1081, 1214, 235, 1430
308, 222, 324, 1216, 1297
309, 835, 340, 245, 1262
310, 383, 1136, 1232, 1270
311, 567, 1323, 1271, 1437
312, 389, 312, 310, 1199
313, 1157, 323, 1258, 1297
314, 1214, 1334, 414, 1382
315, 1001, 911, 457, 1209
316, 887, 1237, 1211, 1326
317, 364, 1185, 940, 1210
318, 1109, 1181, 923, 1201
319, 530, 519, 1154, 1357
320, 906, 831, 1158, 1329
321, 559, 1186, 629, 1200
322, 686, 1390, 1207, 1400
323, 944, 1175, 605, 1373
324, 880, 598, 1419, 1431
325, 554, 649, 1190, 1206
326, 531, 1001, 457, 1209
327, 1153, 1069, 1240, 1347
328, 1140, 1383, 1252, 1396
329, 648, 649, 595, 1190
330, 644, 1273, 1197, 1287
331, 605, 1058, 472, 1175
332, 595, 943, 470, 1190
333, 879, 1172, 320, 1266
334, 1130, 1280, 1143, 1357
335, 809, 905, 811, 1215
336, 947, 1212, 258, 1259
337, 260, 1240, 1270, 1350
338, 364, 236, 1114, 1185
339, 1120, 1236, 1197, 1287
340, 1169, 1205, 357, 1382
341, 653, 1204, 1309, 1386
342, 713, 898, 835, 1262
343, 1125, 1163, 1219, 1315
344, 505, 511, 495, 1236
345, 1071, 1212, 1259, 1321
346, 1159, 1294, 777, 1419
347, 477, 607, 1041, 1193
348, 1041, 477, 1193, 1222
349, 531, 1001, 1209, 1319
350, 835, 897, 718, 1173
351, 940, 1185, 1079, 1210
352, 1129, 1253, 1177, 1262
353, 533, 1209, 1182, 1403
354, 1194, 1159, 1292, 1315
355, 1182, 1209, 1004, 1392
356, 701, 1178, 279, 1232
357, 425, 1151, 1223, 1372
358, 359, 412, 1213, 1333
359, 730, 894, 1187, 1238
360, 1117, 1251, 1080, 1363
361, 1138, 1356, 1218, 1386
362, 1115, 1117, 1042, 1170
363, 938, 1101, 1045, 1167
364, 496, 950, 494, 1162
365, 533, 911, 1004, 1209
366, 506, 509, 1236, 1287
367, 590, 1204, 651, 1233
368, 963, 1153, 1069, 1240
369, 1133, 1170, 1278, 1308
370, 945, 1036, 478, 1170
371, 946, 505, 495, 1236
372, 730, 846, 894, 1238
373, 1137, 1346, 804, 1397
374, 457, 911, 533, 1209
375, 334, 374, 1174, 1234
376, 891, 717, 1186, 1204
377, 836, 1174, 374, 1234
378, 1061, 1191, 1053, 1213
379, 1298, 1302, 1134, 1420
380, 969, 1166, 1240, 1347
381, 328, 1183, 982, 1364
382, 1165, 1302, 1298, 1420
383, 644, 512, 1197, 1273
384, 355, 1181, 410, 1201
385, 831, 1217, 1158, 1329
386, 633, 1253, 1177, 1264
387, 375, 918, 222, 1216
388, 248, 1205, 844, 1361
389, 1125, 1163, 1315, 1404
390, 748, 1232, 255, 1282
391, 938, 229, 1090, 1235
392, 595, 1060, 943, 1190
393, 768, 756, 1196, 1249
394, 648, 554, 649, 1190
395, 867, 1186, 808, 1200
396, 1155, 1134, 1298, 1302
397, 1190, 1206, 1137, 1389
398, 423, 1191, 394, 1213
399, 865, 1208, 1229, 1266
400, 653, 1186, 486, 1204
401, 807, 1186, 867, 1393
402, 835, 1173, 340, 1262
403, 1137, 1241, 804, 1346
404, 753, 1155, 719, 1302
405, 1292, 1315, 1159, 1359
406, 744, 899, 1179, 1211
407, 1159, 1125, 1219, 1315
408, 1169, 1215, 809, 1241
409, 950, 1162, 496, 1242
410, 1125, 1204, 1186, 1386
411, 559, 629, 560, 1200
412, 494, 950, 949, 1162
413, 335, 1191, 423, 1213
414, 940, 364, 1114, 1185
415, 315, 1171, 1235, 1388
416, 1067, 222, 918, 1216
417, 876, 804, 1346, 1397
418, 1087, 1190, 1060, 1206
419, 258, 947, 268, 1212
420, 1125, 1309, 1204, 1386
421, 1017, 1185, 1089, 1214
422, 651, 1233, 1204, 1419
423, 246, 870, 357, 1169
424, 863, 773, 1294, 1448
425, 959, 969, 1166, 1240
426, 867, 1186, 1200, 1393
427, 976, 1143, 1156, 1254
428, 364, 1185, 1210, 1365
429, 731, 488, 601, 1177
430, 798, 1159, 796, 1419
431, 361, 425, 426, 1151
432, 329, 1194, 254, 1216
433, 334, 1234, 1174, 1301
434, 1223, 1231, 1124, 1449
435, 745, 741, 744, 1310
436, 310, 389, 1199, 1275
437, 903, 347, 253, 1215
438, 251, 331, 332, 1234
439, 519, 1143, 518, 1154
440, 824, 873, 1177, 1395
441, 236, 1185, 413, 1214
442, 579, 945, 478, 1170
443, 855, 1229, 529, 1428
444, 1223, 1351, 1231, 1449
445, 1116, 1081, 927, 1430
446, 588, 1146, 1233, 1245
447, 1142, 1168, 1260, 1416
448, 506, 509, 511, 1236
449, 714, 850, 838, 1234
450, 750, 1178, 701, 1232
451, 878, 903, 729, 253
452, 1137, 1346, 1225, 1389
453, 346, 334, 374, 1174
454, 273, 270, 286, 1295
455, 686, 1400, 1207, 1436
456, 1129, 1262, 1177, 1406
457, 745, 1141, 741, 1310
458, 1142, 1260, 1132, 1416
459, 670, 1228, 1161, 1344
460, 1142, 1132, 1269, 1416
461, 818, 1188, 398, 1411
462, 361, 1151, 426, 1328
463, 1142, 1269, 1168, 1416
464, 973, 1180, 463, 1236
465, 258, 268, 274, 1212
466, 1089, 940, 1114, 1185
467, 969, 1240, 1069, 1347
468, 335, 1213, 423, 1252
469, 1155, 1298, 1165, 1302
470, 653, 1309, 606, 1386
471, 1133, 1278, 1170, 1398
472, 1116, 1366, 1214, 1430
473, 1219, 1159, 1315, 1359
474, 1138, 1200, 1186, 1352
475, 246, 1215, 1169, 1334
476, 810, 716, 1169, 1205
477, 1219, 1315, 1163, 1418
478, 477, 646, 607, 1193
479, 731, 601, 819, 1177
480, 1040, 1039, 1101, 1349
481, 976, 1156, 1143, 1291
482, 1101, 1167, 1039, 1251
483, 333, 1252, 1140, 1383
484, 1158, 1217, 610, 1443
485, 546, 1161, 1264, 1344
486, 1185, 1214, 1017, 1244
487, 1067, 1074, 1189, 1216
488, 242, 416, 360, 1179
489, 414, 1214, 1150, 1430
490, 625, 567, 1271, 1437
491, 1124, 1231, 1223, 1296
492, 830, 459, 706, 1229
493, 838, 1140, 842, 1306
494, 335, 1252, 333, 1383
495, 426, 425, 292, 1151
496, 323, 1157, 325, 1297
497, 272, 1212, 269, 1237
498, 1244, 1293, 1206, 1356
499, 655, 1168, 482, 1253
500, 230, 313, 1045, 1167
501, 459, 830, 534, 1208
502, 1123, 1229, 1208, 1266
503, 1121, 1283, 1239, 1389
504, 235, 1214, 414, 1430
505, 887, 1211, 1310, 1326
506, 1190, 1121, 1239, 1389
507, 810, 1205, 1169, 1397
508, 599, 486, 832, 1204
509, 866, 777, 1159, 1224
510, 559, 808, 717, 1186
511, 518, 1154, 1143, 1449
512, 1179, 1141, 1310, 1438
513, 1036, 478, 1170, 1308
514, 1137, 1241, 1169, 1397
515, 995, 938, 1235, 1349
516, 1016, 1244, 1138, 1405
517, 891, 1204, 1186, 1337
518, 559, 717, 486, 1186
519, 651, 1204, 590, 1309
520, 417, 1232, 1178, 1350
521, 425, 292, 1151, 1372
522, 595, 470, 648, 1190
523, 1187, 1256, 1140, 1306
524, 315, 1235, 299, 1388
525, 1087, 1285, 1190, 1366
526, 670, 549, 628, 1228
527, 1153, 1236, 1120, 1240
528, 346, 334, 1174, 1301
529, 1113, 935, 1160, 1255
530, 1199, 1332, 1188, 1381
531, 807, 1163, 868, 1337
532, 356, 235, 1081, 1214
533, 1195, 1127, 1274, 1318
534, 810, 1169, 1241, 1397
535, 1132, 1332, 1199, 1381
536, 1087, 1190, 1206, 1366
537, 507, 1287, 1180, 1298
538, 1195, 1271, 1127, 1318
539, 1179, 1310, 1211, 1438
540, 773, 774, 1176, 1248
541, 1158, 1339, 906, 1447
542, 1005, 912, 221, 1202
543, 571, 1322, 926, 1362
544, 1138, 1356, 1016, 1405
545, 897, 1173, 835, 1262
546, 569, 1160, 935, 1255
547, 316, 1005, 221, 1202
548, 658, 791, 719, 1155
549, 1143, 1156, 1130, 1291
550, 1130, 1143, 1291, 1357
551, 329, 1194, 1216, 1292
552, 719, 900, 762, 1155
553, 936, 315, 1171, 1235
554, 543, 546, 633, 1264
555, 360, 1179, 418, 1223
556, 352, 1150, 414, 1382
557, 417, 279, 1178, 1232
558, 1138, 1244, 1016, 1356
559, 568, 1271, 1195, 1318
560, 869, 1147, 906, 1447
561, 1053, 1213, 1191, 1374
562, 340, 835, 718, 1173
563, 800, 1159, 777, 1419
564, 867, 1200, 805, 1393
565, 1196, 1276, 1203, 1420
566, 1189, 1258, 323, 1297
567, 959, 969, 948, 1166
568, 275, 259, 257, 1166
569, 510, 1287, 507, 1298
570, 351, 1215, 393, 1334
571, 277, 242, 761, 1211
572, 653, 606, 1186, 1386
573, 810, 877, 716, 1205
574, 756, 755, 1165, 1196
575, 719, 762, 584, 1155
576, 356, 414, 235, 1214
577, 283, 1184, 284, 1258
578, 562, 1271, 568, 1318
579, 413, 1185, 351, 1214
580, 1018, 1079, 1185, 1405
581, 929, 1046, 233, 1201
582, 926, 1107, 1059, 1362
583, 976, 1254, 1156, 1440
584, 283, 284, 1184, 1276
585, 233, 1046, 355, 1201
586, 403, 312, 1263, 1332
587, 906, 1147, 814, 1329
588, 716, 357, 870, 1169
589, 570, 1239, 941, 1426
590, 767, 756, 1165, 1196
591, 977, 1143, 1319, 1357
592, 328, 914, 219, 1364
593, 878, 253, 729, 1215
594, 1012, 237, 364, 1210
595, 332, 251, 1140, 1361
596, 475, 659, 1154, 1342
597, 1203, 1276, 1196, 1391
598, 1056, 941, 570, 1239
599, 272, 274, 1212, 1237
600, 750, 701, 749, 1232
601, 865, 829, 1208, 1266
602, 1196, 1127, 1276, 1420
603, 363, 248, 844, 1361
604, 269, 272, 274, 1212
605, 1203, 1276, 1127, 1420
606, 909, 220, 1000, 1203
607, 256, 1211, 736, 1237
608, 716, 248, 357, 1205
609, 1207, 1237, 736, 1326
610, 807, 799, 1186, 1337
611, 658, 460, 584, 791
612, 867, 807, 799, 1186
613, 543, 1177, 488, 1344
614, 418, 1223, 1179, 1281
615, 850, 838, 1140, 1361
616, 914, 328, 982, 1364
617, 502, 1209, 533, 1403
618, 1170, 1278, 1158, 1398
619, 288, 1000, 220, 1203
620, 1125, 1194, 1146, 1290
621, 1061, 1049, 1053, 1191
622, 947, 258, 971, 1259
623, 301, 313, 1167, 1235
624, 1133, 1251, 1198, 1363
625, 458, 1182, 910, 1242
626, 328, 982, 1183, 1313
627, 269, 1237, 1212, 1295
628, 228, 1171, 1284, 1375
629, 1157, 1258, 1189, 1297
630, 985, 1192, 1189, 1304
631, 257, 1166, 948, 1432
632, 228, 1171, 297, 1284
633, 1181, 1272, 1035, 1325
634, 493, 1197, 759, 1243
635, 924, 1061, 339, 1191
636, 1203, 1391, 1196, 1420
637, 1137, 1206, 1190, 1402
638, 507, 463, 1180, 1236
639, 1035, 1181, 1109, 1272
640, 1177, 1238, 488, 1344
641, 1213, 1285, 1055, 1430
642, 1107, 1152, 1027, 1362
643, 571, 577, 1152, 1362
644, 582, 1138, 1293, 1386
645, 946, 495, 970, 1300
646, 274, 405, 1135, 1390
647, 1160, 1274, 989, 1335
648, 345, 1286, 1181, 1301
649, 1144, 1229, 1172, 1230
650, 939, 1245, 987, 1353
651, 644, 657, 491, 1287
652, 942, 1084, 1030, 1161
653, 407, 1232, 417, 1350
654, 715, 808, 481, 1200
655, 1315, 1365, 1163, 1418
656, 1144, 1222, 527, 1354
657, 234, 411, 1181, 1267
658, 1143, 1280, 1154, 1357
659, 556, 1239, 1283, 1389
660, 368, 1163, 393, 1365
661, 539, 1193, 477, 1222
662, 486, 717, 832, 1204
663, 938, 1045, 313, 1167
664, 362, 929, 1201, 1263
665, 1170, 1198, 1133, 1398
666, 1132, 1263, 1199, 1332
667, 977, 1143, 975, 1319
668, 517, 1143, 519, 1319
669, 985, 1189, 984, 1304
670, 840, 838, 842, 1306
671, 470, 1190, 943, 1239
672, 543, 488, 542, 1344
673, 810, 1241, 804, 1397
674, 492, 616, 1307, 1327
675, 725, 1172, 783, 1227
676, 1140, 1256, 1187, 1396
677, 879, 784, 725, 1172
678, 1134, 1180, 1298, 1330
679, 362, 929, 233, 1201
680, 274, 1135, 405, 1259
681, 1069, 1153, 963, 1236
682, 287, 418, 1179, 1281
683, 607, 919, 1193, 1308
684, 1163, 1365, 1315, 1404
685, 1153, 1240, 1166, 1347
686, 767, 1196, 1165, 1323
687, 840, 893, 1187, 1256
688, 1065, 1160, 464, 1318
689, 402, 884, 691, 1207
690, 851, 844, 1205, 1361
691, 767, 768, 756, 1196
692, 488, 1238, 542, 1344
693, 488, 1177, 731, 1238
694, 587, 1245, 939, 1368
695, 256, 761, 736, 1211
696, 517, 1250, 1143, 1319
697, 1011, 1007, 1290, 1353
698, 783, 1229, 864, 1230
699, 1180, 1330, 1134, 1341
700, 456, 1220, 916, 1357
701, 1134, 1298, 1195, 1330
702, 458, 498, 1182, 1242
703, 958, 1209, 1001, 1319
704, 253, 729, 1163, 1418
705, 375, 254, 918, 1216
706, 300, 1266, 1172, 1311
707, 844, 248, 716, 1205
708, 1177, 1262, 1174, 1406
709, 1125, 1290, 1146, 1309
710, 895, 731, 1177, 1238
711, 507, 1236, 1180, 1287
712, 918, 254, 1006, 1216
713, 1135, 1207, 1148, 1326
714, 1118, 1157, 1224, 1294
715, 1143, 1254, 975, 1319
716, 922, 231, 1044, 1198
717, 332, 1140, 333, 1361
718, 1134, 1341, 1330, 1414
719, 1172, 1266, 1229, 1446
720, 346, 1286, 345, 1301
721, 417, 407, 279, 1232
722, 477, 539, 646, 1193
723, 1182, 1242, 498, 1299
724, 687, 695, 688, 1390
725, 1229, 1266, 1123, 1446
726, 1078, 1016, 1356, 1405
727, 315, 297, 228, 1171
728, 1163, 1125, 1219, 1337
729, 531, 1209, 504, 1319
730, 654, 1239, 1145, 1283
731, 351, 1214, 1185, 1334
732, 952, 1242, 1182, 1288
733, 355, 1046, 923, 1201
734, 865, 1208, 830, 1229
735, 1130, 1156, 1151, 1422
736, 300, 1311, 1172, 1388
737, 900, 1155, 753, 1273
738, 1204, 1233, 1159, 1419
739, 628, 1030, 462, 1373
740, 1061, 394, 339, 1191
741, 1027, 1152, 1107, 1369
742, 414, 1150, 352, 1430
743, 1134, 1330, 1195, 1414
744, 806, 809, 1215, 1241
745, 469, 1060, 595, 1206
746, 410, 1201, 1181, 1286
747, 1146, 1245, 588, 1368
748, 481, 808, 559, 1200
749, 1189, 1192, 985, 1335
750, 867, 808, 805, 1200
751, 469, 1013, 1060, 1206
752, 1067, 984, 915, 1189
753, 232, 318, 1023, 1199
754, 582, 1293, 666, 1386
755, 755, 1165, 1196, 1302
756, 855, 864, 1229, 1230
757, 342, 1286, 1173, 1371
758, 842, 1140, 838, 1361
759, 1172, 1229, 1144, 1446
760, 650, 485, 598, 1419
761, 486, 599, 653, 1204
762, 1006, 1194, 254, 1441
763, 977, 1319, 913, 1357
764, 231, 306, 1044, 1198
765, 1042, 1308, 1170, 1363
766, 1241, 1261, 1200, 1346
767, 838, 1234, 1140, 1306
768, 877, 1205, 810, 1397
769, 963, 1069, 969, 1240
770, 710, 363, 844, 1361
771, 1062, 1055, 1213, 1285
772, 368, 253, 393, 1163
773, 952, 951, 1242, 1288
774, 827, 1164, 828, 1339
775, 1151, 1289, 1130, 1422
776, 286, 1139, 1345, 1376
777, 1137, 1261, 553, 1389
778, 806, 1241, 1215, 1393
779, 1151, 1154, 1130, 1289
780, 534, 708, 461, 1208
781, 1111, 1180, 1236, 1384
782, 1177, 1253, 1129, 1264
783, 836, 871, 1174, 1234
784, 471, 570, 941, 1426
785, 1152, 1260, 1322, 1369
786, 1071, 1259, 1265, 1321
787, 762, 735, 512, 1273
788, 1049, 1053, 1191, 1374
789, 893, 1187, 1256, 1450
790, 601, 819, 1177, 1253
791, 1042, 1170, 1117, 1363
792, 1224, 1294, 1157, 1448
793, 518, 1143, 1250, 1449
794, 929, 1108, 1201, 1263
795, 905, 716, 870, 1169
796, 703, 771, 380, 1184
797, 1071, 1212, 947, 1259
798, 475, 1154, 659, 1442
799, 405, 1259, 1135, 1390
800, 1017, 1089, 1022, 1214
801, 1195, 1414, 1274, 1420
802, 958, 1254, 1209, 1319
803, 579, 945, 1170, 1362
804, 222, 1189, 323, 1297
805, 588, 1233, 591, 1245
806, 1111, 1180, 973, 1236
807, 553, 1346, 1137, 1389
808, 924, 1191, 339, 1267
809, 1144, 1123, 1229, 1338
810, 1135, 1237, 1207, 1326
811, 1274, 1414, 1203, 1420
812, 1046, 929, 1108, 1201
813, 1196, 1249, 1127, 1323
814, 1151, 1328, 1289, 1422
815, 296, 1227, 1284, 1388
816, 1152, 1132, 1260, 1369
817, 1143, 1151, 1343, 1449
818, 654, 1145, 548, 1283
819, 869, 1277, 1147, 1447
820, 456, 916, 990, 1357
821, 1172, 1388, 1311, 1446
822, 1130, 1220, 1144, 1280
823, 1218, 1290, 1146, 1368
824, 865, 1229, 785, 1266
825, 872, 1217, 831, 1329
826, 1023, 1029, 232, 1199
827, 1123, 1208, 1164, 1266
828, 687, 1135, 1390, 1400
829, 1209, 1250, 504, 1319
830, 742, 887, 1211, 1310
831, 361, 241, 425, 1223
832, 1271, 1323, 1149, 1437
833, 623, 722, 1165, 1323
834, 553, 1261, 1137, 1346
835, 1134, 1302, 1178, 1415
836, 1146, 1290, 1218, 1309
837, 687, 1390, 688, 1400
838, 556, 1239, 652, 1283
839, 507, 506, 1236, 1287
840, 587, 588, 1245, 1368
841, 814, 906, 869, 1147
842, 946, 1069, 1153, 1300
843, 1018, 1079, 940, 1185
844, 945, 1042, 1036, 1170
845, 1194, 1290, 1007, 1353
846, 733, 847, 821, 1168
847, 1087, 1206, 1015, 1366
848, 510, 1155, 1287, 1298
849, 900, 753, 751, 1273
850, 222, 322, 323, 1189
851, 1135, 1326, 1148, 1423
852, 1134, 1178, 1340, 1415
853, 625, 567, 564, 1271
854, 246, 348, 1215, 1334
855, 577, 1260, 1152, 1408
856, 556, 1190, 1239, 1389
857, 796, 1159, 800, 1419
858, 330, 1315, 1292, 1359
859, 821, 733, 1168, 1253
860, 981, 989, 1274, 1335
861, 1133, 1158, 1278, 1398
862, 717, 891, 832, 1204
863, 497, 498, 1242, 1299
864, 1294, 1419, 1233, 1431
865, 511, 1153, 643, 1300
866, 1039, 1167, 1349, 1363
867, 1134, 1391, 1302, 1415
868, 1152, 1260, 577, 1322
869, 1150, 1334, 1214, 1382
870, 912, 1202, 960, 1240
871, 458, 497, 498, 1242
872, 956, 1004, 1209, 1392
873, 1061, 921, 394, 1213
874, 1015, 1087, 1060, 1206
875, 708, 534, 830, 1208
876, 554, 553, 1261, 1389
877, 1101, 1045, 1167, 1251
878, 1151, 1351, 1223, 1449
879, 1151, 1223, 1343, 1449
880, 1193, 539, 1278, 1338
881, 329, 371, 254, 1194
882, 582, 1356, 1138, 1386
883, 670, 545, 1228, 1344
884, 798, 796, 800, 1419
885, 1046, 1109, 923, 1201
886, 346, 1174, 1286, 1301
887, 333, 1140, 332, 1383
888, 1223, 1124, 1343, 1449
889, 311, 398, 1188, 1411
890, 1136, 1197, 1153, 1409
891, 1183, 1258, 285, 1313
892, 1161, 1272, 1181, 1325
893, 250, 340, 718, 1173
894, 473, 571, 926, 1362
895, 1120, 1197, 1136, 1407
896, 773, 1248, 1157, 1331
897, 1201, 1263, 1108, 1336
898, 923, 1082, 1047, 1181
899, 524, 1220, 1144, 1354
900, 1009, 1011, 1007, 1290
901, 625, 1271, 1149, 1437
902, 791, 719, 1155, 1302
903, 582, 1293, 1138, 1356
904, 589, 1146, 588, 1368
905, 654, 1239, 570, 1426
906, 1150, 1334, 1169, 1402
907, 1012, 364, 940, 1210
908, 519, 1319, 1143, 1357
909, 1187, 1283, 1256, 1450
910, 1130, 1280, 1144, 1435
911, 853, 1151, 765, 1223
912, 855, 529, 705, 1342
913, 1058, 472, 1175, 1322
914, 456, 990, 522, 1357
915, 255, 1232, 383, 1282
916, 1144, 1220, 524, 1428
917, 886, 1136, 1282, 1410
918, 741, 1141, 745, 1394
919, 851, 710, 844, 1361
920, 916, 1220, 456, 1354
921, 618, 637, 449, 1243
922, 1146, 1290, 1194, 1353
923, 402, 691, 386, 1207
924, 485, 728, 598, 1419
925, 1144, 1222, 1123, 1338
926, 1128, 1142, 1217, 1247
927, 556, 1190, 652, 1239
928, 1302, 1391, 1196, 1415
929, 742, 887, 1310, 1326
930, 283, 1183, 285, 1313
931, 507, 506, 463, 1236
932, 736, 760, 278, 1207
933, 1145, 1239, 654, 1426
934, 461, 1208, 708, 1412
935, 883, 449, 637, 1243
936, 387, 274, 1237, 1390
937, 539, 1193, 1222, 1338
938, 1107, 1152, 1322, 1369
939, 1081, 235, 927, 1430
940, 1125, 1204, 1159, 1337
941, 1138, 1293, 1200, 1352
942, 1212, 1237, 1135, 1423
943, 492, 616, 514, 1307
944, 1203, 1274, 967, 1414
945, 864, 783, 785, 1229
946, 1280, 1428, 1144, 1435
947, 267, 1276, 1203, 1391
948, 1069, 946, 1153, 1236
949, 1134, 1196, 1302, 1391
950, 230, 1167, 1045, 1251
951, 924, 339, 422, 1267
952, 591, 1245, 1233, 1314
953, 1134, 1340, 1391, 1415
954, 283, 285, 1183, 1258
955, 530, 1154, 659, 1342
956, 579, 478, 626, 1170
957, 231, 1198, 922, 1439
958, 1082, 1047, 1181, 1267
959, 1140, 1396, 1187, 1427
960, 977, 1291, 1143, 1357
961, 728, 880, 598, 1419
962, 346, 374, 245, 1174
963, 938, 1090, 995, 1235
964, 569, 563, 464, 1160
965, 649, 1206, 554, 1261
966, 1115, 1170, 1042, 1246
967, 735, 1197, 512, 1273
968, 413, 1214, 351, 1334
969, 751, 750, 749, 1273
970, 272, 1237, 269, 1295
971, 756, 789, 698, 1196
972, 776, 880, 1419, 1431
973, 323, 1258, 1189, 1313
974, 1017, 1214, 1020, 1244
975, 222, 324, 375, 1216
976, 383, 1282, 1136, 1320
977, 612, 507, 463, 1180
978, 330, 369, 1315, 1359
979, 910, 1182, 952, 1242
980, 349, 246, 1169, 1334
981, 972, 226, 268, 1212
982, 315, 229, 299, 1235
983, 977, 1143, 976, 1254
984, 1123, 1144, 1229, 1446
985, 518, 1143, 519, 1250
986, 1104, 941, 1239, 1426
987, 1169, 1334, 1150, 1382
988, 605, 472, 573, 1175
989, 1174, 1234, 871, 1395
990, 865, 830, 706, 1229
991, 775, 773, 774, 1176
992, 1118, 1245, 1233, 1424
993, 750, 794, 701, 1178
994, 1144, 1230, 1172, 1435
995, 934, 1112, 1375, 1440
996, 1158, 1278, 1170, 1443
997, 1177, 1264, 1129, 1406
998, 1129, 1168, 1253, 1413
999, 383, 1136, 1270, 1320
1000, 1111, 1236, 1099, 1384
1001, 969, 1097, 1166, 1347
1002, 713, 836, 871, 1174
1003, 1233, 1245, 1146, 1424
1004, 944, 1032, 1058, 1175
1005, 720, 242, 1179, 1211
1006, 755, 791, 1165, 1302
1007, 941, 1056, 1104, 1239
1008, 336, 335, 423, 1252
1009, 933, 561, 490, 1195
1010, 1127, 1274, 1203, 1420
1011, 538, 1308, 1278, 1443
1012, 362, 1201, 409, 1263
1013, 416, 1179, 273, 1281
1014, 1236, 1240, 963, 1384
1015, 650, 1233, 651, 1419
1016, 572, 1175, 573, 1322
1017, 345, 1181, 338, 1301
1018, 1170, 1308, 1133, 1363
1019, 275, 260, 259, 1270
1020, 829, 828, 827, 1164
1021, 471, 654, 570, 1426
1022, 590, 651, 650, 1233
1023, 253, 1163, 421, 1418
1024, 763, 1223, 1231, 1296
1025, 1127, 1195, 1274, 1420
1026, 1129, 1253, 1262, 1413
1027, 1084, 1030, 1161, 1373
1028, 584, 657, 658, 1155
1029, 1083, 1042, 945, 1170
1030, 357, 349, 246, 1169
1031, 756, 755, 1196, 1302
1032, 328, 1183, 283, 1313
1033, 220, 1203, 909, 1257
1034, 1256, 1283, 1225, 1450
1035, 1156, 1375, 1112, 1440
1036, 1214, 1366, 1150, 1430
1037, 490, 561, 568, 1195
1038, 316, 1005, 1202, 1257
1039, 1128, 1142, 1247, 1381
1040, 703, 770, 771, 1184
1041, 886, 1407, 1136, 1410
1042, 1118, 1157, 1294, 1380
1043, 394, 423, 339, 1191
1044, 976, 1143, 977, 1291
1045, 332, 333, 251, 1361
1046, 473, 926, 1059, 1362
1047, 694, 1265, 677, 1348
1048, 383, 1232, 263, 1270
1049, 1135, 1237, 1326, 1423
1050, 1121, 1285, 1239, 1374
1051, 718, 250, 1173, 1411
1052, 779, 1154, 475, 1442
1053, 293, 1156, 1372, 1440
1054, 573, 605, 1175, 1373
1055, 735, 759, 493, 1197
1056, 1193, 1363, 1167, 1387
1057, 466, 585, 1091, 1245
1058, 1311, 1388, 1235, 1446
1059, 336, 423, 1213, 1252
1060, 470, 652, 1190, 1239
1061, 322, 323, 1189, 1313
1062, 373, 1205, 1333, 1382
1063, 619, 511, 1197, 1360
1064, 623, 662, 722, 1323
1065, 641, 529, 1229, 1428
1066, 1278, 1308, 1170, 1443
1067, 485, 599, 832, 1419
1068, 472, 573, 1175, 1322
1069, 1146, 1309, 1218, 1368
1070, 529, 855, 641, 1229
1071, 1223, 1124, 1281, 1372
1072, 1150, 1214, 1334, 1402
1073, 1044, 1198, 306, 1251
1074, 371, 1194, 329, 1292
1075, 1214, 1244, 1122, 1366
1076, 515, 739, 699, 1221
1077, 1118, 1224, 1159, 1294
1078, 410, 233, 355, 1201
1079, 1153, 1300, 444, 1360
1080, 362, 233, 409, 1201
1081, 1179, 1281, 1124, 1421
1082, 475, 1154, 779, 1342
1083, 271, 1211, 1237, 1295
1084, 1083, 1170, 945, 1362
1085, 757, 1221, 1148, 1326
1086, 1299, 1310, 1141, 1438
1087, 571, 1152, 577, 1322
1088, 1006, 1194, 1077, 1216
1089, 686, 693, 1400, 1436
1090, 1176, 1294, 1157, 1380
1091, 567, 661, 854, 1437
1092, 1185, 1214, 1122, 1334
1093, 1099, 1111, 973, 1236
1094, 885, 1148, 757, 1307
1095, 504, 531, 457, 1209
1096, 911, 1001, 958, 1209
1097, 1199, 1246, 1026, 1369
1098, 367, 1365, 1315, 1418
1099, 1119, 1237, 1212, 1423
1100, 360, 416, 418, 1179
1101, 256, 736, 1207, 1237
1102, 232, 1199, 1029, 1263
1103, 293, 1372, 1156, 1422
1104, 599, 651, 1204, 1419
1105, 385, 441, 1320, 1432
1106, 1132, 1322, 1260, 1369
1107, 1041, 917, 477, 1222
1108, 1185, 1244, 1018, 1405
1109, 513, 496, 1162, 1242
1110, 549, 942, 628, 1228
1111, 1125, 1159, 1219, 1337
1112, 924, 1049, 1061, 1191
1113, 413, 236, 351, 1185
1114, 1074, 1189, 1216, 1304
1115, 1124, 1223, 1179, 1296
1116, 851, 1205, 1256, 1361
1117, 688, 686, 678, 1400
1118, 472, 572, 573, 1322
1119, 355, 411, 410, 1181
1120, 599, 485, 651, 1419
1121, 527, 1144, 524, 1428
1122, 602, 556, 652, 1283
1123, 1175, 1322, 1132, 1336
1124, 1175, 1260, 1132, 1322
1125, 572, 1260, 1175, 1322
1126, 469, 595, 649, 1206
1127, 416, 287, 418, 1179
1128, 571, 473, 577, 1362
1129, 1125, 1218, 1290, 1309
1130, 1225, 1256, 1121, 1283
1131, 685, 691, 859, 1207
1132, 533, 458, 498, 1182
1133, 1004, 952, 910, 1182
1134, 703, 1184, 378, 1249
1135, 599, 1204, 832, 1419
1136, 277, 408, 242, 1211
1137, 1184, 1249, 1127, 1276
1138, 984, 1189, 985, 1335
1139, 406, 271, 1211, 1237
1140, 1207, 1390, 1135, 1400
1141, 770, 1248, 1184, 1417
1142, 1119, 1310, 1299, 1438
1143, 1032, 1175, 944, 1373
1144, 1127, 1249, 1184, 1417
1145, 650, 651, 485, 1419
1146, 1020, 1244, 1214, 1366
1147, 594, 467, 1043, 1218
1148, 601, 1177, 633, 1253
1149, 1307, 1317, 1148, 1327
1150, 511, 643, 1153, 1360
1151, 548, 1145, 654, 1426
1152, 330, 371, 1292, 1315
1153, 1130, 1144, 1220, 1435
1154, 865, 829, 827, 1208
1155, 456, 614, 1066, 1354
1156, 563, 562, 1160, 1271
1157, 850, 842, 838, 1361
1158, 1148, 1207, 1135, 1400
1159, 227, 394, 921, 1213
1160, 1175, 1260, 572, 1445
1161, 286, 1281, 1139, 1376
1162, 1167, 1349, 1193, 1387
1163, 1172, 1311, 1266, 1446
1164, 477, 917, 621, 1222
1165, 1168, 1129, 1253, 1264
1166, 912, 960, 959, 1240
1167, 1024, 1026, 1199, 1246
1168, 818, 815, 812, 1188
1169, 1132, 1336, 1322, 1369
1170, 1021, 1285, 1087, 1366
1171, 373, 1333, 354, 1382
1172, 1121, 1145, 1239, 1283
1173, 373, 1252, 1205, 1361
1174, 596, 1176, 597, 1431
1175, 381, 1157, 323, 1258
1176, 488, 543, 601, 1177
1177, 549, 670, 545, 1228
1178, 524, 1144, 527, 1354
1179, 636, 1222, 527, 1338
1180, 1119, 1310, 1211, 1326
1181, 279, 794, 239, 1178
1182, 840, 843, 893, 1256
1183, 1206, 1122, 1244, 1366
1184, 350, 414, 1214, 1334
1185, 494, 1162, 949, 1348
1186, 345, 410, 411, 1181
1187, 700, 1296, 1231, 1394
1188, 868, 1337, 1163, 1418
1189, 763, 1231, 1223, 1351
1190, 1226, 1281, 1124, 1372
1191, 789, 1196, 756, 1249
1192, 409, 1263, 1201, 1371
1193, 353, 357, 1205, 1382
1194, 946, 970, 1069, 1300
1195, 1145, 548, 1283, 1316
1196, 573, 1175, 572, 1445
1197, 1136, 1120, 1232, 1270
1198, 1145, 1121, 1239, 1396
1199, 633, 601, 543, 1177
1200, 950, 968, 1162, 1242
1201, 807, 729, 1163, 1393
1202, 1120, 1136, 1232, 1407
1203, 510, 658, 657, 1155
1204, 1195, 1271, 1165, 1420
1205, 232, 389, 1199, 1263
1206, 504, 1209, 502, 1305
1207, 915, 1189, 984, 1313
1208, 657, 644, 508, 1287
1209, 707, 390, 1224, 1359
1210, 623, 791, 460, 1165
1211, 797, 1219, 796, 1337
1212, 345, 410, 1181, 1286
1213, 873, 731, 819, 1177
1214, 1130, 1220, 1280, 1357
1215, 1119, 1211, 1237, 1326
1216, 314, 698, 1196, 1415
1217, 1133, 1167, 1363, 1387
1218, 883, 637, 493, 1243
1219, 772, 1184, 770, 1248
1220, 807, 878, 729, 1393
1221, 863, 773, 775, 1294
1222, 373, 354, 353, 1382
1223, 741, 1355, 1141, 1394
1224, 1138, 1244, 1185, 1405
1225, 1124, 1296, 1179, 1421
1226, 502, 457, 533, 1209
1227, 911, 956, 1004, 1209
1228, 1130, 1291, 1220, 1357
1229, 975, 977, 976, 1254
1230, 887, 736, 1237, 1326
1231, 1109, 1035, 923, 1181
1232, 1066, 916, 456, 1354
1233, 518, 519, 517, 1250
1234, 373, 353, 1205, 1382
1235, 677, 1348, 1265, 1400
1236, 1170, 1246, 1198, 1398
1237, 1055, 921, 1062, 1213
1238, 444, 1153, 1360, 1409
1239, 553, 552, 1346, 1389
1240, 222, 323, 324, 1297
1241, 1209, 1324, 958, 1392
1242, 290, 1223, 418, 1281
1243, 1041, 1193, 1076, 1222
1244, 1183, 1335, 1160, 1358
1245, 411, 338, 345, 1181
1246, 986, 985, 984, 1304
1247, 831, 872, 734, 1217
1248, 364, 1210, 365, 1365
1249, 1159, 1219, 796, 1359
1250, 890, 828, 829, 1164
1251, 855, 706, 641, 1229
1252, 976, 1112, 1156, 1291
1253, 1187, 1396, 1283, 1427
1254, 1178, 1302, 750, 1415
1255, 489, 734, 557, 1217
1256, 1120, 1232, 1178, 1273
1257, 1136, 1243, 1197, 1409
1258, 1144, 1123, 1222, 1446
1259, 364, 396, 1185, 1365
1260, 939, 987, 1011, 1353
1261, 1137, 1261, 1206, 1402
1262, 1084, 942, 1052, 1161
1263, 747, 1231, 700, 1296
1264, 585, 603, 1192, 1245
1265, 1167, 1123, 1349, 1387
1266, 1071, 947, 971, 1259
1267, 657, 510, 1155, 1287
1268, 459, 534, 635, 1208
1269, 871, 824, 1174, 1395
1270, 226, 1212, 972, 1345
1271, 893, 1256, 843, 1450
1272, 470, 652, 648, 1190
1273, 608, 1187, 1283, 1316
1274, 884, 859, 691, 1207
1275, 395, 1191, 337, 1267
1276, 559, 486, 629, 1186
1277, 1087, 943, 1060, 1190
1278, 271, 1237, 272, 1295
1279, 546, 1161, 670, 1373
1280, 1118, 1159, 1233, 1294
1281, 652, 556, 648, 1190
1282, 1217, 1398, 1247, 1443
1283, 906, 904, 831, 1329
1284, 1083, 1246, 1170, 1362
1285, 438, 618, 449, 1243
1286, 602, 652, 1239, 1283
1287, 1041, 919, 1038, 1193
1288, 841, 895, 731, 1177
1289, 1016, 1018, 1244, 1405
1290, 242, 360, 720, 1179
1291, 1188, 1275, 1199, 1381
1292, 360, 418, 241, 1223
1293, 228, 998, 1171, 1375
1294, 773, 772, 1248, 1331
1295, 869, 814, 1147, 1425
1296, 1121, 1145, 1283, 1396
1297, 563, 1160, 569, 1255
1298, 1283, 1396, 1145, 1427
1299, 943, 1190, 1103, 1239
1300, 388, 1332, 1173, 1411
1301, 1144, 1435, 1172, 1446
1302, 866, 777, 800, 1159
1303, 346, 345, 338, 1301
1304, 246, 347, 811, 1215
1305, 625, 564, 1149, 1271
1306, 1049, 1191, 924, 1267
1307, 507, 1298, 1180, 1330
1308, 1183, 1313, 981, 1335
1309, 1243, 1360, 1197, 1409
1310, 360, 792, 1179, 1223
1311, 564, 1149, 1271, 1312
1312, 820, 1262, 1253, 1413
1313, 537, 1193, 539, 1278
1314, 1122, 1366, 1206, 1402
1315, 1260, 1367, 1142, 1408
1316, 484, 596, 597, 1431
1317, 1128, 1247, 1217, 1398
1318, 315, 297, 1171, 1388
1319, 563, 1160, 562, 1318
1320, 465, 1192, 586, 1255
1321, 933, 561, 1195, 1318
1322, 1032, 1272, 1175, 1373
1323, 1139, 1281, 1179, 1421
1324, 687, 1265, 1135, 1400
1325, 1213, 1333, 1285, 1430
1326, 799, 807, 868, 1337
1327, 1039, 1251, 1167, 1363
1328, 262, 407, 417, 1350
1329, 687, 1259, 1135, 1265
1330, 1024, 1198, 1115, 1246
1331, 1082, 1181, 1035, 1325
1332, 950, 968, 949, 1162
1333, 496, 494, 513, 1162
1334, 812, 247, 818, 1188
1335, 579, 1170, 626, 1362
1336, 1172, 1227, 298, 1388
1337, 1197, 1273, 752, 1407
1338, 869, 906, 1339, 1447
1339, 502, 1305, 1209, 1403
1340, 562, 1160, 1271, 1318
1341, 267, 281, 1203, 1276
1342, 1247, 1381, 1142, 1408
1343, 754, 750, 1302, 1415
1344, 748, 701, 279, 1232
1345, 884, 402, 278, 1207
1346, 1198, 1199, 1128, 1246
1347, 773, 1331, 1157, 1448
1348, 1121, 1374, 1239, 1396
1349, 398, 818, 247, 1188
1350, 349, 1169, 357, 1382
1351, 967, 1203, 979, 1274
1352, 649, 555, 1206, 1261
1353, 755, 753, 719, 1302
1354, 347, 393, 253, 1215
1355, 772, 770, 1184, 1331
1356, 984, 1313, 1189, 1335
1357, 1042, 1037, 1308, 1363
1358, 776, 1419, 1294, 1431
1359, 1157, 1118, 1224, 1297
1360, 364, 396, 236, 1185
1361, 831, 826, 906, 1158
1362, 1083, 1042, 1170, 1246
1363, 848, 557, 734, 1217
1364, 636, 539, 477, 1222
1365, 1122, 1214, 1185, 1244
1366, 330, 369, 371, 1315
1367, 290, 1223, 1281, 1372
1368, 716, 905, 810, 1169
1369, 1149, 1303, 1248, 1312
1370, 1142, 1269, 1132, 1381
1371, 558, 1217, 627, 1408
1372, 937, 585, 465, 1192
1373, 694, 677, 1265, 1400
1374, 1122, 1215, 1169, 1241
1375, 1024, 1198, 1246, 1439
1376, 561, 568, 1195, 1318
1377, 470, 1056, 570, 1239
1378, 759, 1197, 858, 1243
1379, 1131, 1149, 1248, 1312
1380, 408, 273, 1211, 1295
1381, 1036, 1170, 1042, 1308
1382, 868, 1163, 729, 1418
1383, 558, 1247, 1217, 1408
1384, 658, 1155, 510, 1298
1385, 368, 421, 253, 1163
1386, 361, 243, 853, 1328
1387, 1142, 1132, 1260, 1381
1388, 631, 1206, 555, 1293
1389, 582, 583, 1356, 1386
1390, 515, 1221, 699, 1355
1391, 738, 885, 757, 1307
1392, 1175, 1272, 1032, 1336
1393, 1163, 1365, 421, 1418
1394, 798, 797, 796, 1337
1395, 1142, 1128, 1217, 1433
1396, 928, 594, 1043, 1218
1397, 608, 1283, 548, 1316
1398, 890, 1164, 829, 1385
1399, 1123, 1164, 1208, 1387
1400, 1056, 470, 943, 1239
1401, 985, 986, 1192, 1304
1402, 301, 229, 313, 1235
1403, 1206, 1244, 1014, 1366
1404, 810, 1169, 809, 1241
1405, 952, 1182, 1004, 1392
1406, 1111, 1099, 962, 1384
1407, 741, 1310, 1141, 1355
1408, 1141, 1310, 1299, 1355
1409, 533, 1182, 498, 1403
1410, 441, 435, 1320, 1432
1411, 932, 1226, 319, 1376
1412, 1201, 1272, 1129, 1336
1413, 756, 1302, 1196, 1415
1414, 619, 511, 509, 1197
1415, 771, 1184, 770, 1331
1416, 1205, 1252, 373, 1333
1417, 772, 1184, 1248, 1331
1418, 1129, 1336, 1272, 1416
1419, 869, 1339, 1277, 1447
1420, 1191, 1267, 1049, 1370
1421, 535, 1278, 539, 1338
1422, 1104, 1239, 1374, 1426
1423, 876, 810, 804, 1397
1424, 1201, 1336, 1129, 1416
1425, 1073, 1265, 680, 1348
1426, 230, 303, 1167, 1251
1427, 1209, 1254, 958, 1324
1428, 1025, 1198, 1044, 1251
1429, 765, 1223, 1151, 1351
1430, 1029, 1199, 1026, 1263
1431, 824, 841, 873, 1395
1432, 723, 853, 243, 1328
1433, 1024, 1025, 1115, 1198
1434, 649, 554, 555, 1261
1435, 992, 1220, 916, 1354
1436, 955, 1376, 1345, 1392
1437, 1163, 1352, 1186, 1393
1438, 596, 597, 1176, 1303
1439, 323, 381, 325, 1157
1440, 303, 301, 313, 1167
1441, 1096, 1265, 1162, 1321
1442, 296, 1284, 297, 1388
1443, 465, 585, 586, 1192
1444, 495, 511, 643, 1300
1445, 328, 283, 285, 1313
1446, 1125, 1218, 1386, 1404
1447, 644, 1197, 509, 1287
1448, 532, 700, 1231, 1394
1449, 444, 1300, 1153, 1347
1450, 1150, 1382, 352, 1430
1451, 478, 538, 626, 1170
1452, 1190, 1285, 1150, 1366
1453, 248, 353, 357, 1205
1454, 475, 530, 659, 1342
1455, 1197, 1360, 1153, 1409
1456, 1170, 1247, 626, 1362
1457, 1207, 1400, 1148, 1436
1458, 1038, 1039, 1349, 1363
1459, 1191, 1126, 1267, 1325
1460, 530, 519, 518, 1154
1461, 1111, 1180, 964, 1330
1462, 1144, 1280, 1220, 1428
1463, 1198, 1275, 1147, 1398
1464, 301, 1235, 1167, 1311
1465, 773, 704, 1331, 1448
1466, 808, 867, 717, 1186
1467, 226, 1295, 1212, 1345
1468, 1126, 1191, 1267, 1301
1469, 1217, 1247, 1142, 1408
1470, 564, 565, 1149, 1312
1471, 456, 1220, 524, 1354
1472, 1158, 1133, 1387, 1447
1473, 254, 1194, 371, 1441
1474, 240, 1196, 789, 1249
1475, 532, 1231, 1305, 1394
1476, 513, 1242, 1162, 1327
1477, 1141, 1296, 745, 1394
1478, 1187, 1283, 1145, 1427
1479, 349, 348, 246, 1334
1480, 226, 269, 1212, 1295
1481, 788, 1176, 596, 1431
1482, 1183, 1131, 1258, 1335
1483, 1182, 1299, 1141, 1438
1484, 1098, 1212, 1288, 1345
1485, 586, 1255, 1192, 1399
1486, 661, 662, 567, 854
1487, 842, 1256, 1140, 1361
1488, 812, 1188, 815, 1268
1489, 493, 637, 618, 1243
1490, 539, 537, 646, 1193
1491, 1077, 1216, 1194, 1353
1492, 694, 680, 1265, 1348
1493, 1119, 1182, 1242, 1288
1494, 837, 871, 1234, 1395
1495, 794, 1178, 750, 1415
1496, 623, 521, 566, 1165
1497, 1125, 1386, 1186, 1404
1498, 1198, 1246, 1128, 1398
1499, 333, 1140, 1252, 1361
1500, 292, 426, 1151, 1422
1501, 1220, 1280, 524, 1428
1502, 783, 1172, 784, 1266
1503, 416, 273, 287, 1281
1504, 317, 1156, 293, 1440
1505, 485, 832, 728, 1419
1506, 1179, 1223, 1124, 1281
1507, 658, 521, 1165, 1298
1508, 1121, 1213, 1285, 1374
1509, 1090, 936, 995, 1235
1510, 1284, 1388, 1227, 1435
1511, 686, 693, 678, 1400
1512, 899, 720, 1179, 1211
1513, 906, 1158, 826, 1339
1514, 318, 1023, 1199, 1439
1515, 811, 806, 809, 1215
1516, 899, 1211, 744, 1310
1517, 909, 1203, 967, 1257
1518, 1127, 1323, 1249, 1417
1519, 220, 267, 1203, 1257
1520, 1026, 1263, 1199, 1369
1521, 1196, 1127, 1249, 1276
1522, 1054, 1239, 1103, 1285
1523, 873, 1177, 819, 1253
1524, 603, 586, 1192, 1314
1525, 937, 1245, 1192, 1304
1526, 997, 1156, 1112, 1291
1527, 337, 1267, 1191, 1383
1528, 444, 1347, 1153, 1409
1529, 261, 316, 1202, 1257
1530, 423, 335, 339, 1191
1531, 1027, 1026, 1246, 1369
1532, 756, 754, 1302, 1415
1533, 460, 658, 521, 1165
1534, 1194, 1292, 371, 1315
1535, 707, 795, 390, 1359
1536, 535, 1208, 1278, 1338
1537, 846, 541, 488, 1238
1538, 232, 389, 318, 1199
1539, 501, 499, 660, 1403
1540, 603, 586, 585, 1192
1541, 331, 836, 374, 1234
1542, 1183, 1258, 1313, 1335
1543, 338, 1181, 411, 1267
1544, 1049, 1191, 1370, 1374
1545, 573, 634, 605, 1373
1546, 236, 356, 1022, 1214
1547, 232, 403, 389, 1263
1548, 1121, 1190, 1239, 1285
1549, 563, 1271, 1160, 1312
1550, 279, 239, 417, 1178
1551, 1073, 1096, 1265, 1348
1552, 1152, 1260, 1132, 1381
1553, 964, 1330, 1180, 1341
1554, 538, 1170, 478, 1308
1555, 791, 584, 658, 719
1556, 1158, 1133, 1278, 1387
1557, 809, 810, 905, 1169
1558, 1194, 1292, 1159, 1424
1559, 1118, 1159, 1224, 1424
1560, 1129, 1173, 1286, 1371
1561, 785, 783, 784, 1266
1562, 736, 278, 256, 1207
1563, 910, 952, 951, 1242
1564, 1126, 1383, 1234, 1427
1565, 653, 606, 486, 1186
1566, 490, 1002, 1195, 1330
1567, 855, 781, 864, 1230
1568, 331, 714, 836, 1234
1569, 481, 559, 560, 1200
1570, 577, 1260, 572, 1322
1571, 1193, 1338, 1278, 1387
1572, 1210, 1315, 365, 1365
1573, 619, 1197, 493, 1243
1574, 1181, 1267, 338, 1301
1575, 891, 1186, 799, 1337
1576, 961, 960, 912, 1202
1577, 260, 261, 221, 1202
1578, 1076, 1222, 1193, 1349
1579, 261, 1257, 1202, 1340
1580, 1176, 1303, 597, 1399
1581, 564, 1271, 563, 1312
1582, 967, 1257, 1203, 1414
1583, 604, 1261, 1200, 1293
1584, 1203, 1257, 267, 1391
1585, 826, 1158, 831, 1412
1586, 1266, 1311, 244, 1385
1587, 625, 564, 565, 1149
1588, 676, 1148, 693, 1307
1589, 395, 339, 337, 1191
1590, 922, 1044, 1025, 1198
1591, 863, 1294, 1224, 1448
1592, 1225, 1283, 1121, 1389
1593, 1189, 1258, 1131, 1335
1594, 1186, 1204, 1125, 1337
1595, 653, 592, 606, 1309
1596, 504, 1250, 1209, 1305
1597, 1180, 1287, 1155, 1298
1598, 271, 272, 269, 1295
1599, 1054, 1239, 1285, 1374
1600, 1193, 1349, 1167, 1363
1601, 1125, 1218, 1309, 1386
1602, 899, 720, 744, 1179
1603, 603, 1192, 1245, 1314
1604, 709, 1219, 420, 1359
1605, 885, 1326, 1148, 1436
1606, 1122, 1214, 1366, 1402
1607, 679, 386, 691, 1207
1608, 236, 413, 356, 1214
1609, 1167, 1251, 303, 1378
1610, 339, 1191, 395, 1267
1611, 538, 1170, 1308, 1443
1612, 1152, 1369, 1246, 1381
1613, 1006, 1007, 1194, 1441
1614, 841, 1177, 873, 1395
1615, 505, 973, 463, 1236
1616, 1167, 1378, 1311, 1387
1617, 1074, 984, 1067, 1189
1618, 1192, 1335, 1189, 1380
1619, 1134, 1298, 1180, 1434
1620, 445, 452, 1409, 1410
1621, 828, 1277, 869, 1339
1622, 1141, 1355, 1299, 1403
1623, 1127, 1184, 1358, 1417
1624, 320, 1172, 300, 1266
1625, 866, 1224, 1159, 1359
1626, 1161, 1264, 1177, 1406
1627, 426, 1328, 1151, 1422
1628, 934, 1375, 317, 1440
1629, 627, 1217, 1379, 1408
1630, 732, 1225, 550, 1450
1631, 938, 995, 1040, 1349
1632, 1086, 1322, 1336, 1369
1633, 1043, 1218, 467, 1368
1634, 416, 287, 1179, 1281
1635, 588, 590, 591, 1233
1636, 655, 1168, 1253, 1445
1637, 1069, 963, 946, 1236
1638, 1128, 1275, 1147, 1329
1639, 815, 1268, 1188, 1433
1640, 361, 853, 721, 1223
1641, 610, 489, 558, 1217
1642, 1160, 1255, 563, 1312
1643, 756, 1196, 698, 1415
1644, 1184, 1276, 1127, 1358
1645, 643, 1300, 1153, 1360
1646, 361, 721, 241, 1223
1647, 404, 385, 1320, 1432
1648, 1152, 1246, 1027, 1362
1649, 1119, 1288, 1242, 1321
1650, 913, 1319, 455, 1357
1651, 1024, 1246, 1199, 1439
1652, 313, 230, 303, 1167
1653, 653, 1204, 592, 1309
1654, 301, 1167, 303, 1311
1655, 1048, 1049, 1267, 1370
1656, 367, 1315, 1219, 1418
1657, 1128, 1199, 1198, 1275
1658, 1157, 1248, 1131, 1258
1659, 1145, 1239, 1374, 1396
1660, 385, 441, 217, 1320
1661, 1027, 1246, 1152, 1369
1662, 1167, 1311, 1123, 1387
1663, 674, 681, 384, 1390
1664, 1021, 1285, 1150, 1430
1665, 1113, 1160, 989, 1255
1666, 310, 1188, 1268, 1275
1667, 782, 1227, 1230, 1289
1668, 1179, 1296, 1141, 1421
1669, 237, 365, 364, 1210
1670, 668, 604, 560, 1200
1671, 550, 479, 845, 1450
1672, 1278, 1338, 1208, 1387
1673, 1163, 1337, 1219, 1418
1674, 1038, 1039, 1040, 1349
1675, 668, 604, 1200, 1293
1676, 441, 430, 217, 1320
1677, 366, 365, 1210, 1315
1678, 1189, 1313, 1258, 1335
1679, 1157, 1331, 397, 1448
1680, 913, 455, 522, 1357
1681, 713, 1174, 824, 1262
1682, 659, 530, 518, 1154
1683, 960, 1240, 1202, 1384
1684, 1098, 972, 1212, 1345
1685, 619, 1243, 618, 1360
1686, 1154, 1289, 766, 1342
1687, 1121, 1389, 1190, 1429
1688, 1042, 1117, 1037, 1363
1689, 1017, 1018, 1185, 1244
1690, 589, 1309, 1146, 1368
1691, 367, 369, 1219, 1315
1692, 860, 1207, 736, 1326
1693, 1142, 1381, 1128, 1433
1694, 693, 1307, 1148, 1436
1695, 1226, 1343, 1254, 1440
1696, 445, 1360, 1243, 1409
1697, 981, 1183, 982, 1313
1698, 367, 365, 1315, 1365
1699, 520, 1298, 507, 1330
1700, 512, 735, 493, 1197
1701, 576, 1367, 1260, 1408
1702, 521, 623, 460, 1165
1703, 518, 1442, 1154, 1449
1704, 1265, 1348, 1162, 1400
1705, 1320, 1409, 434, 1410
1706, 869, 1147, 1277, 1425
1707, 247, 1188, 812, 1268
1708, 544, 1187, 608, 1316
1709, 1193, 1349, 1123, 1387
1710, 771, 380, 1184, 1331
1711, 1215, 1241, 1122, 1393
1712, 549, 1057, 942, 1228
1713, 1179, 1223, 746, 1296
1714, 846, 488, 731, 1238
1715, 1131, 1248, 1184, 1258
1716, 1206, 1261, 555, 1293
1717, 507, 1180, 612, 1330
1718, 772, 771, 770, 1331
1719, 445, 1409, 1243, 1410
1720, 1220, 1291, 991, 1357
1721, 1021, 1366, 1116, 1430
1722, 308, 1199, 389, 1275
1723, 951, 1242, 1288, 1321
1724, 1121, 1225, 1389, 1429
1725, 725, 249, 1172, 1227
1726, 1006, 254, 372, 1441
1727, 456, 524, 614, 1354
1728, 574, 1260, 1367, 1445
1729, 1147, 1275, 1268, 1329
1730, 285, 1258, 323, 1313
1731, 766, 1289, 1154, 1351
1732, 1098, 1288, 1212, 1321
1733, 1140, 1234, 1383, 1427
1734, 250, 388, 1173, 1411
1735, 1281, 1324, 1124, 1421
1736, 1145, 1374, 1239, 1426
1737, 767, 756, 755, 1165
1738, 1138, 1386, 1218, 1404
1739, 536, 610, 1158, 1412
1740, 469, 555, 631, 1206
1741, 815, 1188, 818, 1411
1742, 1168, 1129, 1264, 1416
1743, 558, 610, 1217, 1443
1744, 757, 1148, 885, 1326
1745, 551, 556, 1283, 1389
1746, 790, 700, 747, 1231
1747, 1118, 1233, 1159, 1424
1748, 1159, 1233, 1146, 1424
1749, 668, 1200, 560, 1293
1750, 242, 720, 761, 1211
1751, 647, 1278, 538, 1308
1752, 329, 1292, 1216, 1297
1753, 1038, 1349, 1193, 1363
1754, 596, 1176, 788, 1303
1755, 527, 524, 526, 1428
1756, 1197, 1243, 619, 1360
1757, 1157, 1248, 1258, 1331
1758, 1184, 1258, 1248, 1331
1759, 1126, 1228, 1370, 1427
1760, 260, 261, 1202, 1350
1761, 1119, 1221, 1299, 1310
1762, 921, 1061, 1053, 1213
1763, 1032, 1272, 1033, 1336
1764, 1196, 1323, 1127, 1420
1765, 1165, 1323, 1196, 1420
1766, 493, 759, 883, 1243
1767, 1289, 1328, 1151, 1351
1768, 960, 1202, 961, 1384
1769, 1155, 1298, 1134, 1434
1770, 276, 255, 383, 1282
1771, 742, 743, 887, 1326
1772, 845, 732, 550, 1450
1773, 779, 766, 1154, 1442
1774, 913, 522, 990, 1357
1775, 646, 1193, 537, 1308
1776, 1219, 1315, 369, 1359
1777, 1162, 1265, 1096, 1348
1778, 1147, 1329, 1158, 1398
1779, 1058, 1175, 1032, 1322
1780, 624, 597, 1303, 1399
1781, 749, 1273, 1232, 1407
1782, 852, 1225, 892, 1256
1783, 1156, 1375, 293, 1422
1784, 280, 1196, 1276, 1391
1785, 546, 1264, 1161, 1373
1786, 844, 716, 877, 1205
1787, 839, 1238, 895, 1395
1788, 316, 221, 261, 1202
1789, 1005, 961, 912, 1202
1790, 292, 1151, 1372, 1422
1791, 535, 1278, 1208, 1412
1792, 1317, 1348, 677, 1400
1793, 968, 1096, 1162, 1321
1794, 1299, 1310, 1221, 1355
1795, 782, 725, 783, 1227
1796, 1120, 1240, 1236, 1384
1797, 1225, 1256, 852, 1397
1798, 1147, 814, 1329, 1425
1799, 585, 1192, 937, 1245
1800, 1021, 1150, 1285, 1366
1801, 1088, 1285, 1021, 1430
1802, 1173, 1262, 1129, 1286
1803, 1193, 1278, 537, 1308
1804, 1208, 1339, 708, 1412
1805, 1345, 1376, 1139, 1392
1806, 1158, 1329, 1217, 1398
1807, 427, 309, 1147, 1377
1808, 295, 293, 1375, 1422
1809, 1191, 1126, 1325, 1370
1810, 1129, 1201, 1181, 1272
1811, 645, 1299, 1221, 1355
1812, 1067, 918, 1074, 1216
1813, 1163, 1337, 1186, 1404
1814, 694, 677, 680, 1348
1815, 610, 536, 1158, 1443
1816, 375, 329, 254, 1216
1817, 490, 1195, 568, 1330
1818, 535, 1208, 461, 1412
1819, 956, 1209, 958, 1392
1820, 310, 311, 1188, 1332
1821, 280, 1196, 1249, 1276
1822, 287, 290, 418, 1281
1823, 1020, 1014, 1244, 1366
1824, 1066, 992, 916, 1354
1825, 1158, 1398, 1217, 1443
1826, 1015, 1060, 1013, 1206
1827, 1130, 1220, 1401, 1435
1828, 465, 999, 1192, 1255
1829, 754, 794, 750, 1415
1830, 1147, 1275, 1198, 1377
1831, 1199, 1246, 1198, 1439
1832, 1182, 1119, 1242, 1299
1833, 306, 1251, 1198, 1377
1834, 1041, 1038, 1076, 1193
1835, 283, 1276, 1183, 1364
1836, 891, 717, 799, 1186
1837, 1246, 1369, 1199, 1381
1838, 1173, 1269, 1132, 1416
1839, 587, 588, 466, 1245
1840, 1168, 1367, 1260, 1445
1841, 1127, 1271, 1195, 1420
1842, 641, 1229, 526, 1428
1843, 1212, 1237, 1119, 1295
1844, 1006, 372, 920, 1441
1845, 367, 1219, 370, 1418
1846, 1162, 1242, 968, 1321
1847, 428, 1227, 1328, 1422
1848, 1038, 1193, 919, 1308
1849, 571, 577, 572, 1322
1850, 437, 1166, 435, 1432
1851, 397, 325, 1157, 1448
1852, 593, 1218, 1309, 1368
1853, 388, 342, 250, 1173
1854, 1134, 1302, 1155, 1434
1855, 593, 467, 1218, 1368
1856, 239, 1178, 794, 1415
1857, 934, 317, 1064, 1440
1858, 1315, 1365, 1210, 1404
1859, 1145, 1370, 1228, 1427
1860, 486, 606, 629, 1186
1861, 1123, 1266, 1311, 1446
1862, 1029, 1023, 1026, 1199
1863, 715, 805, 808, 1200
1864, 1173, 1262, 897, 1413
1865, 366, 367, 365, 1315
1866, 1072, 1097, 1347, 1432
1867, 224, 1064, 317, 1440
1868, 524, 1220, 523, 1280
1869, 1131, 1160, 1335, 1358
1870, 340, 250, 342, 1173
1871, 317, 1375, 1156, 1440
1872, 625, 1149, 565, 1437
1873, 1163, 1125, 1337, 1404
1874, 979, 967, 1000, 1203
1875, 1181, 1286, 1174, 1301
1876, 1072, 1347, 437, 1432
1877, 847, 875, 821, 1168
1878, 288, 267, 281, 1203
1879, 227, 423, 394, 1213
1880, 836, 837, 871, 1234
1881, 779, 1154, 766, 1342
1882, 361, 426, 243, 1328
1883, 335, 337, 1191, 1383
1884, 992, 1220, 1354, 1401
1885, 875, 1168, 847, 1367
1886, 1024, 1027, 1026, 1246
1887, 618, 619, 493, 1243
1888, 979, 1203, 1000, 1364
1889, 1025, 1198, 1024, 1439
1890, 645, 499, 1299, 1355
1891, 940, 1079, 1012, 1210
1892, 288, 1203, 281, 1364
1893, 1323, 1417, 1149, 1437
1894, 324, 329, 1216, 1297
1895, 828, 1164, 1277, 1339
1896, 317, 293, 1156, 1375
1897, 871, 824, 713, 1174
1898, 1277, 1339, 1164, 1447
1899, 554, 1190, 648, 1389
1900, 1141, 1394, 1355, 1403
1901, 428, 296, 1227, 1422
1902, 293, 1372, 291, 1440
1903, 548, 1316, 1145, 1426
1904, 1213, 1374, 1121, 1396
1905, 422, 339, 395, 1267
1906, 1166, 1320, 435, 1432
1907, 563, 464, 1160, 1318
1908, 288, 220, 267, 1203
1909, 909, 1000, 967, 1203
1910, 906, 814, 904, 1329
1911, 562, 566, 568, 1271
1912, 1118, 1292, 1224, 1297
1913, 1203, 1274, 1127, 1276
1914, 616, 1317, 1307, 1327
1915, 1189, 1118, 1297, 1304
1916, 1015, 1206, 1014, 1366
1917, 428, 426, 294, 1328
1918, 383, 255, 263, 1232
1919, 894, 1187, 1238, 1306
1920, 497, 1242, 513, 1327
1921, 1084, 1161, 1272, 1373
1922, 827, 708, 1208, 1339
1923, 1184, 1248, 1149, 1417
1924, 455, 1319, 519, 1357
1925, 367, 369, 370, 1219
1926, 821, 1253, 1168, 1413
1927, 1233, 1245, 1118, 1314
1928, 380, 378, 703, 1184
1929, 1193, 1123, 1222, 1338
1930, 1136, 1409, 1320, 1410
1931, 815, 813, 1268, 1433
1932, 389, 1199, 308, 1439
1933, 972, 268, 947, 1212
1934, 568, 1195, 1298, 1330
1935, 707, 1224, 866, 1359
1936, 337, 1301, 1267, 1383
1937, 994, 936, 1171, 1279
1938, 851, 1256, 1205, 1397
1939, 1131, 1335, 1192, 1380
1940, 536, 1278, 1158, 1443
1941, 428, 1328, 294, 1422
1942, 607, 1193, 646, 1308
1943, 815, 1269, 1188, 1411
1944, 678, 687, 688, 1400
1945, 306, 231, 307, 1198
1946, 1172, 1227, 1388, 1435
1947, 420, 1219, 391, 1359
1948, 727, 879, 320, 1266
1949, 978, 1274, 1195, 1414
1950, 1311, 1378, 1164, 1387
1951, 1175, 1272, 1336, 1416
1952, 1122, 1169, 1215, 1334
1953, 729, 868, 807, 1163
1954, 868, 797, 1337, 1418
1955, 676, 693, 1148, 1400
1956, 296, 1284, 1227, 1422
1957, 1173, 1132, 1269, 1332
1958, 306, 1198, 307, 1377
1959, 305, 303, 1251, 1378
1960, 984, 1189, 1074, 1304
1961, 544, 1238, 1187, 1316
1962, 1154, 1289, 1151, 1351
1963, 667, 1057, 549, 1228
1964, 1057, 1106, 942, 1228
1965, 1227, 1230, 1130, 1435
1966, 1172, 1230, 1227, 1435
1967, 426, 294, 1328, 1422
1968, 546, 670, 462, 1373
1969, 1189, 1297, 1216, 1304
1970, 406, 272, 271, 1237
1971, 1268, 1329, 814, 1425
1972, 1130, 1230, 1227, 1289
1973, 350, 1334, 349, 1382
1974, 1119, 1242, 1299, 1423
1975, 641, 528, 526, 1229
1976, 256, 1207, 387, 1237
1977, 298, 300, 1172, 1388
1978, 1118, 1304, 1245, 1424
1979, 1200, 1122, 1241, 1393
1980, 675, 453, 673, 1317
1981, 1216, 1297, 1118, 1304
1982, 721, 360, 241, 1223
1983, 1131, 1335, 1183, 1358
1984, 996, 1279, 1222, 1349
1985, 1219, 1337, 797, 1418
1986, 1233, 1294, 1159, 1419
1987, 752, 858, 1197, 1407
1988, 368, 421, 1163, 1365
1989, 913, 990, 977, 1357
1990, 289, 290, 1281, 1372
1991, 1086, 1058, 1032, 1322
1992, 1082, 1267, 1181, 1325
1993, 1181, 1201, 1129, 1286
1994, 396, 351, 236, 1185
1995, 443, 449, 857, 1243
1996, 1149, 1248, 1184, 1358
1997, 1191, 1383, 1126, 1427
1998, 1124, 1305, 1296, 1421
1999, 896, 817, 1379, 1433
2000, 1169, 1137, 1397, 1429
2001, 1185, 1244, 1138, 1352
2002, 1122, 1244, 1185, 1352
2003, 709, 370, 420, 1219
2004, 1158, 1170, 1398, 1443
2005, 990, 991, 1291, 1357
2006, 1203, 1276, 281, 1364
2007, 969, 1097, 948, 1166
2008, 311, 398, 247, 1188
2009, 496, 458, 910, 1242
2010, 1126, 1234, 1306, 1427
2011, 668, 560, 666, 1293
2012, 979, 1274, 1203, 1364
2013, 955, 1345, 1288, 1392
2014, 1195, 1274, 978, 1318
2015, 1139, 1324, 1281, 1421
2016, 826, 1339, 1158, 1412
2017, 574, 1260, 656, 1367
2018, 404, 275, 257, 1166
2019, 408, 1211, 271, 1295
2020, 1082, 923, 1035, 1181
2021, 1207, 1237, 1135, 1390
2022, 402, 386, 278, 1207
2023, 964, 1180, 1111, 1384
2024, 1106, 1228, 1050, 1325
2025, 1119, 1299, 1182, 1438
2026, 995, 1235, 1279, 1349
2027, 618, 1243, 438, 1360
2028, 951, 1288, 953, 1321
2029, 1120, 1178, 1232, 1350
2030, 681, 1259, 384, 1390
2031, 335, 337, 339, 1191
2032, 307, 1198, 308, 1275
2033, 1183, 1274, 981, 1364
2034, 246, 348, 347, 1215
2035, 1188, 1128, 1275, 1381
2036, 1123, 1208, 1229, 1338
2037, 988, 1304, 1216, 1353
2038, 1178, 1340, 417, 1350
2039, 1124, 1343, 1226, 1372
2040, 1200, 1241, 803, 1393
2041, 307, 1198, 1275, 1377
2042, 1180, 1120, 1236, 1384
2043, 693, 682, 1307, 1436
2044, 1304, 1353, 1245, 1424
2045, 657, 508, 510, 1287
2046, 1186, 1352, 1200, 1393
2047, 437, 1347, 1166, 1432
2048, 350, 349, 352, 1382
2049, 1192, 1314, 586, 1399
2050, 1149, 1303, 565, 1437
2051, 758, 737, 886, 1282
2052, 515, 492, 739, 1221
2053, 1120, 1273, 1178, 1434
2054, 1162, 1317, 642, 1327
2055, 1141, 1299, 1182, 1403
2056, 370, 1219, 709, 1418
2057, 934, 1064, 1112, 1440
2058, 802, 181, 481, 715
2059, 481, 600, 181, 802
2060, 1220, 1130, 1401, 1444
2061, 508, 507, 510, 1287
2062, 843, 852, 892, 1256
2063, 1126, 1370, 1191, 1427
2064, 839, 1306, 1238, 1395
2065, 685, 679, 691, 1207
2066, 1131, 1255, 1192, 1335
2067, 1026, 1085, 1263, 1369
2068, 714, 331, 83, 251
2069, 1144, 1401, 1220, 1435
2070, 815, 874, 1269, 1411
2071, 1126, 1191, 1301, 1383
2072, 1178, 1273, 1155, 1434
2073, 964, 1341, 1180, 1384
2074, 1070, 683, 671, 1265
2075, 395, 1267, 337, 1301
2076, 1180, 1236, 1120, 1287
2077, 83, 850, 714, 251
2078, 1080, 1025, 1044, 1251
2079, 1274, 1276, 1203, 1364
2080, 1140, 1306, 1234, 1427
2081, 1193, 1123, 1338, 1387
2082, 289, 1281, 1226, 1372
2083, 1000, 1203, 288, 1364
2084, 1065, 124, 464, 569
2085, 315, 299, 297, 1388
2086, 1118, 1292, 1297, 1424
2087, 1122, 1334, 1214, 1402
2088, 1201, 1129, 1371, 1416
2089, 897, 718, 1173, 1411
2090, 781, 1230, 780, 1289
2091, 609, 1187, 730, 1450
2092, 1162, 1348, 1317, 1400
2093, 675, 1307, 615, 1317
2094, 1158, 1387, 1339, 1447
2095, 665, 1247, 558, 1408
2096, 1129, 1168, 1413, 1416
2097, 1226, 1281, 289, 1376
2098, 1013, 1014, 1015, 1206
2099, 883, 857, 449, 1243
2100, 577, 1152, 1362, 1408
2101, 351, 1185, 396, 1365
2102, 910, 533, 458, 157
2103, 221, 53, 912, 1005
2104, 408, 271, 273, 1295
2105, 1173, 1371, 1129, 1416
2106, 1109, 1201, 1033, 1272
2107, 1107, 1322, 1028, 1369
2108, 484, 726, 596, 1431
2109, 1004, 911, 533, 156
2110, 910, 1004, 533, 157
2111, 53, 221, 316, 1005
2112, 1130, 1435, 1401, 1444
2113, 1130, 1227, 1284, 1422
2114, 708, 830, 827, 1208
2115, 1021, 1150, 1366, 1430
2116, 1124, 1223, 1343, 1372
2117, 1148, 1400, 693, 1436
2118, 539, 1222, 636, 1338
2119, 254, 371, 372, 1441
2120, 875, 1168, 1269, 1413
2121, 617, 1300, 643, 1360
2122, 1168, 1416, 1264, 1445
2123, 602, 551, 556, 1283
2124, 976, 1156, 1112, 1440
2125, 890, 829, 727, 1385
2126, 846, 609, 186, 541
2127, 609, 846, 186, 730
2128, 950, 496, 910, 1242
2129, 124, 1065, 935, 569
2130, 875, 1269, 1168, 1367
2131, 791, 755, 719, 1302
2132, 1098, 1288, 1110, 1345
2133, 991, 1291, 1220, 1401
2134, 1128, 1147, 1275, 1398
2135, 626, 1247, 1170, 1443
2136, 457, 533, 911, 156
2137, 659, 1154, 518, 1442
2138, 1193, 1308, 1038, 1363
2139, 620, 684, 1317, 1348
2140, 1020, 1017, 1022, 1214
2141, 335, 333, 332, 1383
2142, 1291, 1401, 991, 1444
2143, 1217, 1329, 1128, 1398
2144, 326, 1292, 329, 1297
2145, 1170, 1128, 1246, 1398
2146, 442, 444, 1300, 1360
2147, 1209, 1254, 1250, 1319
2148, 565, 1303, 1149, 1312
2149, 434, 1409, 452, 1410
2150, 811, 347, 903, 1215
2151, 1021, 1116, 927, 1430
2152, 676, 693, 682, 1307
2153, 596, 624, 597, 1303
2154, 1129, 1413, 1173, 1416
2155, 497, 1299, 1242, 1327
2156, 1149, 1131, 1248, 1358
2157, 1124, 1250, 1209, 1254
2158, 863, 777, 1224, 1294
2159, 1150, 1190, 1366, 1402
2160, 1128, 1275, 1198, 1398
2161, 731, 873, 841, 1177
2162, 987, 1245, 937, 1304
2163, 983, 981, 1313, 1335
2164, 297, 1284, 1171, 1388
2165, 1064, 20, 224, 317
2166, 667, 1057, 1228, 1426
2167, 1229, 1230, 1144, 1428
2168, 775, 1294, 1176, 1431
2169, 780, 766, 1289, 1342
2170, 1169, 1397, 1205, 1429
2171, 20, 1064, 934, 317
2172, 325, 1224, 1297, 1448
2173, 911, 1001, 457, 155
2174, 220, 1000, 51, 909
2175, 1038, 1076, 1193, 1349
2176, 727, 1266, 244, 1385
2177, 1118, 1224, 1292, 1424
2178, 1164, 1266, 829, 1385
2179, 1147, 1377, 1198, 1398
2180, 967, 965, 1257, 1414
2181, 796, 1219, 709, 1359
2182, 424, 1224, 390, 1359
2183, 1139, 1421, 1179, 1438
2184, 1179, 1421, 1141, 1438
2185, 404, 1320, 1166, 1432
2186, 518, 1250, 1442, 1449
2187, 723, 901, 853, 1328
2188, 984, 983, 1313, 1335
2189, 1000, 220, 51, 288
2190, 531, 457, 1001, 155
2191, 642, 1162, 494, 1348
2192, 1101, 1039, 1045, 1251
2193, 1190, 1285, 1121, 1429
2194, 1242, 1327, 1299, 1423
2195, 1183, 1276, 1184, 1358
2196, 846, 187, 488, 541
2197, 871, 841, 824, 1395
2198, 1199, 1275, 1128, 1381
2199, 969, 1069, 1097, 1347
2200, 308, 1198, 307, 1439
2201, 265, 267, 1257, 1391
2202, 949, 1162, 1096, 1348
2203, 591, 603, 1245, 1314
2204, 768, 789, 756, 1249
2205, 1169, 1334, 1122, 1402
2206, 760, 884, 278, 1207
2207, 528, 636, 527, 1338
2208, 1135, 1321, 1212, 1423
2209, 1029, 1026, 1085, 1263
2210, 795, 707, 866, 1359
2211, 427, 1147, 309, 1425
2212, 615, 453, 675, 1317
2213, 1211, 1119, 1237, 1295
2214, 544, 608, 548, 1316
2215, 1188, 1329, 1128, 1433
2216, 735, 858, 759, 1197
2217, 795, 709, 420, 1359
2218, 387, 1237, 1207, 1390
2219, 458, 496, 910, 158
2220, 912, 259, 54, 221
2221, 851, 1205, 877, 1397
2222, 1119, 1321, 1242, 1423
2223, 1131, 1189, 1335, 1380
2224, 669, 1233, 650, 1431
2225, 669, 591, 1233, 1314
2226, 684, 453, 620, 1317
2227, 987, 939, 1091, 1245
2228, 1102, 928, 1043, 1218
2229, 1068, 439, 432, 1347
2230, 990, 916, 456, 152
2231, 1089, 1017, 1018, 1185
2232, 626, 1170, 538, 1443
2233, 713, 824, 898, 1262
2234, 890, 828, 1164, 1385
2235, 550, 479, 184, 845
2236, 1142, 1367, 817, 1379
2237, 1160, 1255, 1131, 1335
2238, 1129, 1262, 1173, 1413
2239, 1184, 1258, 1183, 1358
2240, 1168, 1264, 1253, 1445
2241, 1142, 1379, 1217, 1408
2242, 1063, 1103, 943, 1190
2243, 732, 1225, 852, 1397
2244, 1121, 1205, 1256, 1397
2245, 1132, 1260, 1175, 1416
2246, 684, 673, 453, 1317
2247, 477, 621, 636, 1222
2248, 1161, 1325, 1126, 1344
2249, 536, 1158, 1278, 1412
2250, 1142, 1269, 817, 1367
2251, 1176, 1314, 597, 1431
2252, 1070, 671, 908, 1265
2253, 1127, 1358, 1323, 1417
2254, 325, 1224, 326, 1297
2255, 1186, 1337, 1125, 1404
2256, 1193, 1222, 1123, 1349
2257, 1031, 1272, 1032, 1373
2258, 588, 591, 603, 1245
2259, 1110, 1098, 953, 1288
2260, 261, 265, 1257, 1340
2261, 558, 1217, 1247, 1443
2262, 183, 487, 550, 732
2263, 1099, 1236, 963, 1384
2264, 219, 328, 49, 914
2265, 876, 732, 852, 1397
2266, 1063, 1190, 1087, 1285
2267, 1195, 1298, 1134, 1420
2268, 426, 428, 243, 1328
2269, 322, 285, 323, 1313
2270, 1010, 1078, 1218, 1405
2271, 368, 393, 351, 1365
2272, 1192, 1255, 1131, 1399
2273, 1231, 1442, 1250, 1449
2274, 261, 265, 316, 1257
2275, 1199, 1275, 308, 1439
2276, 949, 968, 1096, 1162
2277, 1200, 1241, 1122, 1261
2278, 1128, 1246, 1199, 1381
2279, 298, 1172, 249, 1227
2280, 1125, 1218, 1404, 1405
2281, 940, 1089, 1018, 1185
2282, 1126, 1301, 1267, 1325
2283, 369, 391, 1219, 1359
2284, 513, 1162, 642, 1327
2285, 913, 522, 455, 153
2286, 494, 642, 513, 1162
2287, 1118, 1245, 1192, 1314
2288, 342, 343, 1286, 1371
2289, 1007, 1077, 1006, 1194
2290, 1183, 1127, 1274, 1276
2291, 778, 1149, 1248, 1417
2292, 1023, 1026, 1199, 1439
2293, 715, 803, 805, 1200
2294, 756, 698, 754, 1415
2295, 1206, 1366, 1190, 1402
2296, 1048, 1049, 924, 1267
2297, 461, 535, 534, 1208
2298, 1188, 1269, 815, 1433
2299, 1050, 1325, 1228, 1370
2300, 31, 233, 929, 1046
2301, 1118, 1192, 1245, 1304
2302, 656, 1260, 576, 1367
2303, 1137, 1389, 1225, 1429
2304, 763, 1231, 747, 1296
2305, 806, 803, 1241, 1393
2306, 470, 135, 943, 595
2307, 387, 274, 272, 1237
2308, 1156, 1372, 1343, 1422
2309, 1166, 1347, 1097, 1432
2310, 1145, 1228, 1316, 1427
2311, 977, 975, 913, 1319
2312, 1126, 1316, 1228, 1427
2313, 1126, 1325, 1228, 1344
2314, 1144, 1428, 1230, 1435
2315, 1122, 1241, 1169, 1402
2316, 133, 925, 1013, 469
2317, 1143, 1254, 1250, 1343
2318, 1124, 1250, 1254, 1343
2319, 481, 560, 604, 1200
2320, 1323, 1358, 1149, 1417
2321, 1121, 1256, 1225, 1397
2322, 1121, 1252, 1205, 1333
2323, 887, 743, 736, 1326
2324, 950, 496, 494, 159
2325, 948, 259, 55, 959
2326, 120, 973, 612, 463
2327, 244, 1266, 320, 1311
2328, 547, 1228, 545, 1344
2329, 1147, 1329, 1268, 1425
2330, 1233, 669, 1314, 1431
2331, 557, 1217, 848, 1379
2332, 325, 1297, 1157, 1448
2333, 1169, 1241, 1137, 1402
2334, 669, 591, 650, 1233
2335, 1129, 1286, 1201, 1371
2336, 336, 1252, 1213, 1333
2337, 282, 1249, 1184, 1276
2338, 986, 937, 1192, 1304
2339, 1186, 1386, 1138, 1404
2340, 950, 910, 496, 158
2341, 259, 912, 54, 959
2342, 855, 864, 706, 1229
2343, 473, 571, 144, 926
2344, 243, 853, 68, 361
2345, 1131, 1157, 1258, 1380
2346, 570, 136, 1056, 470
2347, 740, 699, 1221, 1355
2348, 1158, 1278, 1339, 1387
2349, 1088, 1055, 1285, 1430
2350, 1184, 1248, 1131, 1358
2351, 1142, 1379, 817, 1433
2352, 1126, 1301, 1181, 1406
2353, 324, 326, 329, 1297
2354, 451, 435, 1347, 1409
2355, 978, 967, 1274, 1414
2356, 296, 298, 1227, 1388
2357, 348, 393, 1215, 1334
2358, 490, 1002, 933, 1195
2359, 327, 1224, 325, 1448
2360, 780, 1289, 1230, 1342
2361, 532, 1231, 516, 1305
2362, 982, 49, 328, 914
2363, 456, 522, 990, 152
2364, 980, 989, 1160, 1274
2365, 1175, 1129, 1272, 1416
2366, 1161, 1228, 1325, 1344
2367, 1146, 1245, 1353, 1424
2368, 780, 1230, 781, 1342
2369, 1143, 1343, 1250, 1449
2370, 913, 990, 522, 153
2371, 980, 989, 1113, 1160
2372, 1155, 1180, 1298, 1434
2373, 674, 695, 681, 1390
2374, 1164, 1123, 1311, 1387
2375, 1043, 1102, 1218, 1368
2376, 498, 1299, 499, 1403
2377, 1119, 1212, 1321, 1423
2378, 732, 550, 184, 845
2379, 1216, 1297, 1292, 1424
2380, 844, 877, 851, 1205
2381, 853, 68, 723, 243
2382, 533, 498, 502, 1403
2383, 1131, 1258, 1184, 1358
2384, 1159, 1292, 1224, 1424
2385, 278, 387, 256, 1207
2386, 1118, 1294, 1176, 1380
2387, 702, 779, 475, 1442
2388, 582, 666, 583, 1386
2389, 626, 1247, 578, 1362
2390, 943, 1056, 136, 470
2391, 1033, 1272, 1201, 1336
2392, 866, 1159, 796, 1359
2393, 937, 1091, 585, 1245
2394, 535, 537, 539, 1278
2395, 336, 1213, 412, 1333
2396, 1186, 1352, 1163, 1404
2397, 267, 280, 1276, 1391
2398, 1024, 1199, 1026, 1439
2399, 909, 967, 965, 1257
2400, 220, 265, 267, 1257
2401, 1134, 1302, 1196, 1420
2402, 1220, 1401, 1291, 1444
2403, 872, 831, 904, 1329
2404, 255, 748, 279, 1232
2405, 475, 613, 702, 1442
2406, 1150, 1402, 1169, 1429
2407, 1120, 1240, 1202, 1350
2408, 1185, 1365, 1352, 1404
2409, 1131, 1183, 1258, 1358
2410, 1142, 1260, 1168, 1367
2411, 1150, 1285, 1190, 1429
2412, 1152, 1381, 1247, 1408
2413, 563, 562, 464, 1318
2414, 1121, 1333, 1205, 1429
2415, 530, 1280, 1154, 1342
2416, 1181, 1325, 1126, 1406
2417, 137, 1056, 941, 570
2418, 455, 517, 519, 1319
2419, 621, 527, 636, 1222
2420, 1198, 308, 1275, 1439
2421, 131, 928, 468, 594
2422, 1126, 1181, 1301, 1325
2423, 1130, 1280, 1230, 1289
2424, 390, 707, 1224, 1448
2425, 898, 897, 835, 1262
2426, 1006, 920, 1007, 1441
2427, 1152, 1128, 1246, 1247
2428, 627, 558, 557, 1217
2429, 731, 846, 187, 488
2430, 665, 558, 627, 1408
2431, 415, 352, 1382, 1430
2432, 1206, 1244, 1122, 1293
2433, 918, 222, 46, 375
2434, 230, 305, 303, 1251
2435, 1145, 1283, 1187, 1316
2436, 949, 950, 494, 159
2437, 257, 259, 55, 948
2438, 183, 487, 732, 849
2439, 1189, 1258, 1157, 1380
2440, 956, 952, 1004, 1392
2441, 791, 623, 722, 1165
2442, 395, 338, 1267, 1301
2443, 740, 1221, 1310, 1355
2444, 1160, 1271, 1149, 1312
2445, 1171, 1375, 998, 1444
2446, 1190, 1402, 1150, 1429
2447, 1137, 1402, 1190, 1429
2448, 608, 544, 609, 1187
2449, 717, 559, 179, 808
2450, 894, 840, 1187, 1306
2451, 1200, 1261, 1122, 1293
2452, 1148, 1307, 676, 1317
2453, 948, 1166, 1097, 1432
2454, 1062, 1088, 1055, 1285
2455, 786, 1328, 1289, 1351
2456, 865, 785, 829, 1266
2457, 179, 486, 559, 717
2458, 1134, 1178, 1302, 1434
2459, 803, 805, 1200, 1393
2460, 1157, 1118, 1297, 1380
2461, 875, 821, 1168, 1413
2462, 1343, 1372, 1156, 1440
2463, 404, 1166, 257, 1432
2464, 325, 327, 326, 1224
2465, 133, 925, 469, 581
2466, 899, 742, 887, 1211
2467, 783, 864, 781, 1230
2468, 1158, 1147, 1398, 1447
2469, 281, 1276, 283, 1364
2470, 1098, 1110, 972, 1345
2471, 1060, 943, 135, 595
2472, 777, 1294, 776, 1419
2473, 1169, 1382, 1150, 1429
2474, 445, 452, 436, 1409
2475, 1129, 1272, 1181, 1406
2476, 1181, 1272, 1161, 1406
2477, 632, 1228, 1316, 1426
2478, 1226, 1254, 974, 1440
2479, 568, 1298, 520, 1330
2480, 1157, 1131, 1248, 1380
2481, 817, 1269, 1142, 1433
2482, 1023, 1024, 1026, 1439
2483, 597, 1314, 1176, 1399
2484, 701, 101, 279, 794
2485, 840, 842, 843, 1256
2486, 217, 430, 433, 1320
2487, 31, 233, 362, 929
2488, 975, 1254, 958, 1319
2489, 1118, 1297, 1216, 1424
2490, 1120, 1273, 1197, 1407
2491, 795, 223, 390, 1359
2492, 1010, 1078, 928, 1218
2493, 1200, 1352, 1122, 1393
2494, 926, 144, 473, 1059
2495, 222, 918, 46, 1067
2496, 952, 1288, 1182, 1392
2497, 589, 588, 587, 1368
2498, 951, 953, 954, 1321
2499, 1125, 1290, 1218, 1405
2500, 614, 456, 1066, 151
2501, 390, 1224, 327, 1448
2502, 1138, 1404, 1218, 1405
2503, 784, 783, 725, 1172
2504, 1125, 1194, 1290, 1315
2505, 364, 365, 396, 1365
2506, 1296, 1305, 1231, 1394
2507, 941, 137, 570, 471
2508, 1205, 1397, 1121, 1429
2509, 742, 1211, 899, 1310
2510, 245, 374, 81, 713
2511, 890, 1277, 828, 1385
2512, 685, 1207, 859, 1436
2513, 1051, 1374, 1370, 1426
2514, 720, 899, 761, 1211
2515, 801, 370, 709, 1418
2516, 1343, 1372, 1151, 1422
2517, 375, 45, 918, 254
2518, 395, 337, 338, 1301
2519, 1191, 1325, 1267, 1370
2520, 242, 761, 64, 277
2521, 676, 1307, 675, 1317
2522, 1291, 1375, 1156, 1444
2523, 748, 102, 279, 701
2524, 206, 739, 699, 515
2525, 446, 1360, 445, 1409
2526, 1048, 1267, 1325, 1370
2527, 617, 442, 1300, 1360
2528, 1166, 1347, 435, 1409
2529, 25, 230, 313, 1045
2530, 441, 435, 430, 1320
2531, 1206, 1122, 1261, 1293
2532, 1126, 1344, 1238, 1395
2533, 994, 995, 936, 1279
2534, 1119, 1221, 1310, 1326
2535, 667, 1228, 632, 1426
2536, 505, 973, 119, 463
2537, 816, 896, 848, 1379
2538, 1282, 1320, 434, 1410
2539, 268, 972, 15, 226
2540, 1167, 1123, 1235, 1349
2541, 516, 1250, 1231, 1442
2542, 1250, 1343, 1124, 1449
2543, 611, 563, 1255, 1312
2544, 549, 545, 547, 1228
2545, 303, 1311, 1167, 1378
2546, 1131, 1258, 1189, 1380
2547, 1070, 1259, 683, 1265
2548, 355, 233, 32, 1046
2549, 586, 611, 1255, 1399
2550, 1142, 1188, 1269, 1381
2551, 367, 421, 1365, 1418
2552, 1129, 1264, 1175, 1272
2553, 651, 592, 1204, 1309
2554, 1138, 1352, 1186, 1404
2555, 1167, 1251, 1133, 1363
2556, 1051, 1104, 1374, 1426
2557, 1277, 1378, 1377, 1447
2558, 1183, 1276, 1274, 1364
2559, 492, 1221, 500, 1327
2560, 896, 817, 1367, 1379
2561, 231, 307, 1198, 1439
2562, 1075, 1222, 996, 1279
2563, 836, 81, 374, 713
2564, 504, 1250, 517, 1319
2565, 427, 1147, 379, 1377
2566, 1083, 1115, 1042, 1246
2567, 1120, 1232, 1273, 1407
2568, 1082, 1035, 1052, 1325
2569, 800, 796, 866, 1159
2570, 1130, 1154, 1280, 1289
2571, 606, 1309, 593, 1386
2572, 44, 920, 1006, 372
2573, 1122, 1293, 1244, 1352
2574, 415, 1382, 1333, 1430
2575, 417, 1340, 264, 1350
2576, 1182, 1288, 1119, 1438
2577, 320, 1266, 300, 1311
2578, 226, 269, 268, 1212
2579, 552, 551, 550, 1225
2580, 820, 822, 1262, 1413
2581, 943, 1087, 1063, 1190
2582, 556, 648, 1190, 1389
2583, 254, 44, 1006, 372
2584, 561, 562, 568, 1318
2585, 642, 1317, 1162, 1348
2586, 1217, 1329, 872, 1433
2587, 457, 502, 504, 1209
2588, 958, 956, 911, 1209
2589, 627, 1217, 557, 1379
2590, 655, 1253, 575, 1445
2591, 928, 1019, 131, 468
2592, 238, 1331, 704, 1448
2593, 1121, 1205, 1252, 1256
2594, 243, 787, 723, 1328
2595, 335, 336, 333, 1252
2596, 45, 1006, 918, 254
2597, 379, 1147, 427, 1425
2598, 248, 844, 85, 363
2599, 761, 899, 887, 1211
2600, 237, 42, 1012, 364
2601, 717, 867, 799, 1186
2602, 295, 1375, 1284, 1422
2603, 858, 1243, 1197, 1407
2604, 310, 312, 311, 1332
2605, 735, 752, 858, 1197
2606, 527, 1222, 621, 1354
2607, 1201, 1371, 1336, 1416
2608, 1221, 1326, 1119, 1423
2609, 816, 896, 1379, 1433
2610, 475, 659, 613, 1442
2611, 844, 710, 85, 363
2612, 271, 408, 406, 1211
2613, 551, 1283, 1225, 1389
2614, 593, 1309, 589, 1368
2615, 1007, 1290, 1194, 1441
2616, 1138, 1244, 1293, 1352
2617, 482, 733, 819, 1253
2618, 554, 552, 553, 1389
2619, 564, 563, 565, 1312
2620, 1160, 1274, 1183, 1358
2621, 645, 1221, 515, 1355
2622, 1126, 1161, 1344, 1406
2623, 890, 834, 1277, 1385
2624, 1135, 1265, 1321, 1423
2625, 1288, 1345, 1139, 1392
2626, 1018, 1016, 1078, 1405
2627, 835, 245, 80, 713
2628, 1161, 1264, 1129, 1272
2629, 1125, 1290, 1210, 1315
2630, 1173, 1413, 1269, 1416
2631, 633, 575, 1253, 1264
2632, 594, 593, 467, 1218
2633, 647, 646, 537, 1308
2634, 1073, 1096, 908, 1265
2635, 647, 537, 1278, 1308
2636, 632, 1228, 547, 1316
2637, 557, 734, 489, 193
2638, 274, 405, 258, 1259
2639, 218, 674, 384, 1390
2640, 311, 1188, 1332, 1411
2641, 593, 589, 467, 1368
2642, 1066, 456, 916, 151
2643, 719, 753, 900, 1155
2644, 342, 343, 341, 1286
2645, 178, 599, 486, 832
2646, 649, 555, 469, 1206
2647, 1022, 356, 1081, 1214
2648, 727, 784, 879, 1266
2649, 1138, 1185, 1404, 1405
2650, 1269, 1413, 1168, 1416
2651, 932, 974, 1226, 1324
2652, 373, 353, 248, 1205
2653, 1112, 1156, 997, 1375
2654, 813, 814, 1268, 1329
2655, 309, 1275, 1147, 1377
2656, 1247, 1398, 1170, 1443
2657, 1130, 1284, 1156, 1422
2658, 654, 602, 1239, 1283
2659, 1230, 1289, 1280, 1342
2660, 1120, 1270, 1240, 1350
2661, 86, 716, 248, 357
2662, 1182, 1299, 498, 1403
2663, 540, 489, 734, 194
2664, 695, 1259, 681, 1390
2665, 1126, 1238, 1316, 1427
2666, 918, 1006, 1077, 1216
2667, 263, 1270, 1232, 1350
2668, 540, 734, 825, 194
2669, 629, 1186, 606, 1386
2670, 1170, 1247, 1128, 1398
2671, 1153, 1300, 1069, 1347
2672, 1277, 1377, 1147, 1447
2673, 374, 331, 82, 836
2674, 1197, 1243, 1136, 1407
2675, 231, 308, 307, 1439
2676, 1068, 1300, 439, 1347
2677, 990, 1291, 977, 1357
2678, 390, 327, 707, 1448
2679, 836, 331, 82, 714
2680, 456, 523, 1220, 1357
2681, 1128, 1152, 1246, 1381
2682, 1128, 1247, 1152, 1381
2683, 226, 270, 269, 1295
2684, 736, 860, 760, 1207
2685, 975, 958, 1001, 1319
2686, 645, 500, 1221, 1299
2687, 1352, 1365, 1163, 1404
2688, 860, 736, 743, 1326
2689, 1192, 1255, 985, 1335
2690, 274, 387, 405, 1390
2691, 277, 406, 408, 1211
2692, 973, 505, 946, 1236
2693, 263, 1232, 407, 1350
2694, 611, 563, 569, 1255
2695, 262, 417, 264, 1350
2696, 575, 1253, 1264, 1445
2697, 318, 1199, 389, 1439
2698, 1131, 1255, 1160, 1312
2699, 979, 981, 1274, 1364
2700, 435, 1320, 1166, 1409
2701, 207, 738, 739, 514
2702, 737, 103, 276, 748
2703, 295, 228, 297, 1284
2704, 465, 999, 937, 1192
2705, 1188, 1128, 1381, 1433
2706, 428, 294, 296, 1422
2707, 1007, 1077, 1194, 1353
2708, 1086, 1336, 1034, 1369
2709, 1149, 1271, 1160, 1358
2710, 1009, 1102, 1100, 1368
2711, 1168, 1269, 1142, 1367
2712, 1133, 1378, 1167, 1387
2713, 806, 803, 809, 1241
2714, 1012, 1210, 1008, 1441
2715, 1105, 1050, 1106, 1228
2716, 1177, 1238, 1344, 1395
2717, 632, 1316, 548, 1426
2718, 1157, 1248, 1176, 1380
2719, 892, 1225, 732, 1450
2720, 760, 859, 884, 1207
2721, 1126, 1316, 1238, 1344
2722, 966, 1330, 1341, 1414
2723, 917, 477, 149, 1041
2724, 86, 716, 844, 248
2725, 1215, 1122, 1352, 1393
2726, 699, 739, 740, 1221
2727, 609, 608, 1187, 1450
2728, 130, 1043, 594, 467
2729, 617, 643, 454, 1360
2730, 778, 1248, 1149, 1303
2731, 607, 646, 647, 1308
2732, 317, 293, 224, 1440
2733, 792, 720, 360, 1179
2734, 397, 1331, 238, 1448
2735, 270, 1295, 226, 1345
2736, 1017, 1020, 1014, 1244
2737, 964, 966, 1330, 1341
2738, 894, 893, 730, 1187
2739, 813, 1329, 1268, 1433
2740, 837, 1234, 838, 1306
2741, 420, 223, 795, 1359
2742, 149, 621, 477, 917
2743, 1121, 1285, 1333, 1429
2744, 952, 953, 951, 1288
2745, 804, 803, 802, 1241
2746, 1171, 1388, 1284, 1435
2747, 894, 840, 893, 1187
2748, 1016, 1014, 925, 1244
2749, 482, 819, 601, 1253
2750, 310, 1188, 247, 1268
2751, 1139, 1288, 1182, 1438
2752, 1119, 1212, 1288, 1321
2753, 1062, 1285, 1213, 1374
2754, 1016, 1244, 925, 1356
2755, 432, 907, 1068, 1347
2756, 217, 433, 382, 1320
2757, 1167, 1235, 1123, 1311
2758, 513, 497, 496, 1242
2759, 545, 546, 543, 1344
2760, 1164, 1378, 1311, 1385
2761, 742, 899, 744, 1310
2762, 412, 423, 227, 1213
2763, 177, 485, 599, 832
2764, 804, 1241, 802, 1346
2765, 423, 412, 336, 1213
2766, 778, 1248, 770, 1417
2767, 325, 381, 397, 1157
2768, 1194, 1315, 371, 1441
2769, 989, 1255, 1160, 1335
2770, 557, 848, 734, 193
2771, 667, 549, 632, 1228
2772, 597, 1314, 630, 1431
2773, 1033, 1201, 1108, 1336
2774, 397, 1157, 381, 1331
2775, 1045, 313, 25, 938
2776, 960, 963, 1240, 1384
2777, 715, 180, 481, 808
2778, 237, 1210, 1012, 1441
2779, 611, 465, 586, 1255
2780, 536, 1278, 535, 1412
2781, 551, 1225, 552, 1389
2782, 812, 815, 813, 1268
2783, 786, 1289, 766, 1351
2784, 516, 1231, 1250, 1305
2785, 1191, 1370, 1145, 1427
2786, 531, 504, 517, 1319
2787, 500, 1221, 1299, 1327
2788, 1177, 1344, 1126, 1395
2789, 740, 1310, 1221, 1326
2790, 1121, 1397, 1225, 1429
2791, 1252, 1256, 1140, 1396
2792, 1121, 1256, 1252, 1396
2793, 885, 1148, 1307, 1436
2794, 1120, 1197, 1273, 1287
2795, 1129, 1262, 1174, 1286
2796, 621, 1222, 917, 1354
2797, 443, 438, 449, 1243
2798, 1190, 1389, 1137, 1429
2799, 1176, 1248, 1131, 1380
2800, 1103, 1056, 943, 1239
2801, 444, 1360, 446, 1409
2802, 386, 1207, 679, 1390
2803, 832, 1204, 889, 1419
2804, 1119, 1326, 1237, 1423
2805, 919, 148, 607, 1041
2806, 1156, 1343, 1151, 1422
2807, 32, 355, 1046, 923
2808, 430, 58, 217, 433
2809, 675, 673, 453, 162
2810, 837, 1306, 839, 1395
2811, 1169, 1402, 1137, 1429
2812, 501, 498, 499, 1403
2813, 862, 1307, 682, 1436
2814, 762, 584, 491, 168
2815, 1252, 1256, 1205, 1361
2816, 237, 366, 365, 1210
2817, 598, 669, 650, 1431
2818, 470, 570, 652, 1239
2819, 922, 1198, 1025, 1439
2820, 228, 1284, 295, 1375
2821, 459, 641, 706, 1229
2822, 1054, 1285, 1062, 1374
2823, 1105, 1106, 1057, 1228
2824, 676, 1148, 1317, 1400
2825, 576, 627, 1379, 1408
2826, 1128, 1329, 1217, 1433
2827, 292, 1372, 293, 1422
2828, 856, 419, 704, 1448
2829, 890, 834, 828, 1277
2830, 1161, 1129, 1264, 1406
2831, 487, 553, 552, 1346
2832, 340, 245, 80, 835
2833, 820, 1253, 821, 1413
2834, 349, 1334, 1169, 1382
2835, 728, 776, 880, 1419
2836, 1162, 1321, 1265, 1423
2837, 1156, 1130, 1291, 1444
2838, 1263, 1336, 1201, 1371
2839, 847, 733, 190, 482
2840, 955, 1110, 1288, 1345
2841, 1138, 1185, 1352, 1404
2842, 769, 902, 1417, 1437
2843, 740, 1221, 757, 1326
2844, 891, 798, 1204, 1337
2845, 528, 1229, 459, 1338
2846, 1133, 1158, 1398, 1447
2847, 651, 590, 592, 1309
2848, 1208, 1338, 1123, 1387
2849, 828, 1277, 1164, 1385
2850, 1012, 1079, 1008, 1210
2851, 655, 574, 656, 1367
2852, 525, 524, 1280, 1428
2853, 189, 733, 819, 482
2854, 1005, 1257, 965, 1341
2855, 986, 987, 937, 1304
2856, 1191, 1145, 1374, 1396
2857, 988, 1216, 1077, 1353
2858, 1160, 1312, 1149, 1358
2859, 409, 344, 1263, 1371
2860, 536, 540, 610, 1412
2861, 832, 889, 728, 1419
2862, 684, 677, 1317, 1348
2863, 775, 1176, 726, 1431
2864, 810, 809, 804, 1241
2865, 1191, 1145, 1370, 1374
2866, 1245, 1304, 987, 1353
2867, 1021, 1063, 1087, 1285
2868, 624, 1303, 1312, 1399
2869, 580, 847, 190, 482
2870, 603, 630, 586, 1314
2871, 1118, 1176, 1294, 1314
2872, 1224, 1292, 326, 1297
2873, 828, 869, 906, 1339
2874, 1136, 1407, 1243, 1410
2875, 324, 329, 375, 1216
2876, 996, 1222, 1076, 1349
2877, 1148, 1326, 1207, 1436
2878, 557, 558, 489, 1217
2879, 478, 146, 1036, 945
2880, 1370, 1374, 1145, 1426
2881, 679, 1207, 686, 1390
2882, 832, 486, 178, 717
2883, 1210, 1404, 1185, 1405
2884, 353, 349, 357, 1382
2885, 520, 510, 507, 1298
2886, 1126, 1306, 1238, 1427
2887, 477, 607, 148, 1041
2888, 535, 635, 1208, 1338
2889, 586, 1314, 630, 1399
2890, 961, 1005, 965, 1341
2891, 1013, 1060, 134, 469
2892, 1196, 1302, 1165, 1420
2893, 1119, 1288, 1212, 1295
2894, 1129, 1161, 1272, 1406
2895, 180, 559, 481, 808
2896, 302, 1311, 1378, 1385
2897, 872, 848, 734, 1217
2898, 317, 295, 293, 1375
2899, 972, 947, 1098, 1212
2900, 779, 702, 766, 1442
2901, 795, 796, 709, 1359
2902, 1124, 1254, 1209, 1324
2903, 1147, 309, 1268, 1275
2904, 702, 201, 613, 475
2905, 1170, 1246, 1128, 1247
2906, 538, 1278, 536, 1443
2907, 1280, 1342, 525, 1428
2908, 424, 1292, 1224, 1359
2909, 1105, 1050, 1228, 1370
2910, 1122, 1261, 1241, 1402
2911, 1209, 1250, 1124, 1305
2912, 1074, 1216, 988, 1304
2913, 461, 708, 534, 196
2914, 746, 744, 1179, 1296
2915, 282, 1184, 284, 1276
2916, 1144, 1401, 1435, 1446
2917, 685, 686, 1207, 1436
2918, 1071, 1265, 1096, 1321
2919, 595, 134, 1060, 469
2920, 704, 419, 238, 1448
2921, 1126, 1344, 1177, 1406
2922, 594, 583, 593, 1218
2923, 1341, 1384, 1202, 1434
2924, 366, 1210, 237, 1441
2925, 1176, 1248, 774, 1303
2926, 334, 332, 331, 1234
2927, 1037, 1038, 1308, 1363
2928, 1171, 1435, 1401, 1446
2929, 1148, 1326, 1221, 1423
2930, 1210, 1290, 1008, 1441
2931, 955, 1288, 952, 1392
2932, 1263, 1332, 1132, 1371
2933, 554, 553, 555, 1261
2934, 1267, 1301, 1191, 1383
2935, 273, 286, 287, 1281
2936, 1196, 1391, 266, 1415
2937, 370, 391, 420, 1219
2938, 1137, 1225, 1397, 1429
2939, 1162, 1327, 1242, 1423
2940, 980, 981, 989, 1274
2941, 1183, 1127, 1276, 1358
2942, 1129, 1174, 1262, 1406
2943, 1141, 1296, 1305, 1421
2944, 1147, 1268, 309, 1425
2945, 530, 1280, 523, 1357
2946, 1126, 1301, 1234, 1383
2947, 1144, 1222, 1279, 1446
2948, 1152, 1132, 1369, 1381
2949, 685, 686, 679, 1207
2950, 1063, 1054, 1103, 1285
2951, 1144, 1279, 1401, 1446
2952, 894, 1238, 839, 1306
2953, 1171, 1401, 1279, 1446
2954, 1123, 1235, 1349, 1446
2955, 428, 1227, 358, 1328
2956, 837, 1234, 1306, 1395
2957, 1157, 1297, 1189, 1380
2958, 1105, 1370, 1228, 1426
2959, 1180, 1384, 1341, 1434
2960, 845, 892, 732, 1450
2961, 1164, 1123, 1266, 1311
2962, 1135, 1148, 1400, 1423
2963, 1198, 1377, 1133, 1398
2964, 217, 404, 385, 1320
2965, 866, 863, 777, 1224
2966, 838, 837, 714, 1234
2967, 580, 655, 656, 1367
2968, 1260, 1381, 1152, 1408
2969, 177, 485, 832, 728
2970, 601, 189, 819, 482
2971, 343, 1201, 410, 1286
2972, 1120, 1287, 1273, 1434
2973, 1043, 928, 130, 594
2974, 712, 896, 1367, 1379
2975, 1141, 1421, 1182, 1438
2976, 966, 1195, 1330, 1414
2977, 488, 188, 731, 601
2978, 1126, 1174, 1301, 1406
2979, 792, 746, 1179, 1223
2980, 741, 793, 1355, 1394
2981, 1133, 1398, 1147, 1447
2982, 1243, 1409, 1136, 1410
2983, 600, 1261, 553, 1346
2984, 1120, 1232, 1270, 1350
2985, 1174, 1129, 1286, 1406
2986, 1273, 1287, 1155, 1434
2987, 310, 311, 247, 1188
2988, 1048, 1325, 1050, 1370
2989, 1175, 1264, 1129, 1416
2990, 708, 830, 534, 196
2991, 885, 1307, 862, 1436
2992, 1137, 1241, 1261, 1402
2993, 1154, 1280, 1289, 1342
2994, 300, 1235, 1311, 1388
2995, 764, 1231, 763, 1351
2996, 1210, 1315, 1290, 1441
2997, 1290, 1315, 1194, 1441
2998, 1174, 1286, 1181, 1406
2999, 1202, 1384, 1120, 1434
3000, 1180, 1120, 1384, 1434
3001, 1145, 1396, 1191, 1427
3002, 739, 757, 740, 1221
3003, 107, 1068, 439, 432
3004, 1161, 1126, 1325, 1406
3005, 1150, 1333, 1285, 1429
3006, 940, 1012, 42, 364
3007, 443, 115, 431, 696
3008, 606, 592, 593, 1309
3009, 146, 478, 579, 945
3010, 783, 781, 782, 1230
3011, 1121, 1285, 1213, 1333
3012, 841, 839, 895, 1395
3013, 332, 1234, 334, 1383
3014, 414, 352, 415, 1430
3015, 334, 331, 374, 1234
3016, 958, 1324, 957, 1392
3017, 215, 672, 685, 697
3018, 52, 1005, 316, 1257
3019, 1125, 1315, 1210, 1404
3020, 778, 1303, 1149, 1437
3021, 243, 428, 358, 1328
3022, 468, 582, 583, 1356
3023, 1147, 1133, 1377, 1398
3024, 348, 351, 393, 1334
3025, 992, 991, 1220, 1401
3026, 615, 675, 453, 162
3027, 58, 217, 433, 382
3028, 1279, 1349, 1235, 1446
3029, 201, 702, 779, 475
3030, 1247, 1362, 1152, 1408
3031, 27, 231, 1044, 922
3032, 740, 1310, 741, 1355
3033, 1183, 1274, 1127, 1358
3034, 433, 1282, 382, 1320
3035, 1166, 1270, 1136, 1320
3036, 816, 872, 1329, 1433
3037, 286, 270, 377, 1345
3038, 1151, 1343, 1223, 1372
3039, 437, 1072, 106, 432
3040, 1037, 1038, 919, 1308
3041, 1187, 1306, 1140, 1427
3042, 515, 645, 492, 1221
3043, 536, 535, 461, 1412
3044, 1034, 1108, 1263, 1336
3045, 668, 1261, 604, 1293
3046, 326, 1224, 424, 1292
3047, 751, 749, 752, 1273
3048, 814, 711, 1268, 1425
3049, 316, 220, 52, 1257
3050, 909, 1005, 52, 1257
3051, 232, 318, 29, 1023
3052, 569, 935, 125, 1255
3053, 749, 752, 1273, 1407
3054, 220, 909, 52, 1257
3055, 889, 1204, 798, 1419
3056, 647, 538, 478, 1308
3057, 1202, 1240, 1120, 1384
3058, 1125, 1404, 1290, 1405
3059, 773, 704, 772, 1331
3060, 593, 1309, 1218, 1386
3061, 939, 1011, 1100, 1368
3062, 567, 566, 564, 1271
3063, 571, 472, 143, 1322
3064, 1105, 1228, 1057, 1426
3065, 480, 1367, 576, 1379
3066, 907, 106, 1072, 432
3067, 1072, 1097, 907, 1347
3068, 685, 697, 672, 1436
3069, 829, 1266, 727, 1385
3070, 188, 819, 731, 601
3071, 269, 274, 268, 1212
3072, 282, 378, 1184, 1249
3073, 525, 524, 523, 1280
3074, 343, 1201, 1286, 1371
3075, 1189, 1297, 1118, 1380
3076, 456, 523, 524, 1220
3077, 860, 1326, 885, 1436
3078, 289, 1226, 291, 1372
3079, 318, 389, 308, 1439
3080, 1156, 1284, 1130, 1444
3081, 600, 604, 553, 1261
3082, 1139, 1182, 1421, 1438
3083, 583, 593, 1218, 1386
3084, 1225, 1283, 551, 1450
3085, 762, 900, 888, 1273
3086, 286, 1345, 377, 1376
3087, 435, 434, 1320, 1409
3088, 284, 1258, 1184, 1331
3089, 1228, 1316, 1126, 1344
3090, 696, 431, 1243, 1410
3091, 306, 230, 26, 1251
3092, 1102, 1010, 1218, 1290
3093, 429, 618, 438, 1360
3094, 1173, 1411, 1269, 1413
3095, 697, 682, 672, 1436
3096, 898, 822, 897, 1262
3097, 456, 522, 523, 1357
3098, 1184, 1149, 1358, 1417
3099, 1264, 1416, 1175, 1445
3100, 680, 1073, 210, 671
3101, 503, 504, 502, 1305
3102, 555, 1261, 668, 1293
3103, 916, 992, 991, 1220
3104, 1126, 1238, 1306, 1395
3105, 759, 857, 883, 1243
3106, 740, 741, 699, 1355
3107, 381, 1157, 1258, 1331
3108, 569, 125, 465, 1255
3109, 280, 1196, 240, 1249
3110, 1189, 1304, 1192, 1380
3111, 585, 466, 603, 1245
3112, 846, 731, 895, 1238
3113, 976, 997, 1112, 1291
3114, 306, 27, 231, 1044
3115, 781, 782, 1230, 1289
3116, 1084, 1272, 1031, 1373
3117, 227, 1055, 37, 359
3118, 1133, 1147, 1377, 1447
3119, 955, 957, 1376, 1392
3120, 1017, 1016, 1018, 1244
3121, 688, 679, 686, 1390
3122, 1181, 1286, 1129, 1406
3123, 620, 1317, 642, 1348
3124, 1126, 1301, 1174, 1395
3125, 766, 1351, 1154, 1442
3126, 748, 749, 701, 1232
3127, 974, 1254, 1226, 1324
3128, 1147, 1128, 1329, 1398
3129, 730, 1187, 893, 1450
3130, 512, 493, 619, 1197
3131, 616, 492, 500, 1327
3132, 1243, 1407, 858, 1410
3133, 544, 542, 1238, 1316
3134, 697, 862, 682, 1436
3135, 1085, 1336, 1263, 1369
3136, 654, 548, 602, 1283
3137, 454, 618, 429, 1360
3138, 908, 210, 1073, 671
3139, 1124, 1231, 1296, 1305
3140, 528, 459, 635, 1338
3141, 727, 320, 244, 1266
3142, 741, 745, 793, 1394
3143, 1048, 1267, 1082, 1325
3144, 1164, 1311, 1266, 1385
3145, 1108, 1033, 1109, 1201
3146, 1199, 1263, 1132, 1369
3147, 608, 1283, 1187, 1450
3148, 249, 298, 300, 1172
3149, 1288, 1295, 1119, 1438
3150, 886, 858, 1407, 1410
3151, 1210, 1290, 1125, 1404
3152, 878, 811, 903, 1215
3153, 283, 282, 284, 1276
3154, 1189, 1118, 1304, 1380
3155, 788, 596, 726, 1431
3156, 511, 619, 643, 1360
3157, 1157, 1297, 1224, 1448
3158, 1121, 1213, 1252, 1333
3159, 1200, 1293, 1122, 1352
3160, 1136, 1320, 1282, 1410
3161, 1132, 1371, 1173, 1416
3162, 764, 747, 763, 1231
3163, 1053, 1062, 1213, 1374
3164, 1135, 1400, 1265, 1423
3165, 1044, 306, 26, 1251
3166, 1220, 1291, 1130, 1444
3167, 1180, 1287, 1120, 1434
3168, 1155, 1287, 1180, 1434
3169, 1181, 1301, 1174, 1406
3170, 558, 1247, 664, 1443
3171, 217, 441, 59, 430
3172, 163, 673, 453, 684
3173, 29, 232, 1023, 1029
3174, 891, 798, 889, 1204
3175, 1041, 1076, 917, 1222
3176, 472, 1058, 143, 1322
3177, 1160, 1127, 1274, 1358
3178, 59, 385, 441, 217
3179, 684, 453, 163, 620
3180, 1206, 1261, 1122, 1402
3181, 523, 1280, 1220, 1357
3182, 249, 300, 320, 1172
3183, 1198, 1251, 1133, 1377
3184, 322, 48, 328, 1313
3185, 362, 409, 344, 1263
3186, 779, 766, 780, 1342
3187, 333, 1252, 373, 1361
3188, 466, 1091, 128, 587
3189, 763, 746, 1223, 1296
3190, 501, 1394, 503, 1403
3191, 826, 831, 825, 1412
3192, 535, 635, 534, 1208
3193, 287, 289, 290, 1281
3194, 929, 1034, 1108, 1263
3195, 1333, 1382, 1150, 1430
3196, 37, 921, 1055, 227
3197, 709, 796, 797, 1219
3198, 1031, 1033, 1032, 1272
3199, 369, 330, 391, 1359
3200, 753, 754, 750, 1302
3201, 680, 671, 694, 1265
3202, 48, 322, 915, 1313
3203, 955, 953, 952, 1288
3204, 749, 748, 758, 1232
3205, 483, 565, 1303, 1437
3206, 813, 814, 711, 1268
3207, 230, 1045, 26, 1251
3208, 1198, 1275, 1199, 1439
3209, 261, 1340, 1202, 1350
3210, 572, 1260, 577, 1408
3211, 665, 578, 1247, 1408
3212, 630, 1314, 597, 1399
3213, 530, 523, 519, 1357
3214, 439, 1300, 444, 1347
3215, 438, 1243, 445, 1360
3216, 379, 1377, 1277, 1378
3217, 892, 852, 732, 1225
3218, 1126, 1234, 1301, 1395
3219, 1047, 924, 422, 1267
3220, 79, 340, 835, 718
3221, 1148, 1221, 1327, 1423
3222, 673, 676, 675, 1317
3223, 836, 714, 837, 1234
3224, 761, 63, 277, 256
3225, 1131, 1176, 1380, 1399
3226, 1132, 1336, 1371, 1416
3227, 1120, 1350, 1202, 1434
3228, 957, 958, 1254, 1324
3229, 405, 384, 1259, 1390
3230, 782, 1227, 1289, 1328
3231, 504, 503, 1250, 1305
3232, 1174, 1126, 1395, 1406
3233, 1142, 1269, 1188, 1433
3234, 1118, 1176, 1314, 1380
3235, 1058, 605, 142, 944
3236, 35, 924, 1061, 339
3237, 1134, 1257, 1203, 1391
3238, 350, 1214, 413, 1334
3239, 1046, 1108, 1109, 1201
3240, 472, 605, 142, 1058
3241, 852, 1256, 851, 1397
3242, 1203, 1257, 1134, 1414
3243, 1151, 1328, 765, 1351
3244, 415, 354, 1333, 1382
3245, 414, 415, 235, 1430
3246, 778, 772, 770, 1248
3247, 1118, 1314, 1192, 1380
3248, 1174, 1395, 1177, 1406
3249, 1228, 1325, 1126, 1370
3250, 491, 512, 762, 167
3251, 1134, 1180, 1341, 1434
3252, 1142, 1381, 1260, 1408
3253, 413, 350, 414, 1214
3254, 582, 668, 666, 1293
3255, 994, 1279, 1171, 1401
3256, 1191, 1374, 1213, 1396
3257, 968, 1071, 1096, 1321
3258, 1154, 1351, 1151, 1449
3259, 1075, 1076, 996, 1222
3260, 1173, 1132, 1332, 1371
3261, 647, 537, 538, 1278
3262, 1132, 1336, 1263, 1371
3263, 1265, 1400, 1162, 1423
3264, 267, 280, 281, 1276
3265, 234, 338, 411, 1267
3266, 900, 751, 888, 1273
3267, 503, 1394, 1305, 1403
3268, 978, 967, 979, 1274
3269, 1008, 1290, 1007, 1441
3270, 1120, 1178, 1350, 1434
3271, 894, 895, 839, 1238
3272, 48, 982, 328, 1313
3273, 995, 1279, 996, 1349
3274, 234, 1047, 422, 1267
3275, 1059, 1107, 1027, 1362
3276, 853, 765, 721, 1223
3277, 749, 1232, 758, 1407
3278, 1192, 1304, 1118, 1380
3279, 1146, 1353, 1194, 1424
3280, 928, 1102, 1010, 1218
3281, 1226, 1372, 1343, 1440
3282, 480, 656, 576, 1367
3283, 115, 443, 857, 696
3284, 1053, 1062, 921, 1213
3285, 1049, 1370, 1051, 1374
3286, 788, 726, 1176, 1431
3287, 665, 577, 578, 1408
3288, 1044, 26, 1045, 1251
3289, 1174, 1301, 1234, 1395
3290, 634, 1264, 546, 1373
3291, 599, 651, 653, 1204
3292, 1267, 1301, 1181, 1325
3293, 822, 897, 1262, 1413
3294, 653, 651, 592, 1204
3295, 404, 383, 275, 1320
3296, 1290, 1404, 1210, 1405
3297, 685, 859, 215, 697
3298, 951, 968, 1242, 1321
3299, 547, 1316, 1228, 1344
3300, 1130, 1284, 1227, 1435
3301, 1052, 1106, 1050, 1325
3302, 1202, 1257, 1134, 1340
3303, 542, 541, 544, 1238
3304, 229, 315, 23, 1090
3305, 1163, 1215, 1352, 1393
3306, 930, 1111, 964, 1330
3307, 865, 864, 785, 1229
3308, 1255, 1312, 1131, 1399
3309, 1147, 1277, 379, 1377
3310, 150, 614, 621, 1354
3311, 812, 711, 76, 1268
3312, 673, 684, 677, 1317
3313, 1160, 1271, 1127, 1358
3314, 409, 410, 343, 1201
3315, 1162, 1242, 1321, 1423
3316, 403, 344, 312, 1332
3317, 369, 391, 370, 1219
3318, 769, 1417, 1323, 1437
3319, 321, 76, 711, 1268
3320, 511, 505, 506, 1236
3321, 632, 547, 548, 1316
3322, 62, 736, 760, 278
3323, 1284, 1375, 1156, 1422
3324, 704, 773, 856, 1448
3325, 769, 1323, 854, 1437
3326, 1134, 1257, 1202, 1341
3327, 1119, 1295, 1211, 1438
3328, 1211, 1310, 1119, 1438
3329, 891, 889, 832, 1204
3330, 703, 1249, 768, 1417
3331, 1134, 1341, 1202, 1434
3332, 1177, 1344, 1161, 1406
3333, 1161, 1325, 1181, 1406
3334, 811, 878, 806, 1215
3335, 1075, 1222, 1279, 1354
3336, 48, 915, 982, 1313
3337, 366, 1315, 1210, 1441
3338, 509, 644, 512, 1197
3339, 1166, 1320, 1136, 1409
3340, 1126, 1306, 1234, 1395
3341, 860, 757, 885, 1326
3342, 333, 373, 363, 1361
3343, 127, 1091, 466, 585
3344, 859, 697, 685, 1436
3345, 366, 371, 1315, 1441
3346, 1068, 107, 907, 432
3347, 759, 735, 493, 166
3348, 150, 621, 917, 1354
3349, 1175, 1336, 1132, 1416
3350, 1133, 1251, 1167, 1378
3351, 417, 1178, 239, 1415
3352, 1028, 1027, 1107, 1369
3353, 712, 896, 817, 1367
3354, 507, 612, 520, 1330
3355, 721, 792, 360, 1223
3356, 314, 1196, 266, 1415
3357, 609, 730, 185, 1450
3358, 291, 1226, 319, 1440
3359, 1131, 1149, 1312, 1358
3360, 1057, 139, 549, 942
3361, 413, 414, 356, 1214
3362, 1039, 1080, 1251, 1363
3363, 997, 1156, 1291, 1375
3364, 1113, 989, 935, 1255
3365, 767, 1165, 722, 1323
3366, 1123, 1311, 1235, 1446
3367, 1182, 1288, 1139, 1392
3368, 924, 35, 422, 339
3369, 370, 91, 709, 420
3370, 410, 409, 233, 1201
3371, 281, 283, 219, 1364
3372, 224, 319, 19, 1440
3373, 541, 542, 488, 1238
3374, 1171, 1284, 1375, 1444
3375, 446, 445, 436, 1409
3376, 1155, 1302, 1178, 1434
3377, 1091, 939, 128, 587
3378, 379, 1277, 1147, 1425
3379, 442, 446, 444, 1360
3380, 525, 1342, 622, 1428
3381, 492, 207, 739, 514
3382, 103, 255, 276, 748
3383, 506, 508, 509, 1287
3384, 1118, 1294, 1233, 1314
3385, 1165, 1298, 1195, 1420
3386, 551, 1283, 608, 1450
3387, 800, 777, 776, 1419
3388, 1141, 1403, 1182, 1421
3389, 1205, 1382, 1169, 1429
3390, 1057, 549, 139, 667
3391, 310, 308, 389, 1275
3392, 542, 1238, 1316, 1344
3393, 1022, 1116, 1020, 1214
3394, 434, 436, 452, 1409
3395, 1124, 1250, 1231, 1305
3396, 790, 1231, 764, 1442
3397, 300, 1235, 301, 1311
3398, 150, 917, 1066, 1354
3399, 1177, 1395, 1126, 1406
3400, 11, 681, 384, 674
3401, 383, 1270, 275, 1320
3402, 409, 1201, 343, 1371
3403, 260, 1270, 263, 1350
3404, 433, 434, 1282, 1320
3405, 150, 1066, 614, 1354
3406, 1124, 1281, 1226, 1324
3407, 1324, 1376, 957, 1392
3408, 1071, 1259, 1070, 1265
3409, 229, 301, 299, 1235
3410, 1268, 1329, 1188, 1433
3411, 1022, 40, 356, 236
3412, 1131, 1380, 1192, 1399
3413, 1020, 1015, 1014, 1366
3414, 571, 143, 926, 1322
3415, 591, 590, 650, 1233
3416, 821, 820, 733, 1253
3417, 348, 393, 347, 1215
3418, 837, 839, 841, 1395
3419, 824, 820, 822, 1262
3420, 119, 946, 973, 505
3421, 15, 947, 972, 268
3422, 669, 597, 630, 1431
3423, 232, 1029, 30, 1263
3424, 922, 1025, 1024, 1439
3425, 1124, 1324, 1209, 1421
3426, 1175, 1272, 1264, 1373
3427, 874, 815, 818, 1411
3428, 1031, 1032, 944, 1373
3429, 994, 1171, 993, 1401
3430, 1105, 1051, 1370, 1426
3431, 1134, 1391, 1203, 1420
3432, 700, 745, 1296, 1394
3433, 956, 958, 957, 1392
3434, 983, 981, 982, 1313
3435, 291, 1372, 1226, 1440
3436, 503, 1305, 502, 1403
3437, 218, 679, 10, 674
3438, 933, 1195, 978, 1318
3439, 851, 1256, 842, 1361
3440, 307, 1275, 309, 1377
3441, 1207, 1326, 860, 1436
3442, 507, 508, 506, 1287
3443, 279, 255, 102, 748
3444, 739, 206, 492, 515
3445, 656, 574, 576, 1260
3446, 1220, 1144, 1354, 1401
3447, 745, 747, 700, 1296
3448, 280, 266, 1196, 1391
3449, 202, 790, 702, 1442
3450, 547, 632, 549, 1228
3451, 1010, 1218, 1290, 1405
3452, 895, 894, 846, 1238
3453, 407, 255, 279, 1232
3454, 232, 30, 362, 1263
3455, 500, 1299, 497, 1327
3456, 616, 615, 1307, 1317
3457, 929, 30, 1029, 1263
3458, 679, 674, 218, 1390
3459, 22, 936, 315, 228
3460, 959, 960, 969, 1240
3461, 347, 811, 88, 246
3462, 1260, 1416, 1168, 1445
3463, 340, 79, 250, 718
3464, 929, 362, 30, 1263
3465, 1278, 1339, 1208, 1412
3466, 463, 506, 505, 1236
3467, 1074, 1077, 988, 1216
3468, 624, 1312, 663, 1399
3469, 843, 851, 852, 1256
3470, 1145, 1316, 1187, 1427
3471, 917, 1222, 1075, 1354
3472, 1202, 1350, 1340, 1434
3473, 1178, 1134, 1340, 1434
3474, 311, 1332, 388, 1411
3475, 624, 1303, 565, 1312
3476, 1035, 1109, 1033, 1272
3477, 579, 626, 578, 1362
3478, 563, 564, 562, 1271
3479, 1202, 1341, 961, 1384
3480, 681, 399, 384, 1259
3481, 979, 914, 981, 1364
3482, 1134, 1203, 1414, 1420
3483, 1212, 1295, 1288, 1345
3484, 1142, 1188, 1381, 1433
3485, 1277, 1378, 1164, 1385
3486, 289, 319, 291, 1226
3487, 1086, 1034, 1028, 1369
3488, 969, 960, 963, 1240
3489, 878, 806, 1215, 1393
3490, 950, 951, 968, 1242
3491, 863, 866, 707, 1224
3492, 683, 1259, 687, 1265
3493, 1150, 1366, 1214, 1402
3494, 296, 297, 298, 1388
3495, 271, 270, 273, 1295
3496, 1095, 971, 399, 1259
3497, 1305, 1394, 1141, 1403
3498, 1224, 1292, 1159, 1359
3499, 1070, 1095, 689, 1259
3500, 266, 1391, 1340, 1415
3501, 454, 111, 617, 429
3502, 645, 500, 492, 1221
3503, 781, 780, 782, 1289
3504, 915, 984, 983, 1313
3505, 1144, 1279, 1222, 1354
3506, 1234, 1301, 334, 1383
3507, 1250, 1254, 1143, 1319
3508, 993, 1171, 998, 1444
3509, 660, 499, 645, 1355
3510, 272, 256, 387, 1237
3511, 988, 987, 1304, 1353
3512, 441, 437, 435, 1432
3513, 1020, 1214, 1116, 1366
3514, 1202, 1340, 1134, 1434
3515, 1121, 1252, 1213, 1396
3516, 1104, 1239, 1054, 1374
3517, 443, 431, 445, 1243
3518, 497, 458, 496, 1242
3519, 344, 403, 362, 1263
3520, 830, 865, 827, 1208
3521, 264, 266, 1340, 1415
3522, 1210, 1365, 1185, 1404
3523, 1099, 963, 962, 1384
3524, 779, 705, 200, 1342
3525, 465, 937, 126, 585
3526, 1139, 1295, 1288, 1438
3527, 490, 568, 520, 1330
3528, 97, 380, 703, 771
3529, 997, 1375, 1291, 1444
3530, 1269, 1411, 823, 1413
3531, 926, 143, 1058, 1322
3532, 1139, 1376, 1324, 1392
3533, 95, 704, 856, 419
3534, 1208, 1164, 1339, 1387
3535, 1069, 1300, 1068, 1347
3536, 850, 251, 84, 1361
3537, 668, 555, 604, 1261
3538, 644, 509, 508, 1287
3539, 683, 671, 211, 1070
3540, 147, 919, 607, 1308
3541, 1238, 1187, 1316, 1427
3542, 286, 289, 1281, 1376
3543, 40, 1022, 1114, 236
3544, 703, 240, 789, 1249
3545, 1124, 1254, 1226, 1343
3546, 1086, 1028, 1322, 1369
3547, 709, 801, 91, 370
3548, 1182, 1392, 1139, 1421
3549, 1251, 1377, 305, 1378
3550, 1124, 1226, 1254, 1324
3551, 223, 424, 390, 1359
3552, 1164, 1387, 1378, 1447
3553, 405, 218, 384, 1390
3554, 985, 1192, 999, 1255
3555, 1091, 937, 987, 1245
3556, 875, 817, 1269, 1367
3557, 1131, 1312, 1160, 1358
3558, 746, 744, 720, 1179
3559, 962, 964, 1111, 1384
3560, 770, 703, 768, 1417
3561, 1124, 1209, 1305, 1421
3562, 787, 723, 69, 243
3563, 415, 352, 354, 1382
3564, 319, 18, 932, 225
3565, 490, 933, 122, 561
3566, 671, 908, 211, 1070
3567, 980, 1274, 1160, 1318
3568, 1153, 1347, 1166, 1409
3569, 1238, 1306, 1187, 1427
3570, 655, 482, 575, 1253
3571, 964, 961, 1341, 1384
3572, 681, 689, 399, 1259
3573, 704, 95, 238, 419
3574, 1231, 1250, 1124, 1449
3575, 1216, 1304, 1118, 1424
3576, 326, 327, 424, 1224
3577, 805, 807, 867, 1393
3578, 775, 774, 726, 1176
3579, 503, 532, 516, 1305
3580, 747, 764, 790, 1231
3581, 1175, 1416, 1260, 1445
3582, 480, 576, 627, 1379
3583, 789, 240, 99, 698
3584, 203, 700, 790, 476
3585, 50, 1000, 288, 1364
3586, 765, 763, 1223, 1351
3587, 963, 1099, 946, 1236
3588, 854, 661, 662, 171
3589, 253, 392, 729, 1418
3590, 631, 555, 668, 1293
3591, 1022, 1081, 1116, 1214
3592, 234, 395, 338, 1267
3593, 407, 263, 255, 1232
3594, 290, 425, 418, 1223
3595, 864, 865, 706, 1229
3596, 976, 974, 1254, 1440
3597, 960, 962, 963, 1384
3598, 977, 990, 991, 1291
3599, 289, 291, 290, 1372
3600, 1199, 1369, 1132, 1381
3601, 293, 292, 291, 1372
3602, 1043, 1100, 1102, 1368
3603, 265, 1257, 1340, 1391
3604, 386, 679, 218, 1390
3605, 296, 298, 358, 1227
3606, 147, 1036, 919, 1308
3607, 964, 962, 961, 1384
3608, 1246, 1247, 1170, 1362
3609, 120, 973, 930, 612
3610, 399, 689, 1095, 1259
3611, 10, 386, 679, 218
3612, 462, 634, 546, 1373
3613, 1162, 1400, 1317, 1423
3614, 703, 240, 98, 789
3615, 425, 241, 418, 1223
3616, 237, 1012, 43, 1441
3617, 483, 625, 565, 1437
3618, 993, 1401, 1171, 1444
3619, 853, 721, 67, 361
3620, 241, 67, 721, 361
3621, 360, 720, 65, 242
3622, 1052, 1050, 1048, 1325
3623, 984, 1074, 986, 1304
3624, 476, 516, 532, 1231
3625, 283, 284, 285, 1258
3626, 518, 1250, 516, 1442
3627, 1192, 1380, 1314, 1399
3628, 1333, 1382, 1205, 1429
3629, 1134, 1414, 1195, 1420
3630, 1217, 1379, 1142, 1433
3631, 669, 630, 1314, 1431
3632, 1092, 639, 160, 1348
3633, 1152, 1247, 1246, 1362
3634, 611, 1312, 1255, 1399
3635, 472, 571, 572, 1322
3636, 642, 620, 453, 1317
3637, 529, 622, 705, 1342
3638, 185, 730, 845, 1450
3639, 386, 387, 1207, 1390
3640, 1036, 1042, 1037, 1308
3641, 390, 424, 327, 1224
3642, 66, 721, 360, 241
3643, 420, 391, 223, 1359
3644, 299, 1235, 300, 1388
3645, 1085, 1034, 1336, 1369
3646, 479, 609, 185, 1450
3647, 725, 782, 787, 1227
3648, 787, 358, 1227, 1328
3649, 346, 338, 334, 1301
3650, 619, 509, 512, 1197
3651, 787, 243, 358, 1328
3652, 788, 1176, 774, 1303
3653, 778, 902, 724, 1437
3654, 683, 687, 671, 1265
3655, 965, 1341, 1257, 1414
3656, 955, 931, 1345, 1376
3657, 1070, 689, 683, 1259
3658, 1233, 1314, 1294, 1431
3659, 252, 833, 74, 1277
3660, 237, 43, 372, 1441
3661, 300, 299, 301, 1235
3662, 1002, 966, 1195, 1330
3663, 306, 305, 1251, 1377
3664, 851, 842, 710, 1361
3665, 817, 815, 1269, 1433
3666, 327, 419, 94, 1448
3667, 612, 121, 490, 1330
3668, 525, 1280, 622, 1342
3669, 94, 707, 327, 1448
3670, 631, 1293, 582, 1356
3671, 1076, 1075, 917, 1222
3672, 993, 991, 1401, 1444
3673, 378, 380, 284, 1184
3674, 1216, 1194, 1353, 1424
3675, 304, 1378, 1277, 1385
3676, 800, 889, 798, 1419
3677, 856, 94, 419, 1448
3678, 622, 1280, 530, 1342
3679, 932, 1003, 974, 1324
3680, 725, 787, 358, 1227
3681, 459, 830, 706, 197
3682, 1216, 1292, 1194, 1424
3683, 337, 334, 1301, 1383
3684, 101, 239, 279, 794
3685, 568, 521, 520, 1298
3686, 1317, 1400, 1148, 1423
3687, 1196, 1391, 1134, 1420
3688, 147, 607, 478, 1308
3689, 820, 873, 819, 1253
3690, 147, 478, 1036, 1308
3691, 1340, 1350, 1178, 1434
3692, 435, 436, 434, 1409
3693, 978, 1195, 966, 1414
3694, 548, 608, 602, 1283
3695, 724, 483, 173, 1303
3696, 1314, 1380, 1176, 1399
3697, 794, 698, 100, 1415
3698, 797, 868, 801, 1418
3699, 363, 84, 251, 1361
3700, 720, 761, 64, 242
3701, 459, 528, 641, 1229
3702, 1226, 1324, 1281, 1376
3703, 302, 244, 320, 1311
3704, 710, 850, 84, 1361
3705, 676, 678, 693, 1400
3706, 286, 225, 289, 1376
3707, 94, 856, 707, 1448
3708, 377, 17, 225, 1376
3709, 476, 1231, 790, 1442
3710, 1209, 1182, 1403, 1421
3711, 592, 590, 589, 1309
3712, 341, 345, 346, 1286
3713, 1064, 224, 19, 1440
3714, 351, 396, 368, 1365
3715, 314, 240, 280, 1196
3716, 1049, 1051, 1053, 1374
3717, 266, 314, 280, 1196
3718, 1080, 1045, 1039, 1251
3719, 707, 863, 1224, 1448
3720, 1104, 1103, 1054, 1239
3721, 425, 1223, 290, 1372
3722, 1162, 1317, 1327, 1423
3723, 284, 1184, 380, 1331
3724, 932, 319, 1226, 1440
3725, 1140, 1256, 1252, 1361
3726, 1133, 1378, 1387, 1447
3727, 973, 946, 1099, 1236
3728, 535, 539, 635, 1338
3729, 744, 741, 742, 1310
3730, 937, 985, 986, 1192
3731, 542, 1316, 547, 1344
3732, 626, 664, 1247, 1443
3733, 953, 955, 1110, 1288
3734, 427, 309, 321, 1425
3735, 936, 993, 994, 1171
3736, 431, 445, 1243, 1410
3737, 764, 1351, 766, 1442
3738, 837, 841, 871, 1395
3739, 384, 218, 11, 674
3740, 320, 300, 302, 1311
3741, 702, 613, 202, 1442
3742, 1133, 1377, 1378, 1447
3743, 725, 358, 249, 1227
3744, 694, 1265, 687, 1400
3745, 50, 288, 219, 1364
3746, 1279, 1354, 1144, 1401
3747, 1148, 1327, 1317, 1423
3748, 633, 575, 482, 1253
3749, 433, 430, 434, 1320
3750, 903, 811, 88, 347
3751, 827, 826, 708, 1339
3752, 1000, 50, 914, 1364
3753, 913, 154, 455, 1319
3754, 578, 626, 664, 1247
3755, 1173, 1332, 1269, 1411
3756, 708, 1339, 826, 1412
3757, 438, 429, 110, 618
3758, 397, 381, 238, 1331
3759, 971, 258, 399, 1259
3760, 596, 173, 483, 1303
3761, 1088, 1063, 1021, 1285
3762, 586, 630, 597, 1399
3763, 1103, 1104, 1056, 1239
3764, 774, 773, 772, 1248
3765, 645, 499, 500, 1299
3766, 62, 736, 278, 256
3767, 1001, 531, 154, 1319
3768, 338, 337, 334, 1301
3769, 282, 378, 284, 1184
3770, 1032, 1034, 1086, 1336
3771, 224, 293, 291, 1440
3772, 114, 696, 861, 1410
3773, 1073, 949, 1096, 1348
3774, 114, 861, 440, 1410
3775, 434, 440, 1282, 1410
3776, 1077, 1074, 918, 1216
3777, 735, 512, 493, 166
3778, 1031, 1084, 1035, 1272
3779, 1145, 1316, 1228, 1426
3780, 302, 244, 1311, 1385
3781, 460, 584, 791, 169
3782, 302, 1311, 303, 1378
3783, 576, 1260, 572, 1408
3784, 1230, 1342, 1280, 1428
3785, 386, 387, 278, 1207
3786, 459, 534, 830, 197
3787, 1269, 1332, 1188, 1411
3788, 262, 260, 263, 1350
3789, 1264, 1272, 1161, 1373
3790, 114, 431, 696, 1410
3791, 882, 450, 861, 1282
3792, 429, 454, 110, 618
3793, 114, 440, 431, 1410
3794, 795, 866, 796, 1359
3795, 364, 41, 1114, 236
3796, 366, 372, 371, 1441
3797, 802, 600, 182, 1346
3798, 1158, 1339, 1278, 1412
3799, 710, 84, 363, 1361
3800, 1231, 1351, 764, 1442
3801, 1001, 154, 913, 1319
3802, 446, 438, 445, 1360
3803, 660, 645, 515, 1355
3804, 855, 706, 198, 641
3805, 1027, 1246, 1083, 1362
3806, 654, 602, 652, 1239
3807, 735, 762, 512, 167
3808, 63, 761, 736, 256
3809, 1034, 1032, 1033, 1336
3810, 762, 719, 584, 168
3811, 455, 154, 531, 1319
3812, 330, 1292, 424, 1359
3813, 945, 579, 145, 1362
3814, 250, 311, 388, 1411
3815, 1208, 1339, 1278, 1387
3816, 769, 854, 902, 1437
3817, 479, 551, 608, 1450
3818, 368, 367, 421, 1365
3819, 524, 527, 614, 1354
3820, 529, 622, 1342, 1428
3821, 1075, 1354, 1279, 1401
3822, 1176, 1294, 1314, 1431
3823, 957, 974, 1003, 1324
3824, 834, 74, 833, 1277
3825, 451, 1347, 444, 1409
3826, 1209, 1392, 1182, 1421
3827, 96, 771, 704, 1331
3828, 500, 497, 513, 1327
3829, 437, 432, 451, 1347
3830, 238, 419, 397, 1448
3831, 993, 1291, 991, 1444
3832, 252, 379, 427, 1425
3833, 1114, 940, 41, 364
3834, 443, 445, 438, 1243
3835, 1216, 1353, 1304, 1424
3836, 263, 407, 262, 1350
3837, 296, 295, 297, 1284
3838, 439, 444, 432, 1347
3839, 473, 578, 577, 1362
3840, 482, 601, 633, 1253
3841, 729, 392, 801, 1418
3842, 388, 312, 344, 1332
3843, 676, 1317, 677, 1400
3844, 920, 43, 1012, 1441
3845, 484, 596, 726, 174
3846, 1105, 1104, 1051, 1426
3847, 223, 795, 92, 420
3848, 388, 1332, 344, 1371
3849, 450, 382, 433, 1282
3850, 442, 617, 111, 429
3851, 697, 885, 862, 1436
3852, 1002, 978, 933, 1195
3853, 1137, 1261, 1241, 1346
3854, 427, 379, 309, 1377
3855, 538, 537, 536, 1278
3856, 1002, 966, 978, 1195
3857, 945, 145, 1059, 1362
3858, 1130, 1284, 1435, 1444
3859, 764, 766, 702, 1442
3860, 1401, 1435, 1171, 1444
3861, 219, 914, 50, 1364
3862, 682, 675, 676, 1307
3863, 780, 781, 705, 1342
3864, 444, 446, 436, 1409
3865, 854, 769, 722, 1323
3866, 371, 329, 330, 1292
3867, 705, 622, 200, 1342
3868, 972, 16, 226, 1345
3869, 776, 1294, 775, 1431
3870, 1171, 1279, 1235, 1446
3871, 654, 652, 570, 1239
3872, 839, 837, 838, 1306
3873, 784, 727, 829, 1266
3874, 950, 910, 951, 1242
3875, 1092, 160, 949, 1348
3876, 600, 487, 182, 1346
3877, 306, 307, 305, 1377
3878, 322, 328, 285, 1313
3879, 395, 234, 422, 1267
3880, 1171, 1435, 1284, 1444
3881, 817, 815, 874, 1269
3882, 622, 530, 475, 1342
3883, 795, 709, 92, 420
3884, 860, 859, 1207, 1436
3885, 422, 234, 34, 1047
3886, 494, 160, 639, 1348
3887, 746, 745, 744, 1296
3888, 574, 572, 1260, 1445
3889, 1070, 1071, 971, 1259
3890, 272, 406, 256, 1237
3891, 901, 786, 765, 1328
3892, 1057, 667, 138, 1426
3893, 558, 664, 610, 1443
3894, 302, 1378, 304, 1385
3895, 610, 538, 536, 1443
3896, 869, 833, 814, 1425
3897, 96, 704, 238, 1331
3898, 1052, 1048, 1082, 1325
3899, 499, 498, 497, 1299
3900, 920, 372, 43, 1441
3901, 787, 1227, 782, 1328
3902, 1054, 1063, 1062, 1285
3903, 205, 699, 793, 1355
3904, 882, 276, 401, 1282
3905, 576, 572, 577, 1408
3906, 567, 625, 661, 1437
3907, 868, 797, 799, 1337
3908, 791, 722, 767, 1165
3909, 684, 680, 677, 1348
3910, 786, 765, 1328, 1351
3911, 816, 1329, 813, 1433
3912, 359, 415, 1333, 1430
3913, 1010, 1290, 1008, 1405
3914, 185, 845, 479, 1450
3915, 1288, 1295, 1139, 1345
3916, 1053, 1054, 1062, 1374
3917, 685, 672, 686, 1436
3918, 818, 398, 78, 1411
3919, 605, 141, 944, 1373
3920, 1085, 1034, 1263, 1336
3921, 642, 1317, 616, 1327
3922, 934, 1112, 997, 1375
3923, 450, 401, 382, 1282
3924, 260, 262, 261, 1350
3925, 743, 740, 757, 1326
3926, 1003, 957, 1324, 1376
3927, 574, 572, 576, 1260
3928, 894, 839, 840, 1306
3929, 440, 861, 450, 1282
3930, 532, 1305, 503, 1394
3931, 434, 440, 433, 1282
3932, 1048, 1050, 1049, 1370
3933, 791, 767, 755, 1165
3934, 16, 377, 226, 1345
3935, 1047, 34, 422, 924
3936, 309, 310, 1268, 1275
3937, 415, 412, 359, 1333
3938, 499, 497, 500, 1299
3939, 869, 1277, 833, 1425
3940, 1263, 1336, 1132, 1369
3941, 839, 838, 840, 1306
3942, 446, 442, 429, 1360
3943, 516, 1231, 476, 1442
3944, 224, 291, 319, 1440
3945, 285, 381, 323, 1258
3946, 935, 999, 125, 1255
3947, 347, 89, 903, 253
3948, 758, 886, 858, 1407
3949, 802, 182, 849, 1346
3950, 1065, 464, 123, 1318
3951, 354, 336, 412, 1333
3952, 558, 665, 664, 1247
3953, 1104, 1105, 941, 1426
3954, 927, 1088, 1021, 1430
3955, 579, 473, 145, 1362
3956, 603, 466, 588, 1245
3957, 315, 936, 23, 1090
3958, 487, 849, 182, 1346
3959, 870, 88, 811, 246
3960, 897, 823, 718, 1411
3961, 995, 996, 1040, 1349
3962, 729, 903, 89, 253
3963, 813, 904, 814, 1329
3964, 451, 444, 436, 1409
3965, 999, 465, 125, 1255
3966, 859, 760, 860, 1207
3967, 633, 546, 575, 1264
3968, 702, 790, 764, 1442
3969, 382, 1282, 383, 1320
3970, 974, 932, 1226, 1440
3971, 908, 1071, 1070, 1265
3972, 473, 1059, 145, 1362
3973, 1138, 1293, 1244, 1356
3974, 530, 622, 525, 1280
3975, 275, 263, 260, 1270
3976, 875, 1269, 823, 1413
3977, 40, 1081, 1022, 356
3978, 921, 36, 1061, 394
3979, 803, 806, 805, 1393
3980, 1133, 1377, 1251, 1378
3981, 35, 1061, 394, 339
3982, 1008, 1007, 920, 1441
3983, 1014, 1016, 1017, 1244
3984, 868, 729, 801, 1418
3985, 756, 754, 755, 1302
3986, 1164, 1378, 1277, 1447
3987, 628, 549, 139, 942
3988, 907, 1069, 1068, 1347
3989, 205, 515, 699, 1355
3990, 726, 774, 788, 1176
3991, 264, 417, 239, 1415
3992, 801, 392, 370, 1418
3993, 1107, 926, 1028, 1322
3994, 624, 565, 663, 1312
3995, 925, 581, 132, 1356
3996, 598, 880, 175, 1431
3997, 1150, 1382, 1333, 1429
3998, 791, 662, 460, 170
3999, 1059, 1027, 1083, 1362
4000, 1091, 127, 937, 585
4001, 886, 1282, 861, 1410
4002, 191, 847, 580, 1367
4003, 1075, 992, 1354, 1401
4004, 672, 682, 693, 1436
4005, 1102, 1009, 1010, 1290
4006, 1235, 1388, 1171, 1446
4007, 561, 123, 464, 1318
4008, 1007, 1008, 1009, 1290
4009, 451, 436, 435, 1409
4010, 936, 998, 993, 1171
4011, 869, 828, 834, 1277
4012, 974, 957, 1254, 1324
4013, 19, 319, 932, 1440
4014, 598, 175, 484, 1431
4015, 1092, 1073, 690, 1348
4016, 565, 624, 483, 1303
4017, 516, 1250, 503, 1305
4018, 703, 789, 768, 1249
4019, 818, 78, 718, 1411
4020, 974, 957, 958, 1254
4021, 398, 250, 78, 1411
4022, 202, 476, 790, 1442
4023, 1085, 1028, 1034, 1369
4024, 516, 504, 503, 1250
4025, 828, 906, 826, 1339
4026, 861, 1282, 440, 1410
4027, 484, 597, 669, 1431
4028, 888, 751, 752, 1273
4029, 450, 882, 401, 1282
4030, 434, 452, 440, 1410
4031, 468, 1019, 132, 1356
4032, 687, 683, 695, 1259
4033, 795, 93, 707, 390
4034, 904, 816, 872, 1329
4035, 1285, 1333, 1150, 1430
4036, 615, 675, 692, 1307
4037, 1019, 925, 132, 1356
4038, 852, 851, 877, 1397
4039, 1134, 1340, 1257, 1391
4040, 326, 424, 330, 1292
4041, 1079, 1010, 1008, 1405
4042, 304, 379, 1277, 1378
4043, 544, 547, 542, 1316
4044, 265, 220, 316, 1257
4045, 909, 965, 1005, 1257
4046, 605, 462, 141, 1373
4047, 468, 132, 581, 1356
4048, 471, 548, 654, 1426
4049, 999, 985, 937, 1192
4050, 394, 921, 36, 227
4051, 333, 336, 373, 1252
4052, 696, 1243, 858, 1410
4053, 1085, 1034, 929, 1263
4054, 591, 630, 603, 1314
4055, 721, 765, 763, 1223
4056, 941, 1057, 138, 1426
4057, 667, 471, 138, 1426
4058, 1228, 1370, 1145, 1426
4059, 271, 269, 270, 1295
4060, 820, 819, 733, 1253
4061, 680, 690, 1073, 1348
4062, 415, 354, 412, 1333
4063, 321, 1268, 711, 1425
4064, 882, 737, 276, 1282
4065, 307, 308, 309, 1275
4066, 804, 809, 803, 1241
4067, 1034, 1033, 1108, 1336
4068, 388, 344, 342, 1371
4069, 1164, 1339, 1387, 1447
4070, 246, 870, 87, 357
4071, 778, 724, 1303, 1437
4072, 250, 718, 78, 1411
4073, 663, 1312, 611, 1399
4074, 1019, 1078, 1016, 1356
4075, 876, 804, 849, 1346
4076, 581, 631, 582, 1356
4077, 948, 1097, 1072, 1432
4078, 792, 763, 746, 1223
4079, 949, 160, 494, 1348
4080, 944, 141, 1030, 1373
4081, 891, 799, 798, 1337
4082, 404, 257, 385, 1432
4083, 235, 1081, 39, 356
4084, 448, 638, 617, 1300
4085, 640, 881, 514, 1307
4086, 881, 692, 862, 1307
4087, 439, 1068, 448, 1300
4088, 191, 580, 480, 1367
4089, 962, 960, 961, 1384
4090, 94, 707, 390, 327
4091, 350, 413, 351, 1334
4092, 1284, 1156, 1375, 1444
4093, 936, 22, 998, 228
4094, 305, 230, 306, 1251
4095, 851, 843, 842, 1256
4096, 628, 140, 1030, 942
4097, 519, 522, 455, 1357
4098, 435, 434, 430, 1320
4099, 372, 366, 237, 1441
4100, 799, 797, 798, 1337
4101, 1141, 1305, 1296, 1394
4102, 616, 453, 615, 1317
4103, 754, 698, 794, 1415
4104, 640, 615, 692, 1307
4105, 292, 293, 294, 1422
4106, 462, 1030, 141, 1373
4107, 380, 378, 97, 703
4108, 812, 76, 247, 1268
4109, 1388, 1435, 1171, 1446
4110, 677, 676, 673, 1317
4111, 816, 904, 813, 1329
4112, 323, 325, 324, 1297
4113, 694, 687, 678, 1400
4114, 609, 479, 608, 1450
4115, 294, 293, 295, 1422
4116, 204, 793, 700, 1394
4117, 93, 795, 223, 390
4118, 1035, 1033, 1031, 1272
4119, 999, 937, 126, 465
4120, 586, 663, 611, 1399
4121, 542, 545, 543, 1344
4122, 970, 638, 1094, 1300
4123, 252, 1277, 379, 1425
4124, 634, 575, 1264, 1445
4125, 513, 642, 616, 1327
4126, 301, 303, 302, 1311
4127, 1087, 1015, 1021, 1366
4128, 820, 821, 822, 1413
4129, 1027, 1024, 1115, 1246
4130, 551, 602, 608, 1283
4131, 932, 1064, 19, 1440
4132, 556, 554, 648, 1389
4133, 345, 343, 410, 1286
4134, 669, 630, 591, 1314
4135, 358, 298, 249, 1227
4136, 614, 527, 621, 1354
4137, 476, 202, 613, 1442
4138, 705, 855, 199, 529
4139, 317, 934, 21, 1375
4140, 321, 247, 76, 1268
4141, 815, 816, 813, 1433
4142, 1324, 1392, 1209, 1421
4143, 439, 442, 444, 1300
4144, 317, 21, 228, 1375
4145, 1070, 971, 1095, 1259
4146, 1082, 1048, 1047, 1267
4147, 284, 381, 1258, 1331
4148, 964, 966, 930, 1330
4149, 1257, 1341, 1134, 1414
4150, 309, 1268, 321, 1425
4151, 658, 510, 521, 1298
4152, 371, 369, 366, 1315
4153, 663, 597, 624, 1399
4154, 983, 989, 981, 1335
4155, 191, 480, 712, 1367
4156, 792, 746, 720, 1179
4157, 862, 692, 682, 1307
4158, 829, 785, 784, 1266
4159, 240, 703, 378, 1249
4160, 893, 843, 892, 1450
4161, 1068, 1094, 448, 1300
4162, 354, 352, 353, 1382
4163, 722, 854, 662, 171
4164, 1028, 1026, 1027, 1369
4165, 191, 712, 847, 1367
4166, 684, 620, 690, 1348
4167, 243, 69, 787, 358
4168, 786, 780, 766, 1289
4169, 471, 632, 548, 1426
4170, 514, 616, 615, 1307
4171, 984, 985, 983, 1335
4172, 778, 774, 1248, 1303
4173, 721, 763, 792, 1223
4174, 1055, 38, 359, 1430
4175, 251, 333, 363, 1361
4176, 280, 1249, 282, 1276
4177, 240, 314, 99, 698
4178, 700, 203, 532, 476
4179, 431, 452, 445, 1410
4180, 232, 362, 403, 1263
4181, 138, 471, 941, 1426
4182, 286, 289, 287, 1281
4183, 724, 173, 788, 1303
4184, 842, 850, 710, 1361
4185, 18, 1003, 932, 225
4186, 555, 553, 604, 1261
4187, 712, 817, 875, 1367
4188, 542, 547, 545, 1344
4189, 392, 91, 801, 370
4190, 343, 345, 341, 1286
4191, 1002, 933, 122, 490
4192, 292, 294, 426, 1422
4193, 377, 931, 17, 1376
4194, 240, 98, 378, 703
4195, 858, 696, 857, 1243
4196, 551, 552, 556, 1389
4197, 955, 957, 931, 1376
4198, 447, 441, 385, 1432
4199, 1172, 1435, 1388, 1446
4200, 738, 514, 881, 1307
4201, 681, 695, 683, 1259
4202, 639, 690, 620, 1348
4203, 219, 288, 281, 1364
4204, 449, 116, 443, 857
4205, 265, 1340, 266, 1391
4206, 685, 691, 216, 859
4207, 612, 930, 121, 1330
4208, 1045, 1080, 1044, 1251
4209, 788, 173, 596, 1303
4210, 914, 979, 1000, 1364
4211, 676, 677, 678, 1400
4212, 886, 696, 858, 1410
4213, 986, 988, 987, 1304
4214, 786, 766, 765, 1351
4215, 886, 737, 861, 1282
4216, 1047, 1048, 924, 1267
4217, 741, 740, 742, 1310
4218, 129, 587, 939, 1368
4219, 1209, 1403, 1305, 1421
4220, 927, 1081, 39, 235
4221, 993, 998, 1375, 1444
4222, 870, 716, 87, 357
4223, 65, 792, 720, 360
4224, 574, 573, 572, 1445
4225, 724, 483, 1303, 1437
4226, 439, 1068, 108, 448
4227, 330, 329, 326, 1292
4228, 1281, 1324, 1139, 1376
4229, 562, 564, 566, 1271
4230, 992, 993, 991, 1401
4231, 520, 521, 510, 1298
4232, 615, 161, 692, 675
4233, 382, 433, 57, 450
4234, 311, 250, 398, 1411
4235, 367, 366, 369, 1315
4236, 611, 565, 563, 1312
4237, 1002, 490, 121, 1330
4238, 970, 495, 638, 1300
4239, 822, 898, 824, 1262
4240, 833, 1277, 252, 1425
4241, 536, 537, 535, 1278
4242, 671, 687, 694, 1265
4243, 792, 66, 721, 360
4244, 1001, 913, 975, 1319
4245, 349, 350, 348, 1334
4246, 441, 385, 60, 447
4247, 462, 628, 140, 1030
4248, 164, 684, 620, 690
4249, 997, 993, 1375, 1444
4250, 1072, 447, 1093, 1432
4251, 385, 400, 447, 1432
4252, 467, 587, 129, 1368
4253, 1049, 1050, 1051, 1370
4254, 708, 195, 461, 1412
4255, 582, 631, 668, 1293
4256, 992, 1066, 1075, 1354
4257, 931, 1110, 955, 1345
4258, 951, 954, 968, 1321
4259, 96, 380, 771, 1331
4260, 812, 813, 711, 1268
4261, 634, 575, 546, 1264
4262, 465, 611, 569, 1255
4263, 359, 38, 235, 1430
4264, 997, 1291, 993, 1444
4265, 540, 195, 825, 1412
4266, 501, 474, 503, 1394
4267, 263, 275, 383, 1270
4268, 548, 547, 544, 1316
4269, 863, 775, 777, 1294
4270, 769, 902, 778, 1417
4271, 845, 893, 892, 1450
4272, 988, 1011, 987, 1353
4273, 801, 729, 90, 392
4274, 1068, 1069, 970, 1300
4275, 1072, 437, 447, 1432
4276, 529, 525, 622, 1428
4277, 920, 1012, 1008, 1441
4278, 681, 399, 12, 384
4279, 517, 455, 531, 1319
4280, 794, 100, 239, 1415
4281, 74, 376, 252, 1277
4282, 793, 699, 741, 1355
4283, 966, 1341, 965, 1414
4284, 952, 956, 955, 1392
4285, 907, 1097, 1069, 1347
4286, 927, 235, 38, 1430
4287, 447, 385, 60, 400
4288, 620, 639, 164, 690
4289, 771, 772, 704, 1331
4290, 1084, 1031, 1030, 1373
4291, 13, 1095, 971, 399
4292, 1094, 970, 117, 638
4293, 258, 384, 399, 1259
4294, 467, 129, 1043, 1368
4295, 276, 401, 104, 882
4296, 881, 208, 640, 514
4297, 495, 643, 617, 1300
4298, 400, 56, 1093, 1432
4299, 593, 592, 589, 1309
4300, 863, 856, 773, 1448
4301, 995, 994, 996, 1279
4302, 719, 791, 584, 169
4303, 978, 1274, 980, 1318
4304, 985, 1255, 989, 1335
4305, 885, 738, 862, 1307
4306, 257, 948, 56, 1432
4307, 1075, 1279, 994, 1401
4308, 857, 759, 858, 1243
4309, 265, 264, 266, 1340
4310, 1038, 1040, 1076, 1349
4311, 1093, 56, 948, 1432
4312, 400, 257, 56, 1432
4313, 28, 1023, 318, 1439
4314, 377, 270, 226, 1345
4315, 1094, 108, 1068, 448
4316, 884, 216, 691, 859
4317, 116, 449, 883, 857
4318, 401, 382, 57, 450
4319, 640, 161, 692, 615
4320, 782, 1289, 786, 1328
4321, 826, 827, 828, 1339
4322, 726, 596, 788, 174
4323, 665, 578, 664, 1247
4324, 487, 600, 553, 1346
4325, 314, 100, 698, 1415
4326, 324, 325, 326, 1297
4327, 231, 922, 28, 1439
4328, 997, 976, 977, 1291
4329, 383, 382, 276, 1282
4330, 908, 1096, 1071, 1265
4331, 689, 399, 12, 681
4332, 561, 464, 562, 1318
4333, 261, 264, 265, 1340
4334, 1007, 1011, 1077, 1353
4335, 663, 565, 611, 1312
4336, 763, 747, 746, 1296
4337, 474, 205, 793, 1355
4338, 1003, 225, 17, 1376
4339, 405, 384, 258, 1259
4340, 1059, 1083, 945, 1362
4341, 620, 642, 494, 1348
4342, 253, 421, 392, 1418
4343, 342, 344, 343, 1371
4344, 74, 834, 376, 1277
4345, 681, 683, 689, 1259
4346, 638, 112, 448, 617
4347, 1008, 1010, 1009, 1290
4348, 976, 1064, 932, 1440
4349, 993, 997, 991, 1291
4350, 707, 856, 863, 1448
4351, 613, 518, 476, 1442
4352, 380, 96, 238, 1331
4353, 825, 195, 708, 1412
4354, 461, 195, 540, 1412
4355, 358, 428, 296, 1227
4356, 1029, 1085, 929, 1263
4357, 402, 61, 884, 278
4358, 228, 295, 317, 1375
4359, 1139, 1392, 1324, 1421
4360, 874, 823, 1269, 1411
4361, 225, 286, 377, 1376
4362, 28, 922, 1023, 1439
4363, 217, 382, 383, 1320
4364, 392, 729, 90, 253
4365, 495, 117, 970, 638
4366, 399, 971, 13, 258
4367, 849, 804, 802, 1346
4368, 583, 606, 593, 1386
4369, 337, 332, 334, 1383
4370, 1039, 1117, 1080, 1363
4371, 283, 281, 282, 1276
4372, 679, 688, 674, 1390
4373, 208, 881, 738, 514
4374, 882, 104, 276, 737
4375, 1154, 1442, 1351, 1449
4376, 1055, 927, 38, 1430
4377, 367, 370, 421, 1418
4378, 554, 556, 552, 1389
4379, 129, 939, 1043, 1368
4380, 619, 618, 454, 1360
4381, 989, 999, 935, 1255
4382, 706, 459, 198, 641
4383, 1092, 209, 690, 1073
4384, 1027, 1115, 1083, 1246
4385, 776, 775, 726, 1431
4386, 1093, 105, 447, 1072
4387, 816, 817, 896, 1433
4388, 640, 692, 881, 1307
4389, 1095, 212, 1070, 689
4390, 353, 352, 349, 1382
4391, 539, 636, 528, 1338
4392, 617, 442, 448, 1300
4393, 767, 722, 769, 1323
4394, 522, 519, 523, 1357
4395, 634, 573, 575, 1445
4396, 1019, 1016, 925, 1356
4397, 966, 964, 965, 1341
4398, 883, 493, 637, 165
4399, 1105, 1051, 1050, 1370
4400, 968, 954, 1071, 1321
4401, 309, 310, 247, 1268
4402, 1036, 1037, 919, 1308
4403, 192, 557, 848, 1379
4404, 694, 678, 677, 1400
4405, 1094, 638, 448, 1300
4406, 1351, 1442, 1231, 1449
4407, 402, 691, 9, 386
4408, 965, 964, 961, 1341
4409, 213, 862, 881, 692
4410, 450, 861, 113, 882
4411, 683, 1070, 212, 689
4412, 878, 807, 806, 1393
4413, 882, 861, 737, 1282
4414, 743, 757, 860, 1326
4415, 1037, 1039, 1038, 1363
4416, 311, 312, 388, 1332
4417, 429, 438, 446, 1360
4418, 467, 589, 587, 1368
4419, 304, 303, 305, 1378
4420, 788, 778, 724, 1303
4421, 377, 1345, 931, 1376
4422, 680, 690, 209, 1073
4423, 474, 515, 205, 1355
4424, 1072, 105, 447, 437
4425, 351, 348, 350, 1334
4426, 979, 981, 980, 1274
4427, 845, 730, 893, 1450
4428, 231, 28, 318, 1439
4429, 16, 931, 377, 1345
4430, 252, 376, 379, 1277
4431, 875, 823, 821, 1413
4432, 711, 75, 321, 1425
4433, 949, 1073, 1092, 1348
4434, 769, 767, 1323, 1417
4435, 618, 109, 438, 449
4436, 597, 663, 586, 1399
4437, 915, 983, 982, 1313
4438, 776, 728, 800, 1419
4439, 109, 618, 637, 449
4440, 478, 607, 647, 1308
4441, 624, 596, 483, 1303
4442, 462, 605, 634, 1373
4443, 967, 966, 965, 1414
4444, 690, 639, 1092, 1348
4445, 16, 972, 931, 1345
4446, 712, 1367, 480, 1379
4447, 335, 332, 337, 1383
4448, 501, 502, 498, 1403
4449, 386, 218, 387, 1390
4450, 659, 518, 613, 1442
4451, 247, 321, 309, 1268
4452, 525, 523, 530, 1280
4453, 696, 886, 861, 1410
4454, 712, 480, 192, 1379
4455, 976, 1112, 1064, 1440
4456, 302, 303, 304, 1378
4457, 540, 536, 461, 1412
4458, 450, 433, 440, 1282
4459, 682, 862, 213, 692
4460, 440, 861, 113, 450
4461, 672, 693, 686, 1436
4462, 386, 691, 9, 679
4463, 793, 474, 1355, 1394
4464, 787, 786, 723, 1328
4465, 860, 697, 859, 1436
4466, 791, 722, 662, 170
4467, 397, 327, 325, 1448
4468, 367, 368, 365, 1365
4469, 490, 520, 612, 1330
4470, 998, 228, 21, 1375
4471, 1305, 1403, 1141, 1421
4472, 516, 517, 504, 1250
4473, 875, 817, 823, 1269
4474, 975, 974, 958, 1254
4475, 749, 758, 752, 1407
4476, 600, 182, 181, 802
4477, 180, 481, 181, 715
4478, 710, 84, 85, 363
4479, 44, 43, 920, 372
4480, 223, 391, 330, 1359
4481, 249, 71, 725, 879
4482, 708, 461, 195, 196
4483, 123, 561, 933, 1318
4484, 331, 83, 82, 714
4485, 155, 1001, 531, 154
4486, 50, 51, 288, 1000
4487, 83, 84, 850, 251
4488, 609, 186, 185, 730
4489, 52, 53, 316, 1005
4490, 157, 1004, 533, 156
4491, 204, 474, 793, 1394
4492, 755, 754, 753, 1302
4493, 321, 76, 75, 711
4494, 833, 869, 834, 1277
4495, 976, 974, 975, 1254
4496, 877, 810, 852, 1397
4497, 156, 911, 457, 155
4498, 51, 52, 220, 909
4499, 1065, 124, 123, 464
4500, 629, 606, 666, 1386
4501, 195, 540, 825, 194
4502, 175, 880, 726, 1431
4503, 1066, 917, 1075, 1354
4504, 1086, 1028, 926, 1322
4505, 518, 517, 516, 1250
4506, 20, 19, 1064, 224
4507, 480, 557, 192, 1379
4508, 264, 239, 266, 1415
4509, 852, 810, 876, 1397
4510, 700, 532, 204, 1394
4511, 53, 54, 221, 912
4512, 157, 458, 910, 158
4513, 152, 916, 456, 151
4514, 526, 524, 525, 1428
4515, 175, 726, 484, 1431
4516, 780, 705, 779, 1342
4517, 160, 949, 494, 159
4518, 55, 56, 257, 948
4519, 1075, 994, 992, 1401
4520, 154, 913, 455, 153
4521, 265, 266, 267, 1391
4522, 70, 725, 787, 358
4523, 49, 50, 219, 914
4524, 145, 473, 144, 1059
4525, 483, 724, 172, 1437
4526, 674, 688, 695, 1390
4527, 231, 318, 308, 1439
4528, 622, 705, 199, 529
4529, 1062, 1063, 1088, 1285
4530, 846, 187, 541, 186
4531, 700, 793, 745, 1394
4532, 1065, 123, 933, 1318
4533, 48, 49, 328, 982
4534, 432, 444, 451, 1347
4535, 189, 190, 733, 482
4536, 550, 184, 183, 732
4537, 967, 978, 966, 1414
4538, 702, 201, 202, 613
4539, 643, 619, 454, 1360
4540, 943, 136, 135, 470
4541, 231, 27, 28, 922
4542, 479, 185, 184, 845
4543, 322, 47, 48, 915
4544, 578, 473, 579, 1362
4545, 21, 20, 934, 317
4546, 935, 125, 124, 569
4547, 409, 343, 344, 1371
4548, 223, 330, 424, 1359
4549, 282, 280, 240, 1249
4550, 187, 188, 731, 488
4551, 134, 133, 1013, 469
4552, 38, 37, 1055, 359
4553, 844, 85, 86, 248
4554, 998, 934, 997, 1375
4555, 153, 990, 522, 152
4556, 1065, 933, 980, 1318
4557, 304, 1277, 376, 1385
4558, 635, 539, 528, 1338
4559, 146, 147, 478, 1036
4560, 607, 147, 148, 919
4561, 817, 816, 815, 1433
4562, 874, 718, 823, 1411
4563, 73, 834, 727, 1385
4564, 318, 28, 29, 1023
4565, 362, 30, 31, 929
4566, 605, 141, 142, 944
4567, 777, 775, 776, 1294
4568, 1030, 1031, 944, 1373
4569, 616, 642, 453, 1317
4570, 1058, 1086, 926, 1322
4571, 358, 70, 725, 249
4572, 45, 44, 1006, 254
4573, 290, 291, 292, 1372
4574, 233, 31, 32, 1046
4575, 486, 179, 178, 717
4576, 39, 38, 927, 235
4577, 853, 67, 68, 361
4578, 282, 240, 378, 1249
4579, 716, 86, 87, 357
4580, 493, 883, 759, 165
4581, 217, 383, 404, 1320
4582, 998, 21, 934, 1375
4583, 1040, 996, 1076, 1349
4584, 760, 884, 61, 278
4585, 1051, 1054, 1053, 1374
4586, 769, 768, 767, 1417
4587, 1078, 1010, 1018, 1405
4588, 925, 133, 132, 581
4589, 1039, 1037, 1117, 1363
4590, 374, 82, 81, 836
4591, 143, 144, 571, 926
4592, 874, 823, 817, 1269
4593, 1074, 988, 986, 1304
4594, 193, 734, 489, 194
4595, 848, 712, 192, 1379
4596, 75, 833, 252, 1425
4597, 825, 708, 826, 1412
4598, 487, 183, 182, 849
4599, 43, 42, 1012, 237
4600, 472, 142, 143, 1058
4601, 557, 192, 848, 193
4602, 81, 80, 245, 713
4603, 1019, 132, 131, 468
4604, 71, 249, 320, 879
4605, 138, 137, 941, 471
4606, 922, 1024, 1023, 1439
4607, 280, 267, 266, 1391
4608, 148, 149, 477, 1041
4609, 786, 787, 782, 1328
4610, 875, 847, 712, 1367
4611, 928, 131, 130, 594
4612, 712, 191, 192, 480
4613, 581, 582, 468, 1356
4614, 24, 25, 313, 938
4615, 382, 401, 276, 1282
4616, 284, 381, 285, 1258
4617, 218, 405, 387, 1390
4618, 129, 128, 939, 587
4619, 485, 177, 176, 728
4620, 918, 46, 45, 375
4621, 989, 985, 999, 1255
4622, 1021, 1020, 1116, 1366
4623, 617, 112, 448, 442
4624, 529, 855, 198, 641
4625, 230, 25, 26, 1045
4626, 172, 724, 483, 173
4627, 46, 47, 222, 1067
4628, 1002, 930, 966, 1330
4629, 1068, 108, 107, 439
4630, 159, 950, 496, 158
4631, 54, 55, 259, 959
4632, 973, 120, 119, 463
4633, 151, 1066, 614, 150
4634, 1002, 121, 930, 1330
4635, 16, 15, 972, 226
4636, 675, 615, 161, 162
4637, 433, 57, 58, 382
4638, 200, 201, 779, 475
4639, 1060, 135, 134, 595
4640, 1056, 137, 136, 570
4641, 68, 69, 723, 243
4642, 1018, 1010, 1079, 1405
4643, 1085, 1026, 1028, 1369
4644, 63, 64, 761, 277
4645, 974, 976, 932, 1440
4646, 190, 191, 847, 580
4647, 462, 140, 141, 1030
4648, 1075, 996, 994, 1279
4649, 495, 617, 638, 1300
4650, 778, 788, 774, 1303
4651, 75, 252, 321, 1425
4652, 516, 476, 518, 1442
4653, 75, 74, 252, 833
4654, 738, 881, 862, 1307
4655, 92, 93, 795, 223
4656, 854, 172, 724, 1437
4657, 957, 955, 956, 1392
4658, 250, 79, 78, 718
4659, 300, 301, 302, 1311
4660, 641, 526, 529, 1428
4661, 667, 632, 471, 1426
4662, 279, 102, 101, 701
4663, 205, 206, 699, 515
4664, 534, 830, 197, 196
4665, 306, 26, 27, 1044
4666, 583, 666, 606, 1386
4667, 37, 36, 921, 227
4668, 1003, 17, 931, 1376
4669, 380, 238, 381, 1331
4670, 559, 180, 179, 808
4671, 557, 480, 627, 1379
4672, 503, 502, 501, 1403
4673, 355, 32, 33, 923
4674, 711, 833, 75, 1425
4675, 682, 692, 675, 1307
4676, 211, 683, 1070, 212
4677, 729, 89, 90, 253
4678, 199, 200, 705, 622
4679, 885, 697, 860, 1436
4680, 216, 685, 859, 215
4681, 1003, 931, 957, 1376
4682, 189, 819, 188, 601
4683, 500, 513, 616, 1327
4684, 443, 116, 115, 857
4685, 234, 33, 34, 1047
4686, 806, 807, 805, 1393
4687, 1093, 447, 400, 1432
4688, 1054, 1051, 1104, 1374
4689, 752, 758, 858, 1407
4690, 747, 745, 746, 1296
4691, 379, 307, 309, 1377
4692, 580, 656, 480, 1367
4693, 110, 109, 438, 618
4694, 167, 762, 491, 168
4695, 726, 880, 776, 1431
4696, 1043, 130, 129, 467
4697, 673, 453, 162, 163
4698, 217, 59, 58, 430
4699, 42, 41, 940, 364
4700, 727, 834, 890, 1385
4701, 1088, 927, 1055, 1430
4702, 774, 772, 778, 1248
4703, 386, 9, 10, 679
4704, 834, 376, 1277, 1385
4705, 599, 178, 177, 832
4706, 997, 993, 998, 1375
4707, 96, 95, 238, 704
4708, 532, 503, 474, 1394
4709, 941, 1105, 1057, 1426
4710, 494, 639, 620, 1348
4711, 314, 239, 100, 1415
4712, 626, 538, 664, 1443
4713, 684, 690, 680, 1348
4714, 425, 290, 292, 1372
4715, 431, 440, 452, 1410
4716, 1043, 939, 1100, 1368
4717, 711, 814, 833, 1425
4718, 579, 145, 146, 945
4719, 621, 149, 150, 917
4720, 209, 680, 1073, 210
4721, 447, 437, 441, 1432
4722, 106, 105, 1072, 437
4723, 309, 308, 310, 1275
4724, 991, 997, 977, 1291
4725, 1020, 1021, 1015, 1366
4726, 514, 615, 640, 1307
4727, 365, 368, 396, 1365
4728, 232, 29, 30, 1029
4729, 669, 598, 484, 1431
4730, 538, 610, 664, 1443
4731, 1093, 948, 1072, 1432
4732, 385, 257, 400, 1432
4733, 682, 862, 214, 213
4734, 861, 113, 114, 440
4735, 483, 172, 661, 1437
4736, 340, 80, 79, 835
4737, 854, 661, 172, 1437
4738, 992, 994, 993, 1401
4739, 718, 874, 818, 1411
4740, 971, 14, 13, 258
4741, 118, 117, 970, 495
4742, 36, 35, 1061, 394
4743, 207, 208, 738, 514
4744, 104, 103, 276, 737
4745, 304, 379, 376, 1277
4746, 448, 442, 439, 1300
4747, 765, 764, 763, 1351
4748, 822, 823, 897, 1413
4749, 907, 107, 106, 432
4750, 431, 115, 114, 696
4751, 697, 215, 672, 214
4752, 235, 415, 359, 1430
4753, 712, 848, 896, 1379
4754, 385, 60, 59, 441
4755, 163, 684, 620, 164
4756, 73, 727, 244, 1385
4757, 1094, 1068, 970, 1300
4758, 449, 637, 6, 883
4759, 946, 119, 118, 505
4760, 947, 15, 14, 268
4761, 297, 299, 298, 1388
4762, 198, 199, 855, 529
4763, 665, 576, 577, 1408
4764, 448, 1094, 5, 638
4765, 399, 2, 1095, 689
4766, 692, 881, 8, 640
4767, 4, 401, 450, 882
4768, 1, 884, 691, 402
4769, 3, 447, 400, 1093
4770, 639, 7, 690, 1092
4771, 782, 780, 786, 1289
4772, 206, 207, 739, 492
4773, 255, 103, 102, 748
4774, 822, 821, 823, 1413
4775, 381, 284, 380, 1331
4776, 140, 628, 139, 942
4777, 988, 1077, 1011, 1353
4778, 870, 87, 88, 246
4779, 73, 376, 834, 1385
4780, 321, 252, 427, 1425
4781, 889, 800, 728, 1419
4782, 40, 39, 1081, 356
4783, 933, 978, 980, 1318
4784, 778, 770, 769, 1417
4785, 998, 22, 21, 228
4786, 766, 764, 765, 1351
4787, 280, 282, 281, 1276
4788, 474, 204, 532, 1394
4789, 979, 980, 978, 1274
4790, 12, 11, 681, 384
4791, 936, 23, 22, 315
4792, 218, 10, 11, 674
4793, 392, 421, 370, 1418
4794, 724, 902, 854, 1437
4795, 239, 101, 100, 794
4796, 204, 205, 793, 474
4797, 575, 573, 574, 1445
4798, 244, 302, 304, 1385
4799, 91, 92, 709, 420
4800, 34, 35, 422, 924
4801, 930, 121, 120, 612
4802, 931, 17, 16, 377
4803, 999, 126, 125, 465
4804, 1057, 139, 138, 667
4805, 627, 576, 665, 1408
4806, 707, 93, 94, 390
4807, 937, 127, 126, 585
4808, 380, 97, 96, 771
4809, 376, 244, 304, 1385
4810, 314, 100, 99, 698
4811, 203, 204, 700, 532
4812, 239, 314, 266, 1415
4813, 1003, 18, 17, 225
4814, 1002, 122, 121, 490
4815, 210, 908, 211, 671
4816, 247, 77, 76, 812
4817, 933, 123, 122, 561
4818, 240, 99, 98, 789
4819, 202, 203, 790, 476
4820, 19, 18, 932, 319
4821, 706, 459, 197, 198
4822, 901, 723, 786, 1328
4823, 378, 98, 97, 703
4824, 90, 91, 801, 392
4825, 575, 574, 655, 1445
4826, 64, 65, 720, 242
4827, 474, 660, 515, 1355
4828, 41, 40, 1114, 236
4829, 931, 972, 1110, 1345
4830, 62, 63, 736, 256
4831, 173, 788, 596, 174
4832, 625, 483, 661, 1437
4833, 792, 65, 66, 360
4834, 166, 735, 512, 167
4835, 88, 89, 903, 347
4836, 111, 112, 617, 442
4837, 721, 66, 67, 241
4838, 525, 529, 526, 1428
4839, 1091, 128, 127, 466
4840, 169, 791, 460, 170
4841, 229, 23, 24, 1090
4842, 379, 305, 307, 1377
4843, 61, 62, 760, 278
4844, 165, 759, 493, 166
4845, 376, 74, 73, 834
4846, 161, 692, 8, 640
4847, 57, 4, 401, 450
4848, 1094, 5, 108, 448
4849, 449, 6, 116, 883
4850, 884, 216, 1, 691
4851, 174, 726, 484, 175
4852, 244, 73, 72, 727
4853, 168, 719, 584, 169
4854, 398, 78, 77, 818
4855, 769, 770, 768, 1417
4856, 661, 854, 172, 171
4857, 399, 12, 2, 689
4858, 164, 639, 7, 690
4859, 447, 60, 3, 400
4860, 397, 419, 327, 1448
4861, 598, 176, 175, 880
4862, 94, 95, 856, 419
4863, 110, 111, 454, 429
4864, 2, 212, 1095, 689
4865, 448, 5, 112, 638
4866, 637, 6, 883, 165
4867, 985, 989, 983, 1335
4868, 56, 3, 400, 1093
4869, 639, 7, 1092, 160
4870, 4, 104, 401, 882
4871, 881, 208, 8, 640
4872, 1, 61, 884, 402
4873, 1094, 117, 5, 638
4874, 13, 2, 1095, 399
4875, 637, 6, 109, 449
4876, 298, 299, 300, 1388
4877, 209, 690, 7, 1092
4878, 447, 3, 105, 1093
4879, 213, 881, 8, 692
4880, 450, 113, 4, 882
4881, 69, 70, 787, 358
4882, 691, 9, 1, 402
4883, 73, 244, 376, 1385
4884, 70, 71, 725, 249
4885, 72, 71, 320, 879
4886, 170, 722, 662, 171
4887, 1356, 594, 583, 468
4888, 1356, 583, 594, 1218
4889, 1356, 469, 631, 1206
4890, 1356, 631, 469, 581
4891, 1346, 550, 552, 487
4892, 1346, 552, 550, 1225
4893, 1412, 734, 831, 825
4894, 1412, 831, 734, 1158
4895, 1368, 1146, 1009, 1290
4896, 1011, 1009, 1146, 1290
4897, 1294, 773, 1176, 1157
4898, 1294, 1176, 773, 775
4899, 1214, 1089, 1114, 1185
4900, 1214, 1114, 1089, 1022
4901, 1342, 855, 781, 705
4902, 1342, 781, 855, 1230
4903, 1309, 1159, 1233, 1146
4904, 1309, 1233, 1159, 1204
4905, 1282, 748, 758, 737
4906, 1282, 758, 748, 1232
4907, 1368, 1011, 1009, 1146
4908, 1368, 1009, 1011, 1100
4909, 1286, 245, 346, 341
4910, 1286, 346, 245, 1174
4911, 1215, 905, 870, 1169
4912, 1215, 870, 905, 811
4913, 1232, 750, 1273, 749
4914, 1232, 1273, 750, 1178
4915, 1322, 1362, 1107, 926
4916, 1107, 1362, 1322, 1152
4917, 1376, 319, 289, 1226
4918, 1376, 289, 319, 225
4919, 1264, 543, 1344, 1177
4920, 1264, 1344, 543, 546
4921, 1295, 286, 1345, 270
4922, 1295, 1345, 286, 1139
4923, 1221, 1307, 757, 1148
4924, 1300, 511, 1236, 495
4925, 1300, 1236, 511, 1153
4926, 1101, 1349, 938, 1040
4927, 938, 1349, 1101, 1167
4928, 1251, 1025, 1117, 1080
4929, 1251, 1117, 1025, 1198
4930, 1393, 729, 1215, 878
4931, 1393, 1215, 729, 1163
4932, 1318, 1127, 1160, 1271
4933, 1318, 1160, 1127, 1274
4934, 1381, 1332, 1269, 1132
4935, 1381, 1269, 1332, 1188
4936, 1361, 248, 373, 363
4937, 1361, 373, 248, 1205
4938, 609, 1238, 544, 541
4939, 544, 1238, 609, 1187
4940, 1390, 687, 1259, 1135
4941, 1390, 1259, 687, 695
4942, 1266, 783, 1229, 785
4943, 1266, 1229, 783, 1172
4944, 783, 1227, 1230, 782
4945, 1230, 1227, 783, 1172
4946, 1407, 1282, 886, 1136
4947, 1407, 886, 1282, 758
4948, 1422, 1289, 1227, 1328
4949, 1422, 1227, 1289, 1130
4950, 1357, 916, 991, 1220
4951, 1357, 991, 916, 990
4952, 1428, 855, 1342, 529
4953, 1428, 1342, 855, 1230
4954, 982, 1364, 981, 914
4955, 981, 1364, 982, 1183
4956, 1344, 670, 546, 1161
4957, 1344, 546, 670, 545
4958, 1364, 328, 283, 219
4959, 1364, 283, 328, 1183
4960, 1373, 670, 628, 1161
4961, 1373, 628, 670, 462
4962, 1323, 662, 854, 567
4963, 1323, 854, 662, 722
4964, 1065, 1160, 980, 1113
4965, 980, 1160, 1065, 1318
4966, 1435, 1280, 1230, 1130
4967, 1435, 1230, 1280, 1428
4968, 1382, 350, 414, 352
4969, 1382, 414, 350, 1334
4970, 1279, 936, 1235, 995
4971, 1279, 1235, 936, 1171
4972, 1290, 1102, 1368, 1218
4973, 1290, 1368, 1102, 1009
4974, 1417, 1437, 778, 1149
4975, 778, 1437, 1417, 902
4976, 1229, 1428, 528, 526
4977, 1229, 528, 1428, 1144
4978, 527, 528, 1428, 526
4979, 527, 1428, 528, 1144
4980, 1248, 1312, 1399, 1131
4981, 1399, 1312, 1248, 1303
4982, 1399, 1176, 1248, 1131
4983, 1248, 1176, 1399, 1303
4984, 1355, 499, 1403, 660
4985, 1355, 1403, 499, 1299
4986, 892, 1256, 1450, 843
4987, 1450, 1256, 892, 1225
4988, 1103, 1285, 1190, 1063
4989, 1190, 1285, 1103, 1239
4990, 1396, 1383, 1427, 1140
4991, 1396, 1427, 1383, 1191
4992, 1397, 732, 1346, 876
4993, 1397, 1346, 732, 1225
4994, 1341, 1005, 1202, 961
4995, 1341, 1202, 1005, 1257
4996, 734, 1412, 489, 540
4997, 734, 489, 1412, 1158
4998, 610, 489, 1412, 540
4999, 610, 1412, 489, 1158
5000, 1417, 703, 1184, 770
5001, 1417, 1184, 703, 1249
5002, 1329, 1275, 1188, 1128
5003, 1329, 1188, 1275, 1268
5004, 923, 234, 33, 355
5005, 923, 33, 234, 1047
5006, 1408, 1367, 1379, 576
5007, 1408, 1379, 1367, 1142
5008, 1325, 1106, 1161, 1052
5009, 1325, 1161, 1106, 1228
5010, 942, 1161, 1106, 1052
5011, 942, 1106, 1161, 1228
5012, 1146, 1245, 939, 1353
5013, 939, 1245, 1146, 1368
5014, 939, 1011, 1146, 1353
5015, 1146, 1011, 939, 1368
5016, 388, 1173, 1371, 342
5017, 1371, 1173, 388, 1332
5018, 1273, 735, 752, 888
5019, 1273, 752, 735, 1197
5020, 1338, 459, 1208, 1229
5021, 1338, 1208, 459, 635
5022, 765, 1328, 853, 901
5023, 853, 1328, 765, 1151
5024, 1032, 1322, 1336, 1086
5025, 1336, 1322, 1032, 1175
5026, 435, 1347, 437, 451
5027, 437, 1347, 435, 1166
5028, 847, 1367, 482, 580
5029, 847, 482, 1367, 1168
5030, 655, 482, 1367, 580
5031, 655, 1367, 482, 1168
5032, 650, 1431, 1419, 598
5033, 1419, 1431, 650, 1233
5034, 660, 1403, 1394, 501
5035, 1394, 1403, 660, 1355
5036, 1394, 474, 660, 501
5037, 660, 474, 1394, 1355
5038, 1052, 1161, 1272, 1084
5039, 1272, 1161, 1052, 1325
5040, 1272, 1035, 1052, 1084
5041, 1052, 1035, 1272, 1325
5042, 222, 915, 47, 322
5043, 47, 915, 222, 1067
5044, 1326, 742, 740, 1310
5045, 1326, 740, 742, 743
5046, 895, 1395, 1177, 841
5047, 1177, 1395, 895, 1238
5048, 315, 1090, 1235, 936
5049, 1235, 1090, 315, 229
5050, 1321, 953, 1098, 1288
5051, 1321, 1098, 953, 954
5052, 344, 1263, 1332, 403
5053, 344, 1332, 1263, 1371
5054, 1367, 1445, 655, 574
5055, 655, 1445, 1367, 1168
5056, 275, 1320, 1166, 404
5057, 1166, 1320, 275, 1270
5058, 671, 1073, 1265, 680
5059, 671, 1265, 1073, 908
5060, 1091, 587, 1245, 939
5061, 1245, 587, 1091, 466
5062, 1340, 417, 1415, 1178
5063, 1340, 1415, 417, 264
5064, 938, 229, 24, 1090
5065, 938, 24, 229, 313
5066, 1420, 1323, 1271, 1165
5067, 1420, 1271, 1323, 1127
5068, 1071, 1321, 947, 1212
5069, 1071, 947, 1321, 954
5070, 1098, 947, 1321, 1212
5071, 1098, 1321, 947, 954
5072, 1008, 1405, 1210, 1079
5073, 1210, 1405, 1008, 1290
5074, 1408, 578, 1362, 577
5075, 1408, 1362, 578, 1247
5076, 276, 748, 1282, 737
5077, 1282, 748, 276, 255
5078, 739, 514, 1307, 492
5079, 1307, 514, 739, 738
5080, 1307, 1221, 739, 492
5081, 598, 728, 176, 880
5082, 176, 728, 598, 485
5083, 1417, 767, 1249, 768
5084, 1417, 1249, 767, 1323
5085, 1196, 1249, 767, 768
5086, 1196, 767, 1249, 1323
5087, 432, 1072, 1347, 437
5088, 432, 1347, 1072, 907
5089, 1450, 550, 551, 1225
5090, 1450, 551, 550, 479
5091, 709, 1418, 797, 801
5092, 797, 1418, 709, 1219
5093, 1175, 1445, 1373, 1264
5094, 1175, 1373, 1445, 573
5095, 634, 1373, 1445, 1264
5096, 634, 1445, 1373, 573
5097, 946, 495, 118, 970
5098, 118, 495, 946, 505
5099, 258, 947, 14, 268
5100, 258, 14, 947, 971
5101, 1376, 932, 1324, 1003
5102, 1376, 1324, 932, 1226
5103, 791, 623, 662, 722
5104, 791, 662, 623, 460
5105, 1358, 1323, 1271, 1127
5106, 1358, 1271, 1323, 1149
5107, 373, 1333, 336, 354
5108, 336, 1333, 373, 1252
5109, 1433, 872, 1379, 816
5110, 1433, 1379, 872, 1217
5111, 848, 1379, 872, 816
5112, 848, 872, 1379, 1217
5113, 264, 1350, 261, 262
5114, 261, 1350, 264, 1340
5115, 1422, 296, 295, 294
5116, 1422, 295, 296, 1284
5117, 1299, 1423, 1221, 1119
5118, 1221, 1423, 1299, 1327
5119, 443, 696, 1243, 857
5120, 1243, 696, 443, 431
5121, 932, 225, 1376, 319
5122, 1376, 225, 932, 1003
5123, 682, 697, 214, 862
5124, 682, 214, 697, 672
5125, 1349, 1446, 1222, 1123
5126, 1222, 1446, 1349, 1279
5127, 247, 818, 77, 812
5128, 77, 818, 247, 398
5129, 1413, 1411, 897, 1173
5130, 1413, 897, 1411, 823
5131, 1387, 1278, 1308, 1133
5132, 1308, 1278, 1387, 1193
5133, 1308, 1363, 1387, 1133
5134, 1387, 1363, 1308, 1193
5135, 612, 1330, 973, 930
5136, 612, 973, 1330, 1180
5137, 1111, 973, 1330, 930
5138, 1111, 1330, 973, 1180
5139, 936, 228, 1171, 315
5140, 1171, 228, 936, 998
5141, 429, 617, 1360, 442
5142, 429, 1360, 617, 454
5143, 240, 698, 1196, 314
5144, 1196, 698, 240, 789
5145, 476, 700, 1231, 532
5146, 476, 1231, 700, 790
5147, 200, 1342, 475, 779
5148, 475, 1342, 200, 622
5149, 249, 879, 1172, 320
5150, 1172, 879, 249, 725
5151, 320, 727, 72, 879
5152, 72, 727, 320, 244
5153, 1378, 379, 305, 304
5154, 1378, 305, 379, 1377
5155, 739, 1307, 757, 1221
5156, 757, 1307, 739, 738

*NSET, NSET=CONSTRAINT_1
1, 2, 7, 8, 9, 10, 11, 12, 161, 162, 163, 164, 209, 210, 211, 212
213, 214, 215, 216, 671, 672, 673, 674, 675, 676, 677, 678, 679, 680, 681, 682
683, 684, 685, 686, 687, 688, 689, 690, 691, 692, 693, 694, 695

*NSET, NSET=CONSTRAINT_2
3, 4, 5, 6, 57, 58, 59, 60, 105, 106, 107, 108, 109, 110, 111, 112
113, 114, 115, 116, 429, 430, 431, 432, 433, 434, 435, 436, 437, 438, 439, 440
441, 442, 443, 444, 445, 446, 447, 448, 449, 450, 451, 452

*NSET, NSET=DLOAD_1
2, 3, 5, 7, 13, 14, 15, 16, 17, 18, 19, 20, 21, 22, 23, 24
25, 26, 27, 28, 29, 30, 31, 32, 33, 34, 35, 36, 37, 38, 39, 40
41, 42, 43, 44, 45, 46, 47, 48, 49, 50, 51, 52, 53, 54, 55, 56
105, 106, 107, 108, 117, 118, 119, 120, 121, 122, 123, 124, 125, 126, 127, 128
129, 130, 131, 132, 133, 134, 135, 136, 137, 138, 139, 140, 141, 142, 143, 144
145, 146, 147, 148, 149, 150, 151, 152, 153, 154, 155, 156, 157, 158, 159, 160
209, 210, 211, 212, 907, 908, 909, 910, 911, 912, 913, 914, 915, 916, 917, 918
919, 920, 921, 922, 923, 924, 925, 926, 927, 928, 929, 930, 931, 932, 933, 934
935, 936, 937, 938, 939, 940, 941, 942, 943, 944, 945, 946, 947, 948, 949, 950
951, 952, 953, 954, 955, 956, 957, 958, 959, 960, 961, 962, 963, 964, 965, 966
967, 968, 969, 970, 971, 972, 973, 974, 975, 976, 977, 978, 979, 980, 981, 982
983, 984, 985, 986, 987, 988, 989, 990, 991, 992, 993, 994, 995, 996, 997, 998
999, 1000, 1001, 1002, 1003, 1004, 1005, 1006, 1007, 1008, 1009, 1010, 1011, 1012, 1013, 1014
1015, 1016, 1017, 1018, 1019, 1020, 1021, 1022, 1023, 1024, 1025, 1026, 1027, 1028, 1029, 1030
1031, 1032, 1033, 1034, 1035, 1036, 1037, 1038, 1039, 1040, 1041, 1042, 1043, 1044, 1045, 1046
1047, 1048, 1049, 1050, 1051, 1052, 1053, 1054, 1055, 1056, 1057, 1058, 1059, 1060, 1061, 1062
1063, 1064, 1065, 1066, 1067, 1068, 1069, 1070, 1071, 1072, 1073, 1074, 1075, 1076, 1077, 1078
1079, 1080, 1081, 1082, 1083, 1084, 1085, 1086, 1087, 1088, 1089, 1090, 1091, 1092, 1093, 1094
1095, 1096, 1097, 1098, 1099, 1100, 1101, 1102, 1103, 1104, 1105, 1106, 1107, 1108, 1109, 1110
1111, 1112, 1113, 1114, 1115, 1116, 1117

*MATERIAL, NAME=STRUCTURAL_STEEL
*ELASTIC
200000.000000, 0.300000

*SOLID SECTION, ELSET=ALL_ELEMENTS, MATERIAL=STRUCTURAL_STEEL

*BOUNDARY
CONSTRAINT_1, 1, 3

*BOUNDARY
CONSTRAINT_2, 1, 3

*STEP, NLGEOM=NO
*STATIC
0.1, 1.0

*CLOAD
DLOAD_1, 3, -10000.000000

*NODE FILE
U, RF
*EL FILE
S, E

*END STEP
