*HEADING
Portal frame STEP geometry with split base constraints: left base fully fixed, right base is a lateral roller (x free, y+z fixed). Lateral wind pressure applied to front face. Sliding base allows horizontal thermal expansion while resisting uplift.

*NODE, NSET=ALL_NODES
1, 0.000000, 0.000000, 0.000000
2, 0.000000, 0.000000, 100.000000
3, 66.666702, 0.000000, 100.000000
4, 66.666702, 0.000000, 0.000000
5, 66.666702, 6.666700, 100.000000
6, 66.666702, 6.666700, 0.000000
7, 0.000000, 6.666700, 100.000000
8, 0.000000, 6.666700, 0.000000
9, 0.000000, 0.000000, 2.222222
10, 0.000000, 0.000000, 4.444445
11, 0.000000, 0.000000, 6.666667
12, 0.000000, 0.000000, 8.888889
13, 0.000000, 0.000000, 11.111111
14, 0.000000, 0.000000, 13.333333
15, 0.000000, 0.000000, 15.555555
16, 0.000000, 0.000000, 17.777779
17, 0.000000, 0.000000, 20.000000
18, 0.000000, 0.000000, 22.222221
19, 0.000000, 0.000000, 24.444445
20, 0.000000, 0.000000, 26.666666
21, 0.000000, 0.000000, 28.888889
22, 0.000000, 0.000000, 31.111111
23, 0.000000, 0.000000, 33.333332
24, 0.000000, 0.000000, 35.555557
25, 0.000000, 0.000000, 37.777779
26, 0.000000, 0.000000, 40.000000
27, 0.000000, 0.000000, 42.222221
28, 0.000000, 0.000000, 44.444443
29, 0.000000, 0.000000, 46.666668
30, 0.000000, 0.000000, 48.888889
31, 0.000000, 0.000000, 51.111111
32, 0.000000, 0.000000, 53.333332
33, 0.000000, 0.000000, 55.555557
34, 0.000000, 0.000000, 57.777779
35, 0.000000, 0.000000, 60.000000
36, 0.000000, 0.000000, 62.222221
37, 0.000000, 0.000000, 64.444443
38, 0.000000, 0.000000, 66.666664
39, 0.000000, 0.000000, 68.888885
40, 0.000000, 0.000000, 71.111115
41, 0.000000, 0.000000, 73.333336
42, 0.000000, 0.000000, 75.555557
43, 0.000000, 0.000000, 77.777779
44, 0.000000, 0.000000, 80.000000
45, 0.000000, 0.000000, 82.222221
46, 0.000000, 0.000000, 84.444443
47, 0.000000, 0.000000, 86.666664
48, 0.000000, 0.000000, 88.888885
49, 0.000000, 0.000000, 91.111115
50, 0.000000, 0.000000, 93.333336
51, 0.000000, 0.000000, 95.555557
52, 0.000000, 0.000000, 97.777779
53, 2.222223, 0.000000, 100.000000
54, 4.444447, 0.000000, 100.000000
55, 6.666670, 0.000000, 100.000000
56, 8.888893, 0.000000, 100.000000
57, 11.111116, 0.000000, 100.000000
58, 13.333340, 0.000000, 100.000000
59, 15.555563, 0.000000, 100.000000
60, 17.777786, 0.000000, 100.000000
61, 20.000010, 0.000000, 100.000000
62, 22.222233, 0.000000, 100.000000
63, 24.444456, 0.000000, 100.000000
64, 26.666679, 0.000000, 100.000000
65, 28.888903, 0.000000, 100.000000
66, 31.111126, 0.000000, 100.000000
67, 33.333351, 0.000000, 100.000000
68, 35.555573, 0.000000, 100.000000
69, 37.777798, 0.000000, 100.000000
70, 40.000019, 0.000000, 100.000000
71, 42.222244, 0.000000, 100.000000
72, 44.444466, 0.000000, 100.000000
73, 46.666691, 0.000000, 100.000000
74, 48.888912, 0.000000, 100.000000
75, 51.111137, 0.000000, 100.000000
76, 53.333359, 0.000000, 100.000000
77, 55.555584, 0.000000, 100.000000
78, 57.777805, 0.000000, 100.000000
79, 60.000031, 0.000000, 100.000000
80, 62.222252, 0.000000, 100.000000
81, 64.444473, 0.000000, 100.000000
82, 66.666702, 0.000000, 2.222222
83, 66.666702, 0.000000, 4.444445
84, 66.666702, 0.000000, 6.666667
85, 66.666702, 0.000000, 8.888889
86, 66.666702, 0.000000, 11.111111
87, 66.666702, 0.000000, 13.333333
88, 66.666702, 0.000000, 15.555555
89, 66.666702, 0.000000, 17.777779
90, 66.666702, 0.000000, 20.000000
91, 66.666702, 0.000000, 22.222221
92, 66.666702, 0.000000, 24.444445
93, 66.666702, 0.000000, 26.666666
94, 66.666702, 0.000000, 28.888889
95, 66.666702, 0.000000, 31.111111
96, 66.666702, 0.000000, 33.333332
97, 66.666702, 0.000000, 35.555557
98, 66.666702, 0.000000, 37.777779
99, 66.666702, 0.000000, 40.000000
100, 66.666702, 0.000000, 42.222221
101, 66.666702, 0.000000, 44.444443
102, 66.666702, 0.000000, 46.666668
103, 66.666702, 0.000000, 48.888889
104, 66.666702, 0.000000, 51.111111
105, 66.666702, 0.000000, 53.333332
106, 66.666702, 0.000000, 55.555557
107, 66.666702, 0.000000, 57.777779
108, 66.666702, 0.000000, 60.000000
109, 66.666702, 0.000000, 62.222221
110, 66.666702, 0.000000, 64.444443
111, 66.666702, 0.000000, 66.666664
112, 66.666702, 0.000000, 68.888885
113, 66.666702, 0.000000, 71.111115
114, 66.666702, 0.000000, 73.333336
115, 66.666702, 0.000000, 75.555557
116, 66.666702, 0.000000, 77.777779
117, 66.666702, 0.000000, 80.000000
118, 66.666702, 0.000000, 82.222221
119, 66.666702, 0.000000, 84.444443
120, 66.666702, 0.000000, 86.666664
121, 66.666702, 0.000000, 88.888885
122, 66.666702, 0.000000, 91.111115
123, 66.666702, 0.000000, 93.333336
124, 66.666702, 0.000000, 95.555557
125, 66.666702, 0.000000, 97.777779
126, 2.222223, 0.000000, 0.000000
127, 4.444447, 0.000000, 0.000000
128, 6.666670, 0.000000, 0.000000
129, 8.888893, 0.000000, 0.000000
130, 11.111116, 0.000000, 0.000000
131, 13.333340, 0.000000, 0.000000
132, 15.555563, 0.000000, 0.000000
133, 17.777786, 0.000000, 0.000000
134, 20.000010, 0.000000, 0.000000
135, 22.222233, 0.000000, 0.000000
136, 24.444456, 0.000000, 0.000000
137, 26.666679, 0.000000, 0.000000
138, 28.888903, 0.000000, 0.000000
139, 31.111126, 0.000000, 0.000000
140, 33.333351, 0.000000, 0.000000
141, 35.555573, 0.000000, 0.000000
142, 37.777798, 0.000000, 0.000000
143, 40.000019, 0.000000, 0.000000
144, 42.222244, 0.000000, 0.000000
145, 44.444466, 0.000000, 0.000000
146, 46.666691, 0.000000, 0.000000
147, 48.888912, 0.000000, 0.000000
148, 51.111137, 0.000000, 0.000000
149, 53.333359, 0.000000, 0.000000
150, 55.555584, 0.000000, 0.000000
151, 57.777805, 0.000000, 0.000000
152, 60.000031, 0.000000, 0.000000
153, 62.222252, 0.000000, 0.000000
154, 64.444473, 0.000000, 0.000000
155, 66.666702, 2.222233, 100.000000
156, 66.666702, 4.444467, 100.000000
157, 66.666702, 6.666700, 2.222222
158, 66.666702, 6.666700, 4.444445
159, 66.666702, 6.666700, 6.666667
160, 66.666702, 6.666700, 8.888889
161, 66.666702, 6.666700, 11.111111
162, 66.666702, 6.666700, 13.333333
163, 66.666702, 6.666700, 15.555555
164, 66.666702, 6.666700, 17.777779
165, 66.666702, 6.666700, 20.000000
166, 66.666702, 6.666700, 22.222221
167, 66.666702, 6.666700, 24.444445
168, 66.666702, 6.666700, 26.666666
169, 66.666702, 6.666700, 28.888889
170, 66.666702, 6.666700, 31.111111
171, 66.666702, 6.666700, 33.333332
172, 66.666702, 6.666700, 35.555557
173, 66.666702, 6.666700, 37.777779
174, 66.666702, 6.666700, 40.000000
175, 66.666702, 6.666700, 42.222221
176, 66.666702, 6.666700, 44.444443
177, 66.666702, 6.666700, 46.666668
178, 66.666702, 6.666700, 48.888889
179, 66.666702, 6.666700, 51.111111
180, 66.666702, 6.666700, 53.333332
181, 66.666702, 6.666700, 55.555557
182, 66.666702, 6.666700, 57.777779
183, 66.666702, 6.666700, 60.000000
184, 66.666702, 6.666700, 62.222221
185, 66.666702, 6.666700, 64.444443
186, 66.666702, 6.666700, 66.666664
187, 66.666702, 6.666700, 68.888885
188, 66.666702, 6.666700, 71.111115
189, 66.666702, 6.666700, 73.333336
190, 66.666702, 6.666700, 75.555557
191, 66.666702, 6.666700, 77.777779
192, 66.666702, 6.666700, 80.000000
193, 66.666702, 6.666700, 82.222221
194, 66.666702, 6.666700, 84.444443
195, 66.666702, 6.666700, 86.666664
196, 66.666702, 6.666700, 88.888885
197, 66.666702, 6.666700, 91.111115
198, 66.666702, 6.666700, 93.333336
199, 66.666702, 6.666700, 95.555557
200, 66.666702, 6.666700, 97.777779
201, 66.666702, 2.222233, 0.000000
202, 66.666702, 4.444467, 0.000000
203, 64.444473, 6.666700, 100.000000
204, 62.222252, 6.666700, 100.000000
205, 60.000031, 6.666700, 100.000000
206, 57.777805, 6.666700, 100.000000
207, 55.555584, 6.666700, 100.000000
208, 53.333359, 6.666700, 100.000000
209, 51.111137, 6.666700, 100.000000
210, 48.888912, 6.666700, 100.000000
211, 46.666691, 6.666700, 100.000000
212, 44.444466, 6.666700, 100.000000
213, 42.222244, 6.666700, 100.000000
214, 40.000019, 6.666700, 100.000000
215, 37.777798, 6.666700, 100.000000
216, 35.555573, 6.666700, 100.000000
217, 33.333351, 6.666700, 100.000000
218, 31.111126, 6.666700, 100.000000
219, 28.888903, 6.666700, 100.000000
220, 26.666679, 6.666700, 100.000000
221, 24.444456, 6.666700, 100.000000
222, 22.222233, 6.666700, 100.000000
223, 20.000010, 6.666700, 100.000000
224, 17.777786, 6.666700, 100.000000
225, 15.555563, 6.666700, 100.000000
226, 13.333340, 6.666700, 100.000000
227, 11.111116, 6.666700, 100.000000
228, 8.888893, 6.666700, 100.000000
229, 6.666670, 6.666700, 100.000000
230, 4.444447, 6.666700, 100.000000
231, 2.222223, 6.666700, 100.000000
232, 0.000000, 6.666700, 2.222222
233, 0.000000, 6.666700, 4.444445
234, 0.000000, 6.666700, 6.666667
235, 0.000000, 6.666700, 8.888889
236, 0.000000, 6.666700, 11.111111
237, 0.000000, 6.666700, 13.333333
238, 0.000000, 6.666700, 15.555555
239, 0.000000, 6.666700, 17.777779
240, 0.000000, 6.666700, 20.000000
241, 0.000000, 6.666700, 22.222221
242, 0.000000, 6.666700, 24.444445
243, 0.000000, 6.666700, 26.666666
244, 0.000000, 6.666700, 28.888889
245, 0.000000, 6.666700, 31.111111
246, 0.000000, 6.666700, 33.333332
247, 0.000000, 6.666700, 35.555557
248, 0.000000, 6.666700, 37.777779
249, 0.000000, 6.666700, 40.000000
250, 0.000000, 6.666700, 42.222221
251, 0.000000, 6.666700, 44.444443
252, 0.000000, 6.666700, 46.666668
253, 0.000000, 6.666700, 48.888889
254, 0.000000, 6.666700, 51.111111
255, 0.000000, 6.666700, 53.333332
256, 0.000000, 6.666700, 55.555557
257, 0.000000, 6.666700, 57.777779
258, 0.000000, 6.666700, 60.000000
259, 0.000000, 6.666700, 62.222221
260, 0.000000, 6.666700, 64.444443
261, 0.000000, 6.666700, 66.666664
262, 0.000000, 6.666700, 68.888885
263, 0.000000, 6.666700, 71.111115
264, 0.000000, 6.666700, 73.333336
265, 0.000000, 6.666700, 75.555557
266, 0.000000, 6.666700, 77.777779
267, 0.000000, 6.666700, 80.000000
268, 0.000000, 6.666700, 82.222221
269, 0.000000, 6.666700, 84.444443
270, 0.000000, 6.666700, 86.666664
271, 0.000000, 6.666700, 88.888885
272, 0.000000, 6.666700, 91.111115
273, 0.000000, 6.666700, 93.333336
274, 0.000000, 6.666700, 95.555557
275, 0.000000, 6.666700, 97.777779
276, 64.444473, 6.666700, 0.000000
277, 62.222252, 6.666700, 0.000000
278, 60.000031, 6.666700, 0.000000
279, 57.777805, 6.666700, 0.000000
280, 55.555584, 6.666700, 0.000000
281, 53.333359, 6.666700, 0.000000
282, 51.111137, 6.666700, 0.000000
283, 48.888912, 6.666700, 0.000000
284, 46.666691, 6.666700, 0.000000
285, 44.444466, 6.666700, 0.000000
286, 42.222244, 6.666700, 0.000000
287, 40.000019, 6.666700, 0.000000
288, 37.777798, 6.666700, 0.000000
289, 35.555573, 6.666700, 0.000000
290, 33.333351, 6.666700, 0.000000
291, 31.111126, 6.666700, 0.000000
292, 28.888903, 6.666700, 0.000000
293, 26.666679, 6.666700, 0.000000
294, 24.444456, 6.666700, 0.000000
295, 22.222233, 6.666700, 0.000000
296, 20.000010, 6.666700, 0.000000
297, 17.777786, 6.666700, 0.000000
298, 15.555563, 6.666700, 0.000000
299, 13.333340, 6.666700, 0.000000
300, 11.111116, 6.666700, 0.000000
301, 8.888893, 6.666700, 0.000000
302, 6.666670, 6.666700, 0.000000
303, 4.444447, 6.666700, 0.000000
304, 2.222223, 6.666700, 0.000000
305, 0.000000, 4.444467, 100.000000
306, 0.000000, 2.222233, 100.000000
307, 0.000000, 4.444467, 0.000000
308, 0.000000, 2.222233, 0.000000
309, 1.961684, 0.000000, 34.487873
310, 1.940936, 0.000000, 49.995869
311, 1.765225, 0.000000, 63.217030
312, 64.680656, 0.000000, 41.147125
313, 64.742203, 0.000000, 56.666668
314, 34.444462, 0.000000, 98.075500
315, 34.444462, 0.000000, 1.924502
316, 64.621628, 0.000000, 67.867714
317, 64.555038, 0.000000, 30.321329
318, 1.949528, 0.000000, 74.406929
319, 23.333345, 0.000000, 1.924502
320, 23.333345, 0.000000, 98.075500
321, 2.120133, 0.000000, 23.172319
322, 43.333355, 0.000000, 1.924502
323, 43.333355, 0.000000, 98.075500
324, 64.544449, 0.000000, 76.797119
325, 65.152260, 0.000000, 21.066607
326, 1.924501, 0.000000, 83.333336
327, 52.222240, 0.000000, 98.075500
328, 14.444451, 0.000000, 1.924502
329, 52.226025, 0.000000, 1.909051
330, 14.444451, 0.000000, 98.075500
331, 64.742203, 0.000000, 85.555557
332, 1.924501, 0.000000, 14.444445
333, 64.742203, 0.000000, 50.000000
334, 1.986037, 0.000000, 41.147125
335, 1.765779, 0.000000, 56.627045
336, 65.081467, 0.000000, 14.573632
337, 1.983018, 0.000000, 89.867302
338, 58.888912, 0.000000, 98.075493
339, 58.883621, 0.000000, 1.909039
340, 7.777781, 0.000000, 1.924502
341, 7.777781, 0.000000, 98.075500
342, 64.669632, 0.000000, 7.719959
343, 64.690849, 0.000000, 92.251335
344, 1.962381, 0.000000, 7.695132
345, 18.888897, 0.000000, 98.075500
346, 18.888899, 0.000000, 1.924502
347, 27.777790, 0.000000, 98.075500
348, 38.888908, 0.000000, 1.924502
349, 47.777798, 0.000000, 1.918330
350, 27.781569, 0.000000, 1.909050
351, 47.777802, 0.000000, 98.075500
352, 38.888908, 0.000000, 98.075500
353, 1.961395, 0.000000, 67.841560
354, 64.548889, 0.000000, 61.307289
355, 64.663635, 0.000000, 36.891338
356, 2.111647, 0.000000, 30.321329
357, 2.113774, 0.000000, 45.817070
358, 64.552917, 0.000000, 45.817070
359, 64.742203, 0.000000, 72.222221
360, 64.547737, 0.000000, 80.932495
361, 2.121016, 0.000000, 19.036987
362, 1.773297, 0.000000, 79.028381
363, 64.674927, 0.000000, 25.641447
364, 1.991770, 0.000000, 94.637169
365, 63.247421, 0.000000, 1.874882
366, 63.247414, 0.000000, 98.125114
367, 3.333335, 0.000000, 1.924502
368, 3.342751, 0.000000, 98.118286
369, 5.557128, 0.000000, 98.082626
370, 6.666932, 0.000000, 96.152184
371, 8.888937, 0.000000, 96.151192
372, 7.777833, 0.000000, 94.226723
373, 10.000005, 0.000000, 94.226494
374, 8.888902, 0.000000, 92.302032
375, 11.111117, 0.000000, 92.302002
376, 10.000006, 0.000000, 90.377502
377, 12.222227, 0.000000, 90.377495
378, 11.111115, 0.000000, 88.452988
379, 13.333339, 0.000000, 88.452988
380, 12.222226, 0.000000, 86.528488
381, 14.444449, 0.000000, 86.528488
382, 13.333338, 0.000000, 84.603989
383, 15.555561, 0.000000, 84.603989
384, 14.444449, 0.000000, 82.679489
385, 16.666672, 0.000000, 82.679489
386, 15.555561, 0.000000, 80.754982
387, 17.777782, 0.000000, 80.754982
388, 16.666672, 0.000000, 78.830482
389, 18.888895, 0.000000, 78.830482
390, 17.777782, 0.000000, 76.905983
391, 20.000006, 0.000000, 76.905983
392, 18.888895, 0.000000, 74.981483
393, 21.111116, 0.000000, 74.981483
394, 20.000006, 0.000000, 73.056976
395, 22.222229, 0.000000, 73.056976
396, 21.111116, 0.000000, 71.132477
397, 23.333340, 0.000000, 71.132477
398, 22.222227, 0.000000, 69.207977
399, 24.444450, 0.000000, 69.207977
400, 23.333338, 0.000000, 67.283478
401, 25.555561, 0.000000, 67.283478
402, 24.444448, 0.000000, 65.358978
403, 26.666672, 0.000000, 65.358978
404, 25.555561, 0.000000, 63.434475
405, 27.777784, 0.000000, 63.434475
406, 26.666672, 0.000000, 61.509972
407, 27.777784, 0.000000, 67.283478
408, 28.888895, 0.000000, 61.509972
409, 27.777784, 0.000000, 59.585472
410, 30.000006, 0.000000, 59.585472
411, 28.888895, 0.000000, 57.660973
412, 31.111116, 0.000000, 57.660969
413, 30.000006, 0.000000, 55.736469
414, 32.222229, 0.000000, 55.736469
415, 31.111116, 0.000000, 53.811970
416, 32.222229, 0.000000, 59.585472
417, 33.333340, 0.000000, 53.811970
418, 32.222229, 0.000000, 51.887466
419, 34.444450, 0.000000, 51.887466
420, 33.333340, 0.000000, 49.962967
421, 35.555561, 0.000000, 49.962967
422, 34.444450, 0.000000, 48.038464
423, 32.222229, 0.000000, 48.038464
424, 33.333340, 0.000000, 46.113964
425, 31.111116, 0.000000, 46.113964
426, 32.222229, 0.000000, 44.189465
427, 34.444450, 0.000000, 44.189465
428, 33.333340, 0.000000, 42.264961
429, 35.555561, 0.000000, 42.264961
430, 34.444450, 0.000000, 40.340462
431, 32.222225, 0.000000, 40.340462
432, 33.333340, 0.000000, 38.415958
433, 35.555561, 0.000000, 38.415958
434, 34.444450, 0.000000, 36.491459
435, 32.222225, 0.000000, 36.491459
436, 33.333340, 0.000000, 34.566956
437, 31.111116, 0.000000, 34.566956
438, 35.555561, 0.000000, 34.566956
439, 32.222225, 0.000000, 32.642456
440, 23.333340, 0.000000, 74.981483
441, 30.000004, 0.000000, 32.642456
442, 36.666672, 0.000000, 51.887466
443, 31.111116, 0.000000, 30.717955
444, 28.888893, 0.000000, 30.717955
445, 27.777781, 0.000000, 32.642456
446, 27.777781, 0.000000, 55.736469
447, 30.000004, 0.000000, 28.793453
448, 27.777782, 0.000000, 28.793453
449, 28.888893, 0.000000, 26.868952
450, 31.111116, 0.000000, 26.868952
451, 26.666670, 0.000000, 26.868952
452, 30.000004, 0.000000, 24.944450
453, 32.222225, 0.000000, 24.944450
454, 23.333338, 0.000000, 63.434475
455, 20.000006, 0.000000, 80.754982
456, 31.111115, 0.000000, 23.019949
457, 33.333340, 0.000000, 23.019949
458, 32.222225, 0.000000, 21.095448
459, 34.444450, 0.000000, 21.095448
460, 30.000004, 0.000000, 21.095448
461, 20.000004, 0.000000, 69.207977
462, 35.555561, 0.000000, 23.019949
463, 36.666672, 0.000000, 21.095448
464, 37.777782, 0.000000, 23.019949
465, 38.888897, 0.000000, 21.095448
466, 40.000008, 0.000000, 23.019949
467, 41.111118, 0.000000, 21.095448
468, 42.222229, 0.000000, 23.019949
469, 43.333340, 0.000000, 21.095448
470, 44.444454, 0.000000, 23.019949
471, 45.555565, 0.000000, 21.095448
472, 46.666676, 0.000000, 23.019949
473, 47.777786, 0.000000, 21.095448
474, 45.555565, 0.000000, 24.944450
475, 47.777786, 0.000000, 24.944450
476, 46.666676, 0.000000, 26.868952
477, 31.111115, 0.000000, 19.170946
478, 28.888893, 0.000000, 19.170946
479, 37.777782, 0.000000, 49.962967
480, 38.888897, 0.000000, 51.887466
481, 40.000008, 0.000000, 49.962967
482, 41.111118, 0.000000, 51.887466
483, 42.222229, 0.000000, 49.962967
484, 43.333340, 0.000000, 51.887466
485, 44.444450, 0.000000, 49.962967
486, 45.555561, 0.000000, 51.887466
487, 44.444450, 0.000000, 53.811970
488, 46.666676, 0.000000, 53.811966
489, 45.555561, 0.000000, 55.736469
490, 46.666676, 0.000000, 49.962967
491, 45.555561, 0.000000, 48.038464
492, 47.777786, 0.000000, 48.038464
493, 46.666676, 0.000000, 46.113964
494, 47.777786, 0.000000, 55.736469
495, 46.666676, 0.000000, 57.660969
496, 46.666676, 0.000000, 19.170946
497, 37.777782, 0.000000, 19.170946
498, 48.888897, 0.000000, 46.113964
499, 47.777786, 0.000000, 44.189461
500, 48.888897, 0.000000, 19.170946
501, 48.888897, 0.000000, 26.868952
502, 48.888897, 0.000000, 57.660969
503, 47.777786, 0.000000, 59.585472
504, 16.666672, 0.000000, 74.981483
505, 50.000008, 0.000000, 55.736469
506, 50.000008, 0.000000, 59.585472
507, 48.888897, 0.000000, 61.509972
508, 46.666676, 0.000000, 61.509972
509, 47.777786, 0.000000, 63.434471
510, 45.555565, 0.000000, 63.434471
511, 46.666676, 0.000000, 65.358971
512, 44.444450, 0.000000, 65.358971
513, 45.555565, 0.000000, 67.283478
514, 47.777786, 0.000000, 67.283478
515, 46.666676, 0.000000, 69.207977
516, 44.444450, 0.000000, 69.207977
517, 45.555565, 0.000000, 71.132477
518, 43.333340, 0.000000, 71.132477
519, 44.444454, 0.000000, 73.056976
520, 42.222229, 0.000000, 73.056976
521, 43.333340, 0.000000, 74.981483
522, 45.555565, 0.000000, 74.981483
523, 44.444454, 0.000000, 76.905983
524, 42.222229, 0.000000, 76.905983
525, 43.333340, 0.000000, 78.830482
526, 41.111118, 0.000000, 78.830482
527, 45.555565, 0.000000, 78.830482
528, 42.222229, 0.000000, 80.754982
529, 40.000008, 0.000000, 80.754982
530, 48.888897, 0.000000, 69.207977
531, 38.888897, 0.000000, 78.830482
532, 37.777786, 0.000000, 80.754982
533, 41.111118, 0.000000, 82.679482
534, 50.000008, 0.000000, 44.189461
535, 30.000004, 0.000000, 17.246445
536, 27.777781, 0.000000, 17.246445
537, 48.888897, 0.000000, 42.264961
538, 47.777786, 0.000000, 17.246445
539, 50.000008, 0.000000, 17.246445
540, 51.111118, 0.000000, 61.509972
541, 16.666672, 0.000000, 86.528488
542, 51.111118, 0.000000, 42.264961
543, 51.111122, 0.000000, 19.170946
544, 51.111118, 0.000000, 46.113964
545, 41.111118, 0.000000, 71.132477
546, 36.666672, 0.000000, 78.830482
547, 35.555561, 0.000000, 80.754982
548, 50.000008, 0.000000, 40.340462
549, 28.888891, 0.000000, 15.321943
550, 26.666670, 0.000000, 15.321943
551, 25.555557, 0.000000, 17.246445
552, 24.444447, 0.000000, 15.321943
553, 23.333334, 0.000000, 17.246445
554, 22.222223, 0.000000, 15.321944
555, 21.111113, 0.000000, 17.246445
556, 20.000000, 0.000000, 15.321944
557, 18.888889, 0.000000, 17.246445
558, 17.777777, 0.000000, 15.321944
559, 16.666666, 0.000000, 17.246445
560, 17.777779, 0.000000, 19.170946
561, 15.555554, 0.000000, 15.321944
562, 15.555555, 0.000000, 19.170946
563, 16.666666, 0.000000, 21.095448
564, 48.888897, 0.000000, 15.321943
565, 51.111122, 0.000000, 15.321943
566, 46.666676, 0.000000, 15.321943
567, 52.222229, 0.000000, 40.340462
568, 14.444444, 0.000000, 21.095448
569, 15.555555, 0.000000, 23.019949
570, 47.777786, 0.000000, 40.340462
571, 13.333333, 0.000000, 23.019949
572, 14.444444, 0.000000, 24.944450
573, 13.333338, 0.000000, 80.754982
574, 51.111118, 0.000000, 38.415958
575, 53.333340, 0.000000, 38.415958
576, 43.333340, 0.000000, 63.434471
577, 34.444450, 0.000000, 78.830482
578, 33.333340, 0.000000, 80.754982
579, 34.444450, 0.000000, 82.679489
580, 32.222229, 0.000000, 82.679489
581, 33.333340, 0.000000, 84.603989
582, 31.111116, 0.000000, 84.603989
583, 32.222229, 0.000000, 86.528488
584, 30.000006, 0.000000, 86.528488
585, 16.666666, 0.000000, 13.397443
586, 14.444444, 0.000000, 13.397443
587, 25.555557, 0.000000, 13.397442
588, 50.000008, 0.000000, 13.397442
589, 52.222233, 0.000000, 13.397442
590, 12.222221, 0.000000, 24.944450
591, 13.333333, 0.000000, 26.868952
592, 15.555555, 0.000000, 26.868952
593, 14.444445, 0.000000, 28.793453
594, 16.666668, 0.000000, 28.793453
595, 15.555555, 0.000000, 30.717955
596, 13.333333, 0.000000, 30.717955
597, 14.444445, 0.000000, 32.642456
598, 16.666666, 0.000000, 32.642456
599, 15.555555, 0.000000, 34.566956
600, 13.333333, 0.000000, 34.566956
601, 14.444445, 0.000000, 36.491459
602, 16.666666, 0.000000, 36.491459
603, 15.555555, 0.000000, 38.415958
604, 17.777779, 0.000000, 38.415958
605, 16.666668, 0.000000, 40.340458
606, 14.444445, 0.000000, 40.340458
607, 15.555556, 0.000000, 42.264961
608, 17.777779, 0.000000, 42.264961
609, 16.666668, 0.000000, 44.189461
610, 14.444445, 0.000000, 44.189461
611, 15.555556, 0.000000, 46.113964
612, 17.777779, 0.000000, 46.113964
613, 16.666668, 0.000000, 48.038464
614, 14.444445, 0.000000, 48.038464
615, 15.555556, 0.000000, 49.962963
616, 13.333334, 0.000000, 49.962963
617, 14.444445, 0.000000, 51.887466
618, 16.666668, 0.000000, 51.887466
619, 15.555556, 0.000000, 53.811966
620, 13.333334, 0.000000, 53.811966
621, 14.444445, 0.000000, 55.736469
622, 31.111115, 0.000000, 15.321943
623, 34.444450, 0.000000, 86.528488
624, 54.444450, 0.000000, 40.340462
625, 12.222222, 0.000000, 55.736469
626, 13.333334, 0.000000, 57.660969
627, 12.222221, 0.000000, 21.095448
628, 11.111112, 0.000000, 57.660969
629, 12.222222, 0.000000, 59.585468
630, 17.777779, 0.000000, 53.811966
631, 38.888897, 0.000000, 24.944450
632, 52.222229, 0.000000, 36.491459
633, 54.444450, 0.000000, 36.491459
634, 30.000006, 0.000000, 82.679489
635, 31.111116, 0.000000, 88.452988
636, 28.888893, 0.000000, 88.452988
637, 14.444445, 0.000000, 59.585468
638, 13.333334, 0.000000, 61.509972
639, 22.222223, 0.000000, 19.170946
640, 35.555561, 0.000000, 76.905983
641, 33.333340, 0.000000, 76.905983
642, 34.444450, 0.000000, 74.981483
643, 53.333344, 0.000000, 15.321943
644, 54.444454, 0.000000, 13.397442
645, 55.555565, 0.000000, 15.321943
646, 11.111114, 0.000000, 84.603989
647, 25.555559, 0.000000, 28.793453
648, 24.444447, 0.000000, 26.868952
649, 30.000004, 0.000000, 36.491459
650, 37.777782, 0.000000, 53.811970
651, 12.222222, 0.000000, 48.038464
652, 11.111112, 0.000000, 49.962967
653, 14.444450, 0.000000, 90.377495
654, 30.000006, 0.000000, 63.434475
655, 11.111111, 0.000000, 26.868952
656, 52.222229, 0.000000, 59.585472
657, 53.333340, 0.000000, 61.509972
658, 54.444454, 0.000000, 59.585472
659, 55.555565, 0.000000, 61.509972
660, 21.111113, 0.000000, 13.397443
661, 12.222222, 0.000000, 36.491459
662, 11.111111, 0.000000, 34.566956
663, 18.888889, 0.000000, 48.038464
664, 18.888889, 0.000000, 36.491459
665, 20.000000, 0.000000, 38.415958
666, 20.000000, 0.000000, 46.113964
667, 21.111113, 0.000000, 48.038464
668, 22.222223, 0.000000, 46.113964
669, 23.333334, 0.000000, 48.038464
670, 41.111118, 0.000000, 48.038464
671, 30.000004, 0.000000, 13.397442
672, 32.222225, 0.000000, 13.397442
673, 31.111115, 0.000000, 11.472940
674, 33.333340, 0.000000, 11.472940
675, 25.555559, 0.000000, 59.585472
676, 50.000008, 0.000000, 36.491459
677, 30.000006, 0.000000, 44.189465
678, 54.444454, 0.000000, 63.434471
679, 45.555561, 0.000000, 44.189465
680, 43.333344, 0.000000, 82.679482
681, 42.222229, 0.000000, 84.603989
682, 44.444454, 0.000000, 84.603989
683, 43.333344, 0.000000, 86.528488
684, 45.555565, 0.000000, 86.528488
685, 46.666676, 0.000000, 84.603989
686, 47.777786, 0.000000, 86.528488
687, 48.888901, 0.000000, 84.603989
688, 50.000011, 0.000000, 86.528488
689, 51.111122, 0.000000, 84.603989
690, 52.222233, 0.000000, 86.528488
691, 53.333344, 0.000000, 84.603989
692, 54.444458, 0.000000, 86.528488
693, 52.222233, 0.000000, 82.679482
694, 54.444454, 0.000000, 82.679482
695, 53.333344, 0.000000, 80.754982
696, 55.555569, 0.000000, 80.754982
697, 54.444454, 0.000000, 78.830482
698, 51.111122, 0.000000, 88.452988
699, 46.666676, 0.000000, 88.452988
700, 53.333340, 0.000000, 34.566956
701, 55.555561, 0.000000, 34.566956
702, 25.555561, 0.000000, 71.132477
703, 27.777782, 0.000000, 86.528488
704, 26.666672, 0.000000, 88.452988
705, 54.444450, 0.000000, 32.642456
706, 11.111112, 0.000000, 61.509972
707, 12.222223, 0.000000, 63.434471
708, 51.111118, 0.000000, 11.472940
709, 48.888897, 0.000000, 11.472940
710, 15.555554, 0.000000, 11.472941
711, 13.333332, 0.000000, 11.472941
712, 12.222220, 0.000000, 13.397443
713, 11.111109, 0.000000, 11.472941
714, 56.666676, 0.000000, 13.397442
715, 55.555565, 0.000000, 11.472940
716, 10.000000, 0.000000, 36.491459
717, 10.000000, 0.000000, 55.736469
718, 56.666676, 0.000000, 63.434471
719, 55.555565, 0.000000, 65.358971
720, 10.000001, 0.000000, 63.434471
721, 11.111112, 0.000000, 65.358971
722, 56.666676, 0.000000, 36.491459
723, 56.666676, 0.000000, 59.585468
724, 55.555565, 0.000000, 57.660969
725, 56.666679, 0.000000, 82.679482
726, 56.666676, 0.000000, 32.642456
727, 55.555561, 0.000000, 30.717955
728, 10.000000, 0.000000, 48.038464
729, 9.999998, 0.000000, 13.397443
730, 56.666679, 0.000000, 78.830482
731, 55.555565, 0.000000, 76.905983
732, 9.999999, 0.000000, 24.944450
733, 8.888889, 0.000000, 61.509972
734, 8.888892, 0.000000, 88.452988
735, 15.555556, 0.000000, 61.509972
736, 53.333344, 0.000000, 76.905983
737, 54.444454, 0.000000, 74.981483
738, 56.666679, 0.000000, 74.981476
739, 33.333340, 0.000000, 30.717955
740, 47.777786, 0.000000, 28.793451
741, 45.555565, 0.000000, 28.793453
742, 25.555559, 0.000000, 86.528488
743, 24.444448, 0.000000, 88.452988
744, 25.555559, 0.000000, 90.377495
745, 23.333336, 0.000000, 90.377495
746, 30.000006, 0.000000, 90.377495
747, 32.222229, 0.000000, 90.377495
748, 12.222220, 0.000000, 9.548440
749, 9.999997, 0.000000, 9.548441
750, 32.222225, 0.000000, 9.548438
751, 34.444450, 0.000000, 9.548438
752, 35.555561, 0.000000, 11.472939
753, 30.000004, 0.000000, 9.548439
754, 36.666672, 0.000000, 9.548438
755, 37.777782, 0.000000, 11.472939
756, 38.888897, 0.000000, 9.548438
757, 50.000008, 0.000000, 9.548439
758, 47.777786, 0.000000, 9.548439
759, 57.777790, 0.000000, 15.321942
760, 56.666676, 0.000000, 17.246445
761, 57.777790, 0.000000, 11.472940
762, 56.666676, 0.000000, 9.548439
763, 13.333334, 0.000000, 65.358971
764, 12.222223, 0.000000, 67.283478
765, 10.000001, 0.000000, 67.283478
766, 11.111112, 0.000000, 69.207977
767, 8.888889, 0.000000, 69.207977
768, 10.000001, 0.000000, 71.132477
769, 30.000004, 0.000000, 51.887466
770, 17.777779, 0.000000, 23.019949
771, 21.111113, 0.000000, 36.491459
772, 22.222223, 0.000000, 38.415958
773, 55.555565, 0.000000, 73.056976
774, 40.000008, 0.000000, 11.472939
775, 32.222229, 0.000000, 74.981483
776, 33.333340, 0.000000, 73.056976
777, 8.888888, 0.000000, 26.868952
778, 8.888889, 0.000000, 49.962967
779, 8.888888, 0.000000, 34.566956
780, 7.777777, 0.000000, 36.491459
781, 8.888888, 0.000000, 38.415958
782, 57.777786, 0.000000, 65.358971
783, 57.777786, 0.000000, 30.717955
784, 56.666676, 0.000000, 28.793453
785, 57.777790, 0.000000, 73.056976
786, 57.777786, 0.000000, 57.660969
787, 56.666676, 0.000000, 55.736469
788, 13.333334, 0.000000, 69.207977
789, 23.333336, 0.000000, 28.793453
790, 52.222233, 0.000000, 74.981483
791, 50.000008, 0.000000, 24.944450
792, 31.111116, 0.000000, 76.905983
793, 43.333340, 0.000000, 55.736469
794, 48.888897, 0.000000, 49.962967
795, 22.222223, 0.000000, 49.962963
796, 42.222229, 0.000000, 65.358971
797, 41.111118, 0.000000, 63.434475
798, 40.000008, 0.000000, 65.358971
799, 38.888897, 0.000000, 63.434475
800, 37.777786, 0.000000, 65.358971
801, 16.666668, 0.000000, 59.585468
802, 40.000008, 0.000000, 61.509972
803, 25.555559, 0.000000, 24.944450
804, 42.222229, 0.000000, 19.170946
805, 41.111118, 0.000000, 86.528488
806, 42.222229, 0.000000, 88.452988
807, 40.000008, 0.000000, 88.452988
808, 41.111118, 0.000000, 90.377495
809, 46.666676, 0.000000, 30.717953
810, 44.444454, 0.000000, 30.717953
811, 38.888897, 0.000000, 90.377495
812, 41.111118, 0.000000, 9.548438
813, 45.555565, 0.000000, 32.642456
814, 43.333344, 0.000000, 32.642456
815, 42.222229, 0.000000, 30.717955
816, 44.444454, 0.000000, 34.566956
817, 42.222229, 0.000000, 34.566956
818, 43.333344, 0.000000, 36.491459
819, 23.333336, 0.000000, 86.528488
820, 24.444448, 0.000000, 84.603989
821, 31.111116, 0.000000, 92.301994
822, 33.333340, 0.000000, 92.301994
823, 11.111109, 0.000000, 7.623939
824, 31.111115, 0.000000, 7.623937
825, 58.888897, 0.000000, 32.642456
826, 8.888885, 0.000000, 7.623939
827, 7.777775, 0.000000, 9.548441
828, 28.888891, 0.000000, 7.623937
829, 13.333331, 0.000000, 7.623939
830, 58.888901, 0.000000, 17.246445
831, 57.777790, 0.000000, 19.170944
832, 7.777778, 0.000000, 71.132477
833, 8.888889, 0.000000, 73.056976
834, 58.887867, 0.000000, 55.737064
835, 57.776581, 0.000000, 53.812664
836, 55.555363, 0.000000, 53.812084
837, 56.666439, 0.000000, 51.887600
838, 58.888897, 0.000000, 28.793453
839, 57.777786, 0.000000, 26.868952
840, 7.777778, 0.000000, 67.283478
841, 7.777778, 0.000000, 48.038464
842, 8.888889, 0.000000, 46.113964
843, 58.888897, 0.000000, 63.434471
844, 58.904556, 0.000000, 51.901093
845, 57.780357, 0.000000, 49.965260
846, 58.888901, 0.000000, 9.548439
847, 58.888901, 0.000000, 74.981476
848, 7.777777, 0.000000, 24.944450
849, 17.777779, 0.000000, 61.509972
850, 18.888889, 0.000000, 59.585468
851, 11.111113, 0.000000, 73.056976
852, 10.000001, 0.000000, 74.981476
853, 7.777778, 0.000000, 74.981476
854, 8.888889, 0.000000, 76.905983
855, 24.444447, 0.000000, 49.962963
856, 23.333334, 0.000000, 51.887466
857, 24.444447, 0.000000, 46.113964
858, 41.111118, 0.000000, 36.491459
859, 42.222229, 0.000000, 38.415958
860, 22.222225, 0.000000, 26.868952
861, 51.111122, 0.000000, 76.905983
862, 23.333334, 0.000000, 36.491459
863, 24.444447, 0.000000, 38.415958
864, 35.555561, 0.000000, 73.056976
865, 34.444450, 0.000000, 71.132477
866, 11.111109, 0.000000, 15.321944
867, 8.888886, 0.000000, 15.321944
868, 56.666676, 0.000000, 67.283478
869, 58.888897, 0.000000, 67.283478
870, 55.555954, 0.000000, 49.963371
871, 56.667168, 0.000000, 48.038914
872, 58.889408, 0.000000, 48.038921
873, 57.777786, 0.000000, 46.113964
874, 38.888897, 0.000000, 13.397442
875, 37.777786, 0.000000, 61.509972
876, 36.666672, 0.000000, 44.189465
877, 37.777786, 0.000000, 42.264961
878, 23.333334, 0.000000, 44.189461
879, 53.333340, 0.000000, 65.358971
880, 38.888897, 0.000000, 59.585472
881, 33.333340, 0.000000, 15.321943
882, 22.222223, 0.000000, 34.566956
883, 42.222229, 0.000000, 11.472939
884, 32.222229, 0.000000, 71.132477
885, 33.333340, 0.000000, 69.207977
886, 30.000006, 0.000000, 74.981483
887, 28.888893, 0.000000, 76.905983
888, 52.222229, 0.000000, 32.642456
889, 54.444450, 0.000000, 28.793453
890, 24.444448, 0.000000, 92.301994
891, 22.222225, 0.000000, 92.301994
892, 40.000008, 0.000000, 92.301994
893, 42.222233, 0.000000, 92.301994
894, 21.111113, 0.000000, 90.377495
895, 20.000002, 0.000000, 92.301994
896, 57.772495, 0.000000, 7.626993
897, 55.554684, 0.000000, 7.624447
898, 37.777782, 0.000000, 7.623937
899, 48.894192, 0.000000, 7.626994
900, 46.672852, 0.000000, 7.633677
901, 6.666666, 0.000000, 26.868952
902, 7.777777, 0.000000, 28.793453
903, 60.000011, 0.000000, 11.472940
904, 6.666666, 0.000000, 38.415958
905, 7.777778, 0.000000, 40.340462
906, 59.999836, 0.000000, 57.661068
907, 6.666680, 0.000000, 92.302040
908, 6.666667, 0.000000, 76.905983
909, 7.777778, 0.000000, 78.830482
910, 60.000011, 0.000000, 19.170944
911, 58.888901, 0.000000, 21.095446
912, 56.666676, 0.000000, 21.095446
913, 59.988548, 0.000000, 7.636730
914, 6.666663, 0.000000, 7.623940
915, 6.666667, 0.000000, 49.962967
916, 6.666666, 0.000000, 34.566956
917, 60.000008, 0.000000, 26.868952
918, 60.000092, 0.000000, 46.114040
919, 58.888912, 0.000000, 44.189476
920, 6.666667, 0.000000, 46.113964
921, 60.000011, 0.000000, 73.056976
922, 5.555552, 0.000000, 9.548441
923, 32.222229, 0.000000, 94.226494
924, 11.111113, 0.000000, 76.905983
925, 28.888895, 0.000000, 46.113964
926, 25.555557, 0.000000, 44.189461
927, 25.555557, 0.000000, 51.887466
928, 24.444447, 0.000000, 53.811966
929, 21.111115, 0.000000, 28.793453
930, 40.000008, 0.000000, 34.566956
931, 50.000011, 0.000000, 74.981483
932, 51.111122, 0.000000, 73.056976
933, 40.000008, 0.000000, 38.415958
934, 41.111118, 0.000000, 40.340458
935, 36.666672, 0.000000, 71.132477
936, 20.000002, 0.000000, 26.868952
937, 21.111113, 0.000000, 24.944450
938, 9.999998, 0.000000, 17.246447
939, 7.777775, 0.000000, 17.246447
940, 6.666664, 0.000000, 15.321944
941, 8.888887, 0.000000, 19.170948
942, 6.666665, 0.000000, 19.170948
943, 12.222228, 0.000000, 94.226494
944, 37.777782, 0.000000, 73.056976
945, 56.666676, 0.000000, 44.189465
946, 47.777786, 0.000000, 82.679482
947, 24.444447, 0.000000, 30.717955
948, 36.666672, 0.000000, 59.585472
949, 60.000011, 0.000000, 15.321942
950, 7.777778, 0.000000, 51.887466
951, 5.545280, 0.000000, 51.887466
952, 10.000000, 0.000000, 40.340458
953, 6.664954, 0.000000, 53.811966
954, 22.222223, 0.000000, 53.811966
955, 23.333334, 0.000000, 55.736469
956, 7.777778, 0.000000, 63.434471
957, 6.666667, 0.000000, 61.509972
958, 7.777778, 0.000000, 59.585468
959, 5.555556, 0.000000, 59.585468
960, 9.999999, 0.000000, 32.642456
961, 38.888897, 0.000000, 44.189461
962, 51.111122, 0.000000, 80.754982
963, 16.666668, 0.000000, 63.434471
964, 18.888889, 0.000000, 63.434471
965, 17.777779, 0.000000, 65.358971
966, 27.777781, 0.000000, 21.095448
967, 33.333340, 0.000000, 26.868952
968, 57.777786, 0.000000, 42.264965
969, 60.000011, 0.000000, 42.264965
970, 58.888897, 0.000000, 40.340462
971, 41.111118, 0.000000, 59.585472
972, 27.777781, 0.000000, 9.548439
973, 26.666668, 0.000000, 7.623937
974, 25.555557, 0.000000, 9.548439
975, 24.444445, 0.000000, 7.623937
976, 23.333334, 0.000000, 9.548439
977, 22.222221, 0.000000, 7.623937
978, 21.111111, 0.000000, 9.548439
979, 20.000000, 0.000000, 7.623938
980, 38.888897, 0.000000, 67.283478
981, 40.000008, 0.000000, 57.660969
982, 21.111113, 0.000000, 55.736469
983, 22.222223, 0.000000, 57.660969
984, 21.111113, 0.000000, 40.340458
985, 26.666672, 0.000000, 92.301994
986, 25.555557, 0.000000, 36.491459
987, 26.666668, 0.000000, 38.415958
988, 34.444450, 0.000000, 55.736469
989, 35.555561, 0.000000, 61.509972
990, 26.666668, 0.000000, 49.962963
991, 51.112003, 0.000000, 7.624447
992, 38.888897, 0.000000, 86.528488
993, 22.222225, 0.000000, 84.603989
994, 34.444450, 0.000000, 90.377495
995, 37.777786, 0.000000, 92.301994
996, 46.666676, 0.000000, 11.472940
997, 27.777782, 0.000000, 74.981483
998, 26.666672, 0.000000, 76.905983
999, 27.777782, 0.000000, 78.830482
1000, 25.555559, 0.000000, 78.830482
1001, 26.666672, 0.000000, 80.754982
1002, 43.333344, 0.000000, 40.340462
1003, 24.444448, 0.000000, 80.754982
1004, 45.555565, 0.000000, 36.491459
1005, 47.777786, 0.000000, 32.642456
1006, 42.222229, 0.000000, 42.264961
1007, 28.888895, 0.000000, 73.056976
1008, 50.000008, 0.000000, 28.793453
1009, 30.000006, 0.000000, 94.226494
1010, 21.111115, 0.000000, 86.528488
1011, 34.444454, 0.000000, 94.226494
1012, 18.888891, 0.000000, 90.377495
1013, 17.777781, 0.000000, 92.301994
1014, 21.111116, 0.000000, 94.226494
1015, 25.555563, 0.000000, 94.226494
1016, 41.111122, 0.000000, 94.226494
1017, 43.333344, 0.000000, 94.226494
1018, 44.444454, 0.000000, 92.301994
1019, 45.555565, 0.000000, 94.226494
1020, 46.666676, 0.000000, 92.301994
1021, 47.777790, 0.000000, 94.226494
1022, 48.888901, 0.000000, 92.301994
1023, 50.000011, 0.000000, 94.226494
1024, 51.111122, 0.000000, 92.301994
1025, 52.222237, 0.000000, 94.226494
1026, 53.333347, 0.000000, 92.301994
1027, 54.444458, 0.000000, 94.226494
1028, 55.555569, 0.000000, 92.301994
1029, 56.666679, 0.000000, 94.226494
1030, 57.777794, 0.000000, 92.301994
1031, 56.666679, 0.000000, 90.377487
1032, 58.888905, 0.000000, 90.377487
1033, 60.000015, 0.000000, 92.301994
1034, 61.125996, 0.000000, 90.377487
1035, 60.002491, 0.000000, 88.452988
1036, 56.663654, 0.000000, 5.701182
1037, 12.222219, 0.000000, 5.699438
1038, 21.111111, 0.000000, 5.699436
1039, 25.555557, 0.000000, 5.699436
1040, 30.005297, 0.000000, 5.702492
1041, 50.001656, 0.000000, 5.703600
1042, 32.228405, 0.000000, 5.715407
1043, 54.449097, 0.000000, 5.702868
1044, 18.888887, 0.000000, 5.699436
1045, 17.777777, 0.000000, 7.623938
1046, 16.666664, 0.000000, 5.699436
1047, 61.111217, 0.000000, 48.038555
1048, 61.091053, 0.000000, 55.736744
1049, 61.062881, 0.000000, 40.312611
1050, 59.991966, 0.000000, 38.411320
1051, 61.054771, 0.000000, 75.014015
1052, 59.990620, 0.000000, 76.911400
1053, 5.609522, 0.000000, 24.913294
1054, 4.129880, 0.000000, 26.793633
1055, 62.201920, 0.000000, 88.466652
1056, 61.068268, 0.000000, 86.553795
1057, 58.882172, 0.000000, 86.532707
1058, 59.991749, 0.000000, 84.608910
1059, 4.461620, 0.000000, 53.800419
1060, 20.000002, 0.000000, 65.358971
1061, 58.888897, 0.000000, 24.944452
1062, 56.666672, 0.000000, 24.944452
1063, 61.057156, 0.000000, 24.913294
1064, 48.888897, 0.000000, 73.056976
1065, 55.555573, 0.000000, 96.150993
1066, 36.666672, 0.000000, 67.283478
1067, 35.555561, 0.000000, 65.358971
1068, 58.888901, 0.000000, 71.132477
1069, 61.071663, 0.000000, 71.128914
1070, 6.675660, 0.000000, 23.014757
1071, 48.888901, 0.000000, 76.905983
1072, 7.777778, 0.000000, 44.189461
1073, 10.000000, 0.000000, 44.189461
1074, 5.600410, 0.000000, 44.215359
1075, 12.222220, 0.000000, 17.246447
1076, 5.599883, 0.000000, 55.710438
1077, 6.666664, 0.000000, 11.472942
1078, 4.480982, 0.000000, 11.451845
1079, 54.444599, 0.000000, 48.038609
1080, 53.333431, 0.000000, 49.963058
1081, 37.777786, 0.000000, 46.113964
1082, 18.888889, 0.000000, 51.887466
1083, 17.777779, 0.000000, 57.660969
1084, 31.111120, 0.000000, 96.150993
1085, 24.444447, 0.000000, 42.264961
1086, 26.666668, 0.000000, 42.264961
1087, 50.000008, 0.000000, 67.283478
1088, 51.111118, 0.000000, 69.207977
1089, 17.777777, 0.000000, 11.472941
1090, 31.111116, 0.000000, 69.207977
1091, 32.222229, 0.000000, 67.283478
1092, 43.333340, 0.000000, 9.548438
1093, 42.222229, 0.000000, 7.623937
1094, 23.333338, 0.000000, 78.830482
1095, 20.000004, 0.000000, 84.603989
1096, 61.071461, 0.000000, 28.809359
1097, 5.622035, 0.000000, 63.472855
1098, 7.777774, 0.000000, 5.699438
1099, 5.555552, 0.000000, 5.699438
1100, 55.555840, 0.000000, 3.794254
1101, 31.128912, 0.000000, 3.805912
1102, 61.043514, 0.000000, 21.056414
1103, 62.195614, 0.000000, 19.082954
1104, 5.603796, 0.000000, 40.312607
1105, 4.444444, 0.000000, 38.415958
1106, 5.622637, 0.000000, 78.791748
1107, 6.677847, 0.000000, 80.748528
1108, 8.890753, 0.000000, 80.753906
1109, 7.779952, 0.000000, 82.678230
1110, 5.610293, 0.000000, 82.647881
1111, 6.676152, 0.000000, 84.598511
1112, 5.611907, 0.000000, 75.014015
1113, 62.508213, 0.000000, 38.204910
1114, 61.111118, 0.000000, 36.491459
1115, 4.075459, 0.000000, 84.491356
1116, 5.495639, 0.000000, 86.508804
1117, 3.470408, 0.000000, 86.536522
1118, 4.100065, 0.000000, 88.610245
1119, 62.529285, 0.000000, 42.252243
1120, 62.538902, 0.000000, 57.712524
1121, 61.111118, 0.000000, 59.585468
1122, 62.538265, 0.000000, 84.556473
1123, 61.111126, 0.000000, 82.679489
1124, 4.444445, 0.000000, 46.113964
1125, 62.222229, 0.000000, 46.113964
1126, 4.491890, 0.000000, 23.008127
1127, 62.171593, 0.000000, 76.926697
1128, 61.101116, 0.000000, 78.834839
1129, 63.295303, 0.000000, 78.855835
1130, 62.280651, 0.000000, 92.293549
1131, 61.120861, 0.000000, 94.225082
1132, 63.333351, 0.000000, 94.226494
1133, 4.375709, 0.000000, 49.968449
1134, 63.334457, 0.000000, 48.015884
1135, 62.309086, 0.000000, 49.981335
1136, 63.437843, 0.000000, 52.078663
1137, 61.212704, 0.000000, 51.964828
1138, 63.326214, 0.000000, 90.305298
1139, 64.528084, 0.000000, 88.174149
1140, 62.318714, 0.000000, 53.907784
1141, 3.333329, 0.000000, 9.548441
1142, 2.408121, 0.000000, 11.348180
1143, 62.209538, 0.000000, 96.159027
1144, 57.777794, 0.000000, 96.150993
1145, 51.111126, 0.000000, 96.150993
1146, 46.666679, 0.000000, 96.150993
1147, 42.222237, 0.000000, 96.150993
1148, 7.769374, 0.000000, 86.524292
1149, 10.000674, 0.000000, 82.679092
1150, 21.111113, 0.000000, 63.434471
1151, 18.888891, 0.000000, 67.283478
1152, 16.666668, 0.000000, 67.283478
1153, 17.777779, 0.000000, 69.207977
1154, 18.888891, 0.000000, 71.132477
1155, 16.666668, 0.000000, 71.132477
1156, 25.555557, 0.000000, 55.736469
1157, 27.777781, 0.000000, 51.887466
1158, 28.888891, 0.000000, 49.962967
1159, 11.111537, 0.000000, 80.754738
1160, 26.666668, 0.000000, 46.113964
1161, 27.777781, 0.000000, 36.491459
1162, 58.887524, 0.000000, 82.680305
1163, 59.993435, 0.000000, 69.207382
1164, 62.517735, 0.000000, 69.097488
1165, 61.111122, 0.000000, 67.283478
1166, 60.000011, 0.000000, 65.358971
1167, 62.164589, 0.000000, 65.325691
1168, 61.101513, 0.000000, 63.428925
1169, 63.277557, 0.000000, 63.377365
1170, 64.509766, 0.000000, 65.442719
1171, 62.222233, 0.000000, 61.509972
1172, 57.776691, 0.000000, 69.207878
1173, 55.555382, 0.000000, 69.207962
1174, 18.888891, 0.000000, 28.793453
1175, 20.000002, 0.000000, 30.717955
1176, 17.777779, 0.000000, 26.868952
1177, 40.000008, 0.000000, 42.264961
1178, 41.111118, 0.000000, 44.189461
1179, 38.888897, 0.000000, 40.340462
1180, 37.777786, 0.000000, 38.415958
1181, 59.979748, 0.000000, 23.008249
1182, 62.197350, 0.000000, 23.011721
1183, 57.774410, 0.000000, 23.018000
1184, 55.555000, 0.000000, 23.019623
1185, 54.444359, 0.000000, 24.944397
1186, 53.333233, 0.000000, 23.019884
1187, 34.444450, 0.000000, 67.283478
1188, 33.333340, 0.000000, 65.358971
1189, 34.444450, 0.000000, 63.434475
1190, 52.222237, 0.000000, 90.377487
1191, 38.888897, 0.000000, 71.132477
1192, 23.333338, 0.000000, 82.679489
1193, 40.000008, 0.000000, 73.056976
1194, 38.888897, 0.000000, 74.981483
1195, 25.555559, 0.000000, 82.679489
1196, 5.564960, 0.000000, 21.092613
1197, 3.370660, 0.000000, 21.098684
1198, 7.778894, 0.000000, 21.094961
1199, 28.888891, 0.000000, 38.415958
1200, 57.776443, 0.000000, 38.415188
1201, 5.598184, 0.000000, 13.372830
1202, 27.777782, 0.000000, 44.189465
1203, 28.888891, 0.000000, 42.264961
1204, 4.099401, 0.000000, 95.968239
1205, 55.555565, 0.000000, 42.264961
1206, 54.444450, 0.000000, 44.189465
1207, 22.222225, 0.000000, 65.358971
1208, 22.222227, 0.000000, 61.509972
1209, 10.000012, 0.000000, 98.075531
1210, 6.682182, 0.000000, 42.264637
1211, 4.146024, 0.000000, 42.255894
1212, 62.222233, 0.000000, 80.754982
1213, 7.784880, 0.000000, 13.393341
1214, 4.126471, 0.000000, 15.394308
1215, 61.095936, 0.000000, 1.913655
1216, 62.205395, 0.000000, 3.832752
1217, 64.619659, 0.000000, 3.618592
1218, 63.331799, 0.000000, 5.740983
1219, 59.983212, 0.000000, 3.817158
1220, 5.523594, 0.000000, 1.930973
1221, 8.891475, 0.000000, 42.264908
1222, 11.111542, 0.000000, 42.264954
1223, 5.555558, 0.000000, 94.226494
1224, 4.520145, 0.000000, 92.286629
1225, 5.555559, 0.000000, 90.377495
1226, 5.555553, 0.000000, 17.246447
1227, 4.490362, 0.000000, 19.180441
1228, 6.674055, 0.000000, 57.656631
1229, 4.602447, 0.000000, 57.682613
1230, 3.422769, 0.000000, 59.863991
1231, 59.998116, 0.000000, 80.755844
1232, 54.444458, 0.000000, 90.377487
1233, 55.555569, 0.000000, 88.452988
1234, 12.222229, 0.000000, 98.075500
1235, 13.333340, 0.000000, 96.151001
1236, 15.555563, 0.000000, 96.150993
1237, 14.444450, 0.000000, 94.226494
1238, 16.666676, 0.000000, 98.075500
1239, 17.777784, 0.000000, 96.150993
1240, 52.222267, 0.000000, 48.038506
1241, 7.777785, 0.000000, 90.377510
1242, 6.597886, 0.000000, 88.475220
1243, 9.998602, 0.000000, 86.527786
1244, 47.777790, 0.000000, 90.377487
1245, 18.888889, 0.000000, 24.944450
1246, 20.000002, 0.000000, 23.019949
1247, 22.222225, 0.000000, 23.019949
1248, 18.888889, 0.000000, 21.095448
1249, 26.666668, 0.000000, 34.566956
1250, 24.444447, 0.000000, 11.472940
1251, 8.888889, 0.000000, 53.811966
1252, 45.555565, 0.000000, 82.679482
1253, 46.666676, 0.000000, 80.754982
1254, 48.888897, 0.000000, 80.754982
1255, 61.103920, 0.000000, 9.553627
1256, 62.184494, 0.000000, 11.452708
1257, 63.284752, 0.000000, 9.607332
1258, 64.250267, 0.000000, 11.358137
1259, 61.068295, 0.000000, 13.372973
1260, 20.000004, 0.000000, 88.452988
1261, 52.222233, 0.000000, 17.246445
1262, 53.333344, 0.000000, 19.170944
1263, 54.444454, 0.000000, 17.246445
1264, 12.222294, 0.000000, 40.340458
1265, 12.222408, 0.000000, 82.679382
1266, 12.222295, 0.000000, 78.830444
1267, 30.000006, 0.000000, 71.132477
1268, 14.444444, 0.000000, 17.246445
1269, 24.444447, 0.000000, 19.170946
1270, 4.421622, 0.000000, 7.630521
1271, 3.266994, 0.000000, 5.703738
1272, 41.111118, 0.000000, 24.944450
1273, 40.000008, 0.000000, 26.868952
1274, 37.777782, 0.000000, 26.868952
1275, 38.888897, 0.000000, 28.793453
1276, 36.666672, 0.000000, 28.793453
1277, 37.777782, 0.000000, 30.717955
1278, 42.222229, 0.000000, 26.868952
1279, 40.000008, 0.000000, 30.717955
1280, 35.555561, 0.000000, 30.717955
1281, 35.555561, 0.000000, 26.868952
1282, 36.666672, 0.000000, 32.642456
1283, 21.111120, 0.000000, 98.075500
1284, 22.222231, 0.000000, 96.150993
1285, 50.000469, 0.000000, 1.913111
1286, 28.888893, 0.000000, 34.566956
1287, 41.111118, 0.000000, 13.397441
1288, 40.000008, 0.000000, 15.321943
1289, 37.777782, 0.000000, 15.321943
1290, 42.222229, 0.000000, 15.321943
1291, 38.888897, 0.000000, 17.246445
1292, 26.666670, 0.000000, 19.170946
1293, 25.555559, 0.000000, 21.095448
1294, 16.666676, 0.000000, 1.924502
1295, 13.333332, 0.000000, 19.170948
1296, 11.111110, 0.000000, 19.170948
1297, 50.000008, 0.000000, 21.095448
1298, 10.000005, 0.000000, 1.924502
1299, 12.222228, 0.000000, 1.924502
1300, 55.555569, 0.000000, 84.603989
1301, 4.538829, 0.000000, 76.858864
1302, 25.555567, 0.000000, 98.075500
1303, 26.666676, 0.000000, 96.150993
1304, 48.888897, 0.000000, 23.019949
1305, 45.555576, 0.000000, 1.923473
1306, 44.444466, 0.000000, 3.849004
1307, 42.222244, 0.000000, 3.849004
1308, 46.670467, 0.000000, 3.832695
1309, 41.111134, 0.000000, 1.924502
1310, 40.000019, 0.000000, 3.849004
1311, 37.777798, 0.000000, 3.849004
1312, 36.666683, 0.000000, 1.924502
1313, 35.555573, 0.000000, 3.849004
1314, 43.333340, 0.000000, 24.944450
1315, 34.444450, 0.000000, 59.585472
1316, 43.333340, 0.000000, 13.397442
1317, 61.106686, 0.000000, 17.231779
1318, 63.197964, 0.000000, 17.155104
1319, 62.042927, 0.000000, 15.343953
1320, 17.777779, 0.000000, 30.717955
1321, 18.888889, 0.000000, 32.642456
1322, 21.111122, 0.000000, 1.924502
1323, 35.555561, 0.000000, 69.207977
1324, 59.993397, 0.000000, 30.720606
1325, 61.110016, 0.000000, 32.642899
1326, 59.999825, 0.000000, 34.567032
1327, 62.206383, 0.000000, 34.508949
1328, 63.332691, 0.000000, 32.523773
1329, 62.201355, 0.000000, 30.670231
1330, 22.222225, 0.000000, 30.717955
1331, 23.333336, 0.000000, 32.642456
1332, 58.881760, 0.000000, 13.393364
1333, 20.000000, 0.000000, 53.811966
1334, 12.222221, 0.000000, 28.793453
1335, 11.111111, 0.000000, 30.717955
1336, 9.999999, 0.000000, 28.793453
1337, 8.888888, 0.000000, 30.717955
1338, 6.666666, 0.000000, 30.717955
1339, 7.777777, 0.000000, 32.642456
1340, 5.555554, 0.000000, 32.642456
1341, 4.455275, 0.000000, 30.692343
1342, 4.444444, 0.000000, 34.566956
1343, 3.337687, 0.000000, 32.532745
1344, 3.280942, 0.000000, 36.586300
1345, 5.555554, 0.000000, 28.793453
1346, 25.555887, 0.000000, 1.916890
1347, 47.777786, 0.000000, 78.830482
1348, 46.666676, 0.000000, 76.905983
1349, 47.777786, 0.000000, 74.981483
1350, 46.666676, 0.000000, 73.056976
1351, 48.888897, 0.000000, 30.717953
1352, 51.111118, 0.000000, 30.717955
1353, 46.666676, 0.000000, 34.566956
1354, 62.521530, 0.000000, 26.808174
1355, 31.111115, 0.000000, 38.415958
1356, 11.111110, 0.000000, 23.019949
1357, 51.111118, 0.000000, 26.868952
1358, 62.528957, 0.000000, 73.164909
1359, 36.666683, 0.000000, 98.075500
1360, 37.777794, 0.000000, 96.150993
1361, 35.555569, 0.000000, 96.150993
1362, 44.444454, 0.000000, 38.415958
1363, 6.676059, 0.000000, 73.062401
1364, 5.557121, 0.000000, 71.133377
1365, 4.085760, 0.000000, 73.194588
1366, 3.480528, 0.000000, 71.148102
1367, 4.101320, 0.000000, 69.071121
1368, 57.777756, 0.000000, 34.566971
1369, 6.677747, 0.000000, 65.365372
1370, 4.531874, 0.000000, 65.404297
1371, 8.890121, 0.000000, 57.660248
1372, 26.666670, 0.000000, 30.717955
1373, 37.777786, 0.000000, 76.905983
1374, 5.544100, 0.000000, 48.039379
1375, 3.329456, 0.000000, 48.015980
1376, 3.327116, 0.000000, 51.960285
1377, 2.081411, 0.000000, 54.155815
1378, 11.111112, 0.000000, 53.811966
1379, 53.333344, 0.000000, 73.056976
1380, 52.222233, 0.000000, 71.132477
1381, 12.222222, 0.000000, 51.887466
1382, 15.555560, 0.000000, 76.905983
1383, 14.444449, 0.000000, 74.981483
1384, 59.998409, 0.000000, 61.509048
1385, 57.777519, 0.000000, 61.509815
1386, 61.111118, 0.000000, 44.189461
1387, 35.555561, 0.000000, 46.113964
1388, 6.609740, 0.000000, 69.185318
1389, 5.555556, 0.000000, 67.283478
1390, 36.666672, 0.000000, 13.397442
1391, 35.555561, 0.000000, 15.321943
1392, 50.000011, 0.000000, 82.679482
1393, 30.000006, 0.000000, 48.038464
1394, 22.222225, 0.000000, 88.452988
1395, 4.674831, 0.000000, 61.722084
1396, 34.444450, 0.000000, 13.397442
1397, 34.444450, 0.000000, 17.246445
1398, 40.000008, 0.000000, 53.811970
1399, 13.333334, 0.000000, 46.113964
1400, 35.555561, 0.000000, 53.811970
1401, 36.666672, 0.000000, 55.736469
1402, 31.111116, 0.000000, 80.754982
1403, 32.222237, 0.000000, 98.075500
1404, 40.000008, 0.000000, 76.905983
1405, 38.888897, 0.000000, 32.642456
1406, 37.777786, 0.000000, 34.566956
1407, 28.888893, 0.000000, 84.603989
1408, 47.777786, 0.000000, 51.887466
1409, 50.000008, 0.000000, 51.887466
1410, 48.888897, 0.000000, 53.811966
1411, 51.111118, 0.000000, 53.811966
1412, 52.222229, 0.000000, 55.736469
1413, 51.111118, 0.000000, 57.660969
1414, 42.222229, 0.000000, 61.509972
1415, 43.333340, 0.000000, 59.585472
1416, 44.444450, 0.000000, 61.509972
1417, 42.222229, 0.000000, 69.207977
1418, 8.890070, 0.000000, 11.472259
1419, 40.000008, 0.000000, 46.113964
1420, 42.222229, 0.000000, 46.113964
1421, 24.444448, 0.000000, 61.509972
1422, 36.666672, 0.000000, 40.340462
1423, 48.888897, 0.000000, 65.358971
1424, 60.034554, 0.000000, 49.981667
1425, 18.888889, 0.000000, 40.340458
1426, 7.786317, 0.000000, 55.731285
1427, 41.111118, 0.000000, 28.793453
1428, 28.888893, 0.000000, 23.019949
1429, 53.333340, 0.000000, 57.660969
1430, 57.775063, 0.000000, 84.605644
1431, 53.333309, 0.000000, 53.811989
1432, 31.111116, 0.000000, 61.509972
1433, 34.444450, 0.000000, 24.944450
1434, 34.444450, 0.000000, 28.793453
1435, 31.111116, 0.000000, 73.056976
1436, 36.666672, 0.000000, 63.434475
1437, 13.333332, 0.000000, 15.321944
1438, 32.222225, 0.000000, 17.246445
1439, 13.333417, 0.000000, 42.264957
1440, 26.666674, 0.000000, 69.207977
1441, 26.666668, 0.000000, 53.811966
1442, 8.890736, 0.000000, 65.360039
1443, 32.222229, 0.000000, 78.830482
1444, 12.222222, 0.000000, 32.642456
1445, 44.444454, 0.000000, 26.868952
1446, 1.924501, 0.000000, 43.333332
1447, 64.742203, 0.000000, 43.333332
1448, 64.589653, 0.000000, 54.207275
1449, 2.098461, 0.000000, 38.681026
1450, 28.888895, 0.000000, 65.358978
1451, 57.776222, 0.000000, 76.906883
1452, 24.444447, 0.000000, 57.660969
1453, 4.724994, 0.000000, 80.550079
1454, 42.222229, 0.000000, 53.811970
1455, 12.222222, 0.000000, 44.189461
1456, 31.111115, 0.000000, 42.264961
1457, 20.000000, 0.000000, 42.264961
1458, 38.888897, 0.000000, 48.038464
1459, 36.666672, 0.000000, 48.038464
1460, 24.444450, 0.000000, 73.056976
1461, 26.666672, 0.000000, 57.660969
1462, 20.000002, 0.000000, 61.509972
1463, 10.000206, 0.000000, 59.585350
1464, 20.000000, 0.000000, 49.962963
1465, 57.777084, 0.000000, 88.453690
1466, 2.238557, 0.000000, 65.474648
1467, 64.742203, 0.000000, 58.888889
1468, 64.519516, 0.000000, 34.471508
1469, 64.704971, 0.000000, 39.032417
1470, 28.888891, 0.000000, 11.472940
1471, 37.777786, 0.000000, 88.452988
1472, 36.666672, 0.000000, 74.981483
1473, 54.444412, 0.000000, 55.736492
1474, 10.000000, 0.000000, 51.887466
1475, 1.924501, 0.000000, 27.777779
1476, 25.555557, 0.000000, 48.038464
1477, 17.777779, 0.000000, 49.962963
1478, 15.555556, 0.000000, 57.660969
1479, 40.000008, 0.000000, 84.603989
1480, 37.777786, 0.000000, 84.603989
1481, 18.888889, 0.000000, 44.189461
1482, 43.333344, 0.000000, 90.377495
1483, 48.888897, 0.000000, 34.566956
1484, 44.444450, 0.000000, 19.170946
1485, 11.111112, 0.000000, 46.113964
1486, 36.666672, 0.000000, 24.944450
1487, 17.777779, 0.000000, 34.566956
1488, 55.555641, 0.000000, 46.114033
1489, 41.111118, 0.000000, 74.981483
1490, 41.111118, 0.000000, 32.642456
1491, 50.000015, 0.000000, 48.038471
1492, 64.742203, 0.000000, 70.000000
1493, 21.111113, 0.000000, 51.887466
1494, 31.111116, 0.000000, 49.962967
1495, 14.444446, 0.000000, 63.434471
1496, 43.333340, 0.000000, 28.793453
1497, 64.705421, 0.000000, 74.394821
1498, 15.555561, 0.000000, 88.452988
1499, 45.555565, 0.000000, 59.585472
1500, 2.238417, 0.000000, 76.771759
1501, 1.733527, 0.000000, 81.183029
1502, 52.222378, 0.000000, 9.548524
1503, 43.333340, 0.000000, 67.283478
1504, 28.888893, 0.000000, 53.811966
1505, 15.555561, 0.000000, 73.056976
1506, 13.333337, 0.000000, 73.056976
1507, 64.742203, 0.000000, 27.777779
1508, 64.643272, 0.000000, 23.264189
1509, 52.222229, 0.000000, 63.434471
1510, 16.666666, 0.000000, 24.944450
1511, 12.222223, 0.000000, 71.132477
1512, 16.666668, 0.000000, 55.736469
1513, 46.666672, 0.000000, 42.264961
1514, 1.958388, 0.000000, 25.588770
1515, 48.888897, 0.000000, 38.415958
1516, 27.777781, 0.000000, 24.944450
1517, 21.111113, 0.000000, 21.095448
1518, 52.222233, 0.000000, 78.830482
1519, 54.444424, 0.000000, 67.283470
1520, 34.444450, 0.000000, 32.642456
1521, 55.555546, 0.000000, 26.868944
1522, 15.555556, 0.000000, 65.358971
1523, 35.555561, 0.000000, 7.623937
1524, 27.783957, 0.000000, 5.709174
1525, 64.709663, 0.000000, 83.358185
1526, 44.444450, 0.000000, 57.660969
1527, 1.958822, 0.000000, 16.624529
1528, 50.000008, 0.000000, 63.434471
1529, 53.333366, 0.000000, 11.472955
1530, 10.000185, 0.000000, 21.095367
1531, 21.111115, 0.000000, 67.283478
1532, 13.333339, 0.000000, 92.301994
1533, 8.890604, 0.000000, 23.018990
1534, 40.000008, 0.000000, 7.623937
1535, 27.777781, 0.000000, 48.038464
1536, 27.777781, 0.000000, 13.397442
1537, 18.888889, 0.000000, 55.736469
1538, 33.334072, 0.000000, 7.630248
1539, 58.890526, 0.000000, 94.226257
1540, 44.444454, 0.000000, 80.754982
1541, 2.273358, 0.000000, 92.261009
1542, 27.777782, 0.000000, 90.377495
1543, 23.333334, 0.000000, 5.699436
1544, 38.888897, 0.000000, 82.679489
1545, 23.333336, 0.000000, 24.944450
1546, 32.222225, 0.000000, 28.793453
1547, 21.111113, 0.000000, 44.189461
1548, 10.000394, 0.000000, 78.830254
1549, 56.664986, 0.000000, 86.529587
1550, 11.111125, 0.000000, 96.151039
1551, 14.444446, 0.000000, 67.283478
1552, 44.444454, 0.000000, 88.452988
1553, 5.546824, 0.000000, 36.507263
1554, 42.222229, 0.000000, 57.660969
1555, 57.777245, 0.000000, 80.755264
1556, 41.111118, 0.000000, 67.283478
1557, 16.666666, 0.000000, 9.548440
1558, 54.444450, 0.000000, 51.887466
1559, 52.222229, 0.000000, 44.189465
1560, 30.000006, 0.000000, 78.830482
1561, 53.333385, 0.000000, 46.114006
1562, 33.333340, 0.000000, 88.452988
1563, 8.888889, 0.000000, 84.603981
1564, 58.886116, 0.000000, 78.831886
1565, 55.555565, 0.000000, 19.170944
1566, 47.777786, 0.000000, 13.397442
1567, 18.888889, 0.000000, 13.397443
1568, 41.111118, 0.000000, 55.736469
1569, 13.333345, 0.000000, 38.415958
1570, 15.555556, 0.000000, 69.207977
1571, 53.333340, 0.000000, 42.264961
1572, 11.111125, 0.000000, 38.415958
1573, 20.000002, 0.000000, 57.660969
1574, 26.666670, 0.000000, 23.019949
1575, 14.444443, 0.000000, 9.548440
1576, 52.222229, 0.000000, 51.887466
1577, 45.555565, 0.000000, 17.246445
1578, 26.666668, 0.000000, 11.472940
1579, 50.000011, 0.000000, 78.830482
1580, 9.999997, 0.000000, 5.699438
1581, 40.000008, 0.000000, 69.207977
1582, 36.666672, 0.000000, 82.679489
1583, 21.111113, 0.000000, 59.585468
1584, 22.222223, 0.000000, 42.264961
1585, 23.333334, 0.000000, 13.397442
1586, 51.111118, 0.000000, 65.358971
1587, 56.666451, 0.000000, 40.340332
1588, 22.222223, 0.000000, 11.472940
1589, 51.111141, 0.000000, 49.962990
1590, 36.666672, 0.000000, 36.491459
1591, 55.555302, 0.000000, 38.415810
1592, 26.666672, 0.000000, 84.603989
1593, 33.333340, 0.000000, 19.170946
1594, 33.333340, 0.000000, 57.660969
1595, 38.888897, 0.000000, 55.736469
1596, 45.555565, 0.000000, 90.377487
1597, 23.333334, 0.000000, 40.340458
1598, 37.777786, 0.000000, 57.660969
1599, 24.444447, 0.000000, 23.019949
1600, 43.333340, 0.000000, 17.246445
1601, 35.555561, 0.000000, 19.170946
1602, 28.888895, 0.000000, 92.301994
1603, 35.555561, 0.000000, 57.660969
1604, 53.333347, 0.000000, 88.452988
1605, 58.887299, 0.000000, 36.490570
1606, 28.888893, 0.000000, 80.754982
1607, 25.555557, 0.000000, 40.340458
1608, 54.444336, 0.000000, 9.548540
1609, 20.000000, 0.000000, 19.170946
1610, 52.222225, 0.000000, 67.283478
1611, 48.888901, 0.000000, 88.452988
1612, 50.000011, 0.000000, 90.377487
1613, 50.000008, 0.000000, 71.132477
1614, 20.000000, 0.000000, 34.566956
1615, 47.777786, 0.000000, 71.132477
1616, 56.666676, 0.000000, 71.132477
1617, 40.000008, 0.000000, 19.170946
1618, 43.333340, 0.000000, 48.038464
1619, 36.666672, 0.000000, 17.246445
1620, 53.333305, 0.000000, 69.207970
1621, 14.444446, 0.000000, 71.132477
1622, 35.555561, 0.000000, 84.603989
1623, 27.777782, 0.000000, 82.679489
1624, 38.888897, 0.000000, 36.491459
1625, 23.333336, 0.000000, 21.095448
1626, 37.777786, 0.000000, 69.207977
1627, 27.777779, 0.000000, 40.340458
1628, 20.000000, 0.000000, 11.472941
1629, 36.666672, 0.000000, 86.528488
1630, 33.333340, 0.000000, 61.509972
1631, 51.111103, 0.000000, 23.019938
1632, 53.334122, 0.000000, 7.624711
1633, 12.222223, 0.000000, 74.981476
1634, 35.555561, 0.000000, 88.452988
1635, 52.228851, 0.000000, 5.710145
1636, 41.111118, 0.000000, 17.246445
1637, 17.777782, 0.000000, 73.056984
1638, 18.888887, 0.000000, 9.548440
1639, 32.222229, 0.000000, 63.434475
1640, 14.444460, 0.000000, 78.830475
1641, 36.666672, 0.000000, 90.377495
1642, 44.444454, 0.000000, 15.321943
1643, 24.444450, 0.000000, 76.905983
1644, 35.555561, 0.000000, 92.301994
1645, 23.333336, 0.000000, 59.585472
1646, 54.444344, 0.000000, 21.095381
1647, 15.555553, 0.000000, 7.623939
1648, 45.555565, 0.000000, 13.397442
1649, 14.444442, 0.000000, 5.699438
1650, 31.111116, 0.000000, 65.358978
1651, 30.000006, 0.000000, 67.283478
1652, 28.888895, 0.000000, 69.207977
1653, 44.444454, 0.000000, 11.472940
1654, 58.888557, 0.000000, 59.585308
1655, 44.444450, 0.000000, 46.113964
1656, 21.111115, 0.000000, 82.679489
1657, 22.222227, 0.000000, 76.905983
1658, 21.111113, 0.000000, 32.642456
1659, 45.556595, 0.000000, 9.550062
1660, 27.777784, 0.000000, 71.132477
1661, 13.333350, 0.000000, 76.905975
1662, 44.445065, 0.000000, 7.631202
1663, 24.444447, 0.000000, 34.566956
1664, 25.555557, 0.000000, 32.642456
1665, 26.666672, 0.000000, 73.056976
1666, 43.333340, 0.000000, 44.189465
1667, 54.444454, 0.000000, 71.132477
1668, 44.444450, 0.000000, 42.264961
1669, 25.555561, 0.000000, 74.981483
1670, 45.555565, 0.000000, 40.340462
1671, 46.666676, 0.000000, 38.415958
1672, 47.777786, 0.000000, 36.491459
1673, 51.111118, 0.000000, 34.566959
1674, 21.111116, 0.000000, 78.830482
1675, 50.000008, 0.000000, 32.642456
1676, 53.333340, 0.000000, 30.717955
1677, 22.222227, 0.000000, 80.754982
1678, 52.222221, 0.000000, 21.095440
1679, 52.222229, 0.000000, 28.793453
1680, 53.333324, 0.000000, 26.868942
1681, 18.888893, 0.000000, 82.679489
1682, 52.222191, 0.000000, 24.944427
1683, 30.000002, 0.000000, 40.340462
1684, 16.666672, 0.000000, 94.226494
1685, 20.000008, 0.000000, 96.150993
1686, 17.777782, 0.000000, 84.603989
1687, 23.333340, 0.000000, 94.226494
1688, 18.888893, 0.000000, 86.528488
1689, 24.444454, 0.000000, 96.150993
1690, 27.777784, 0.000000, 94.226494
1691, 30.000013, 0.000000, 98.075500
1692, 17.777782, 0.000000, 88.452988
1693, 33.333344, 0.000000, 96.150993
1694, 61.094692, 0.000000, 98.085106
1695, 18.888895, 0.000000, 94.226494
1696, 59.997055, 0.000000, 96.153664
1697, 16.666670, 0.000000, 90.377487
1698, 56.666687, 0.000000, 98.075493
1699, 15.555560, 0.000000, 92.301994
1700, 53.333351, 0.000000, 96.150993
1701, 50.000019, 0.000000, 98.075500
1702, 48.888901, 0.000000, 96.150993
1703, 45.555576, 0.000000, 98.075500
1704, 44.444458, 0.000000, 96.150993
1705, 41.111130, 0.000000, 98.075500
1706, 38.888897, 0.000000, 94.226494
1707, 36.666676, 0.000000, 94.226494
1708, 28.888899, 0.000000, 96.150993
1709, 64.620247, 0.000000, 96.380234
1710, 40.000015, 0.000000, 96.150993
1711, 54.444466, 0.000000, 98.075493
1712, 60.003735, 0.000000, 53.822784
1713, 4.402554, 0.000000, 3.797924
1714, 64.563103, 0.000000, 18.944338
1715, 1.995746, 0.000000, 3.610738
1716, 62.248299, 0.000000, 7.665849
1717, 58.867535, 0.000000, 5.718210
1718, 57.763218, 0.000000, 3.801327
1719, 32.237209, 0.000000, 1.907542
1720, 33.347057, 0.000000, 3.825291
1721, 28.894402, 0.000000, 3.804345
1722, 47.780605, 0.000000, 5.724236
1723, 53.335899, 0.000000, 3.802627
1724, 6.654357, 0.000000, 3.810708
1725, 8.886837, 0.000000, 3.811760
1726, 11.110769, 0.000000, 3.811935
1727, 13.333278, 0.000000, 3.811965
1728, 15.555551, 0.000000, 3.811971
1729, 17.777775, 0.000000, 3.811972
1730, 19.999998, 0.000000, 3.811972
1731, 22.222221, 0.000000, 3.811972
1732, 24.444445, 0.000000, 3.811972
1733, 26.669302, 0.000000, 3.808478
1734, 30.007021, 0.000000, 1.904475
1735, 38.888897, 0.000000, 5.736474
1736, 36.666672, 0.000000, 5.736474
1737, 41.111118, 0.000000, 5.736474
1738, 43.333340, 0.000000, 5.736474
1739, 45.557800, 0.000000, 5.734548
1740, 48.888901, 0.000000, 3.811972
1741, 51.113632, 0.000000, 3.808418
1742, 54.445023, 0.000000, 1.893301
1743, 34.445702, 0.000000, 5.734138
1744, 56.664425, 0.000000, 1.896170
1745, 61.111141, 0.000000, 5.736463
1746, 1.632002, 0.000000, 61.071266
1747, 1.848632, 0.000000, 96.686752
1748, 1.872272, 0.000000, 87.729950
1749, 1.850570, 0.000000, 69.944084
1750, 1.848617, 0.000000, 72.310455
1751, 63.361992, 0.000000, 13.530968
1752, 3.404183, 0.000000, 13.186428
1753, 63.038113, 0.000000, 86.662849
1754, 63.056076, 0.000000, 28.883015
1755, 3.587964, 0.000000, 28.885458
1756, 63.102833, 0.000000, 71.114128
1757, 1.836335, 0.000000, 85.421806
1758, 3.569090, 0.000000, 55.876495
1759, 63.040886, 0.000000, 44.342251
1760, 3.633440, 0.000000, 44.346474
1761, 63.056107, 0.000000, 55.646198
1762, 63.043903, 0.000000, 40.173355
1763, 3.655753, 0.000000, 40.162521
1764, 63.032669, 0.000000, 59.800827
1765, 63.025806, 0.000000, 82.456322
1766, 3.520623, 0.000000, 82.037056
1767, 1.554265, 0.000000, 58.888889
1768, 63.009544, 0.000000, 24.757507
1769, 3.661963, 0.000000, 24.695229
1770, 3.650445, 0.000000, 17.496542
1771, 63.001038, 0.000000, 75.259514
1772, 3.681047, 0.000000, 75.228500
1773, 65.061462, 0.000000, 16.642641
1774, 62.984966, 0.000000, 67.003418
1775, 3.677740, 0.000000, 67.015022
1776, 65.158714, 0.000000, 32.222221
1777, 1.501263, 0.000000, 32.257378
1778, 3.686429, 0.000000, 90.680534
1779, 65.179588, 0.000000, 47.803787
1780, 1.491675, 0.000000, 47.777779
1781, 65.178078, 0.000000, 94.444435
1782, 65.178093, 0.000000, 5.555558
1783, 65.158287, 0.000000, 63.346329
1784, 65.184692, 0.000000, 78.888885
1785, 1.481517, 0.000000, 21.111111
1786, 3.711746, 0.000000, 93.970070
1787, 62.984638, 0.000000, 36.156994
1788, 3.732205, 0.000000, 63.664761
1789, 3.735821, 0.000000, 78.598106
1790, 63.024403, 0.000000, 20.915859
1791, 1.445512, 0.000000, 52.181793
1792, 65.220619, 0.000000, 52.146076
1793, 65.175713, 0.000000, 90.146156
1794, 65.107613, 0.000000, 9.737085
1795, 1.543731, 0.000000, 9.742393
1796, 1.396277, 0.000000, 36.648823
1797, 1.415176, 0.000000, 5.604547
1798, 65.039917, 0.000000, 1.626780
1799, 65.039917, 0.000000, 98.373222
1800, 1.626781, 0.000000, 1.626780
1801, 1.626781, 0.000000, 98.373222
1802, 2.868026, 0.000000, 57.965816
1803, 63.749161, 0.000000, 15.449260
1804, 65.205421, 0.000000, 12.781436
1805, 1.539195, 0.000000, 12.792270
1806, 3.076743, 0.000000, 80.150665
1807, 3.045406, 0.000000, 61.907825
1808, 66.666702, 1.870551, 72.205849
1809, 66.666702, 1.870551, 78.905266
1810, 66.666702, 1.924501, 87.777779
1811, 66.666702, 1.924501, 94.444443
1812, 66.666702, 1.924501, 83.333336
1813, 66.666702, 4.778522, 16.729582
1814, 66.666702, 1.870551, 21.127489
1815, 66.666702, 1.924501, 10.000000
1816, 66.666702, 1.704216, 25.600494
1817, 66.666702, 1.870551, 32.238598
1818, 66.666702, 1.888177, 36.729580
1819, 66.666702, 1.924501, 5.555555
1820, 66.666702, 1.924501, 67.777779
1821, 66.666702, 1.888177, 54.381531
1822, 66.666702, 1.924501, 45.555557
1823, 66.666702, 4.962484, 50.044937
1824, 66.666702, 4.742199, 61.111111
1825, 66.666702, 4.796149, 41.127487
1826, 66.666702, 3.333350, 97.915108
1827, 66.666702, 3.333350, 2.084890
1828, 66.666702, 4.829095, 76.666664
1829, 66.666702, 4.742199, 81.111115
1830, 66.666702, 4.742199, 70.000000
1831, 66.666702, 4.742199, 90.000000
1832, 66.666702, 1.924501, 58.888889
1833, 66.666702, 4.742199, 85.555557
1834, 66.666702, 1.704216, 14.489384
1835, 66.666702, 4.742199, 12.222222
1836, 66.666702, 4.778522, 27.840693
1837, 66.666702, 4.742199, 7.777778
1838, 66.666702, 4.742199, 23.333334
1839, 66.666702, 4.962484, 34.489384
1840, 66.666702, 4.742199, 65.555557
1841, 66.666702, 1.924501, 63.333332
1842, 66.666702, 4.962484, 56.621727
1843, 66.666702, 4.742199, 94.444443
1844, 66.666702, 1.802235, 50.062916
1845, 66.666702, 1.924501, 41.111111
1846, 66.666702, 4.742199, 45.555557
1847, 66.666702, 4.843578, 74.444443
1848, 66.666702, 2.819188, 75.555557
1849, 66.666702, 1.861746, 52.285137
1850, 66.666702, 3.589867, 53.333332
1851, 66.666702, 1.924501, 70.000000
1852, 66.666702, 4.742199, 87.777779
1853, 66.666702, 4.742199, 83.333336
1854, 66.666702, 4.742199, 43.333332
1855, 66.666702, 4.742199, 63.333332
1856, 66.666702, 1.924501, 85.555557
1857, 66.666702, 1.831550, 38.899376
1858, 66.666702, 3.483688, 37.915840
1859, 66.666702, 1.924501, 43.333332
1860, 66.666702, 4.835149, 30.010487
1861, 66.666702, 3.183012, 29.026951
1862, 66.666702, 4.902945, 32.228821
1863, 66.666702, 4.818219, 58.886158
1864, 66.666702, 4.835149, 18.899374
1865, 66.666702, 3.183012, 17.915840
1866, 66.666702, 1.924501, 61.111111
1867, 66.666702, 4.791223, 21.111567
1868, 66.666702, 1.924501, 81.111115
1869, 66.666702, 1.787190, 34.520573
1870, 66.666702, 1.924501, 7.777778
1871, 66.666702, 4.870519, 14.517844
1872, 66.666702, 1.848481, 12.224952
1873, 66.666702, 1.924501, 65.555557
1874, 66.666702, 4.742199, 10.000000
1875, 66.666702, 4.742199, 5.555555
1876, 66.666702, 1.813486, 23.338547
1877, 66.666702, 4.870519, 25.628956
1878, 66.666702, 1.854435, 47.781601
1879, 66.666702, 4.818219, 47.780506
1880, 66.666702, 1.796181, 56.593266
1881, 66.666702, 1.924501, 90.000000
1882, 66.666702, 4.791589, 72.222221
1883, 66.666702, 4.742199, 67.777779
1884, 66.666702, 1.924501, 92.222221
1885, 66.666702, 4.790960, 78.888885
1886, 66.666702, 4.742199, 92.222221
1887, 66.666702, 4.963702, 96.601677
1888, 66.666702, 1.702998, 96.601677
1889, 66.666702, 1.702998, 3.398325
1890, 66.666702, 4.963702, 3.398325
1891, 66.666702, 3.468877, 51.139572
1892, 66.666702, 1.605763, 73.996727
1893, 66.666702, 1.632627, 18.914629
1894, 66.666702, 5.034073, 38.914627
1895, 66.666702, 3.212124, 15.608775
1896, 66.666702, 1.632627, 30.025740
1897, 66.666702, 1.605763, 77.114388
1898, 66.666702, 3.453078, 35.609230
1899, 66.666702, 3.212124, 26.719887
1900, 66.666702, 3.472273, 55.525345
1901, 66.666702, 3.333350, 86.666664
1902, 66.666702, 3.333350, 88.888885
1903, 66.666702, 3.333350, 91.111115
1904, 66.666702, 3.333350, 93.333336
1905, 66.666702, 3.333350, 48.888889
1906, 66.666702, 3.279315, 24.473906
1907, 66.666702, 3.334342, 46.667759
1908, 66.666702, 3.385887, 33.366287
1909, 66.666702, 3.333350, 84.444443
1910, 66.666702, 3.305975, 22.230806
1911, 66.666702, 3.285148, 13.362381
1912, 66.666702, 3.322787, 11.113813
1913, 66.666702, 3.333350, 68.888885
1914, 66.666702, 3.333350, 6.666667
1915, 66.666702, 3.333515, 44.444626
1916, 66.666702, 3.333350, 42.222221
1917, 66.666702, 3.331589, 8.889339
1918, 66.666702, 3.333350, 80.000000
1919, 66.666702, 3.333350, 66.666664
1920, 66.666702, 3.384501, 57.752563
1921, 66.666702, 3.333350, 62.222221
1922, 66.666702, 3.333350, 82.222221
1923, 66.666702, 3.333350, 64.444443
1924, 66.666702, 3.344164, 59.997623
1925, 66.666702, 3.333350, 71.111115
1926, 66.666702, 3.272278, 77.817245
1927, 66.666702, 3.292281, 73.305145
1928, 66.666702, 5.205277, 54.439880
1929, 66.666702, 1.621996, 16.710327
1930, 66.666702, 3.327623, 40.000000
1931, 66.666702, 1.621996, 27.821438
1932, 66.666702, 3.339077, 31.111111
1933, 66.666702, 5.044454, 36.710403
1934, 66.666702, 3.339077, 20.000000
1935, 66.666702, 5.141963, 52.230415
1936, 66.666702, 3.333350, 4.452710
1937, 66.666702, 3.333350, 95.556778
1938, 66.666702, 5.039910, 98.373215
1939, 66.666702, 1.626790, 98.373215
1940, 66.666702, 1.626790, 1.626787
1941, 66.666702, 5.039910, 1.626787
1942, 64.705017, 6.666700, 34.487873
1943, 64.725761, 6.666700, 49.995869
1944, 64.901474, 6.666700, 63.217030
1945, 1.986045, 6.666700, 41.147125
1946, 1.924501, 6.666700, 56.666668
1947, 32.222240, 6.666700, 98.075500
1948, 32.222237, 6.666700, 1.924502
1949, 2.045071, 6.666700, 67.867714
1950, 2.111659, 6.666700, 30.321329
1951, 64.717171, 6.666700, 74.406929
1952, 43.333355, 6.666700, 1.924502
1953, 43.333355, 6.666700, 98.075500
1954, 64.546570, 6.666700, 23.172319
1955, 23.333345, 6.666700, 1.924502
1956, 23.333347, 6.666700, 98.075500
1957, 2.122255, 6.666700, 76.797119
1958, 1.514443, 6.666700, 21.066607
1959, 64.742203, 6.666700, 83.333336
1960, 52.222248, 6.666700, 1.924502
1961, 14.444458, 6.666700, 98.075500
1962, 14.440676, 6.666700, 1.909051
1963, 52.222248, 6.666700, 98.075500
1964, 1.924501, 6.666700, 85.555557
1965, 64.742203, 6.666700, 14.444445
1966, 1.924501, 6.666700, 50.000000
1967, 64.680664, 6.666700, 41.147125
1968, 64.900925, 6.666700, 56.627045
1969, 1.585235, 6.666700, 14.573632
1970, 64.683685, 6.666700, 89.867302
1971, 7.777789, 6.666700, 98.075493
1972, 7.783077, 6.666700, 1.909039
1973, 58.888920, 6.666700, 1.924502
1974, 58.888920, 6.666700, 98.075500
1975, 1.997070, 6.666700, 7.719959
1976, 1.975850, 6.666700, 92.251335
1977, 64.704315, 6.666700, 7.695132
1978, 47.777802, 6.666700, 98.075500
1979, 47.777802, 6.666700, 1.924502
1980, 38.888908, 6.666700, 98.075500
1981, 27.777792, 6.666700, 1.924502
1982, 18.888901, 6.666700, 1.918330
1983, 38.885132, 6.666700, 1.909050
1984, 18.888901, 6.666700, 98.075500
1985, 27.777794, 6.666700, 98.075500
1986, 64.705307, 6.666700, 67.841560
1987, 2.117812, 6.666700, 61.307289
1988, 2.003063, 6.666700, 36.891338
1989, 64.552925, 6.666700, 45.817070
1990, 64.555054, 6.666700, 30.321329
1991, 2.113786, 6.666700, 45.817070
1992, 1.924501, 6.666700, 72.222221
1993, 2.118963, 6.666700, 80.932495
1994, 64.545685, 6.666700, 19.036987
1995, 64.893402, 6.666700, 79.028381
1996, 1.991771, 6.666700, 25.641447
1997, 64.674927, 6.666700, 94.637169
1998, 3.419286, 6.666700, 98.125114
1999, 3.419280, 6.666700, 1.874882
2000, 63.333366, 6.666700, 1.924502
2001, 63.323948, 6.666700, 98.118286
2002, 61.109573, 6.666700, 98.082626
2003, 59.999767, 6.666700, 96.152184
2004, 57.777763, 6.666700, 96.151192
2005, 58.888866, 6.666700, 94.226723
2006, 56.666695, 6.666700, 94.226494
2007, 57.777798, 6.666700, 92.302032
2008, 55.555584, 6.666700, 92.302002
2009, 56.666695, 6.666700, 90.377502
2010, 54.444473, 6.666700, 90.377495
2011, 55.555584, 6.666700, 88.452988
2012, 53.333363, 6.666700, 88.452988
2013, 54.444473, 6.666700, 86.528488
2014, 52.222252, 6.666700, 86.528488
2015, 53.333363, 6.666700, 84.603989
2016, 51.111141, 6.666700, 84.603989
2017, 52.222252, 6.666700, 82.679489
2018, 50.000027, 6.666700, 82.679489
2019, 51.111137, 6.666700, 80.754982
2020, 48.888916, 6.666700, 80.754982
2021, 50.000027, 6.666700, 78.830482
2022, 47.777805, 6.666700, 78.830482
2023, 48.888916, 6.666700, 76.905983
2024, 46.666695, 6.666700, 76.905983
2025, 47.777805, 6.666700, 74.981483
2026, 45.555584, 6.666700, 74.981483
2027, 46.666695, 6.666700, 73.056976
2028, 44.444473, 6.666700, 73.056976
2029, 45.555584, 6.666700, 71.132477
2030, 43.333363, 6.666700, 71.132477
2031, 44.444473, 6.666700, 69.207977
2032, 42.222248, 6.666700, 69.207977
2033, 43.333363, 6.666700, 67.283478
2034, 41.111137, 6.666700, 67.283478
2035, 42.222252, 6.666700, 65.358978
2036, 40.000027, 6.666700, 65.358978
2037, 41.111137, 6.666700, 63.434475
2038, 38.888916, 6.666700, 63.434475
2039, 40.000027, 6.666700, 61.509972
2040, 38.888916, 6.666700, 67.283478
2041, 37.777805, 6.666700, 61.509972
2042, 38.888916, 6.666700, 59.585472
2043, 36.666695, 6.666700, 59.585472
2044, 37.777805, 6.666700, 57.660973
2045, 35.555584, 6.666700, 57.660969
2046, 36.666695, 6.666700, 55.736469
2047, 34.444473, 6.666700, 55.736469
2048, 35.555584, 6.666700, 53.811970
2049, 34.444473, 6.666700, 59.585472
2050, 33.333363, 6.666700, 53.811970
2051, 34.444473, 6.666700, 51.887466
2052, 32.222248, 6.666700, 51.887466
2053, 33.333363, 6.666700, 49.962967
2054, 31.111137, 6.666700, 49.962967
2055, 32.222248, 6.666700, 48.038464
2056, 34.444473, 6.666700, 48.038464
2057, 33.333363, 6.666700, 46.113964
2058, 35.555584, 6.666700, 46.113964
2059, 34.444473, 6.666700, 44.189465
2060, 32.222248, 6.666700, 44.189465
2061, 33.333363, 6.666700, 42.264961
2062, 31.111139, 6.666700, 42.264961
2063, 32.222248, 6.666700, 40.340462
2064, 34.444473, 6.666700, 40.340462
2065, 33.333363, 6.666700, 38.415958
2066, 31.111139, 6.666700, 38.415958
2067, 32.222252, 6.666700, 36.491459
2068, 34.444473, 6.666700, 36.491459
2069, 33.333363, 6.666700, 34.566956
2070, 35.555584, 6.666700, 34.566956
2071, 31.111139, 6.666700, 34.566956
2072, 34.444473, 6.666700, 32.642456
2073, 43.333363, 6.666700, 74.981483
2074, 36.666695, 6.666700, 32.642456
2075, 30.000027, 6.666700, 51.887466
2076, 35.555584, 6.666700, 30.717955
2077, 37.777805, 6.666700, 30.717955
2078, 38.888920, 6.666700, 32.642456
2079, 38.888920, 6.666700, 55.736469
2080, 36.666695, 6.666700, 28.793453
2081, 38.888920, 6.666700, 28.793453
2082, 37.777805, 6.666700, 26.868952
2083, 35.555584, 6.666700, 26.868952
2084, 40.000031, 6.666700, 26.868952
2085, 36.666695, 6.666700, 24.944450
2086, 34.444473, 6.666700, 24.944450
2087, 43.333363, 6.666700, 63.434475
2088, 46.666695, 6.666700, 80.754982
2089, 35.555584, 6.666700, 23.019949
2090, 33.333363, 6.666700, 23.019949
2091, 34.444473, 6.666700, 21.095448
2092, 32.222252, 6.666700, 21.095448
2093, 36.666695, 6.666700, 21.095448
2094, 46.666698, 6.666700, 69.207977
2095, 31.111139, 6.666700, 23.019949
2096, 30.000027, 6.666700, 21.095448
2097, 28.888916, 6.666700, 23.019949
2098, 27.777805, 6.666700, 21.095448
2099, 26.666693, 6.666700, 23.019949
2100, 25.555582, 6.666700, 21.095448
2101, 24.444471, 6.666700, 23.019949
2102, 23.333359, 6.666700, 21.095448
2103, 22.222248, 6.666700, 23.019949
2104, 21.111135, 6.666700, 21.095448
2105, 20.000025, 6.666700, 23.019949
2106, 18.888914, 6.666700, 21.095448
2107, 21.111135, 6.666700, 24.944450
2108, 18.888914, 6.666700, 24.944450
2109, 20.000025, 6.666700, 26.868952
2110, 35.555584, 6.666700, 19.170946
2111, 37.777809, 6.666700, 19.170946
2112, 28.888916, 6.666700, 49.962967
2113, 27.777805, 6.666700, 51.887466
2114, 26.666693, 6.666700, 49.962967
2115, 25.555582, 6.666700, 51.887466
2116, 24.444471, 6.666700, 49.962967
2117, 23.333361, 6.666700, 51.887466
2118, 22.222248, 6.666700, 49.962967
2119, 21.111137, 6.666700, 51.887466
2120, 22.222248, 6.666700, 53.811970
2121, 20.000027, 6.666700, 53.811966
2122, 21.111137, 6.666700, 55.736469
2123, 20.000027, 6.666700, 49.962967
2124, 21.111137, 6.666700, 48.038464
2125, 18.888916, 6.666700, 48.038464
2126, 20.000027, 6.666700, 46.113964
2127, 18.888914, 6.666700, 55.736469
2128, 20.000027, 6.666700, 57.660969
2129, 20.000025, 6.666700, 19.170946
2130, 28.888916, 6.666700, 19.170946
2131, 17.777803, 6.666700, 46.113964
2132, 18.888916, 6.666700, 44.189461
2133, 17.777802, 6.666700, 19.170946
2134, 17.777802, 6.666700, 26.868952
2135, 17.777803, 6.666700, 57.660969
2136, 18.888914, 6.666700, 59.585472
2137, 50.000027, 6.666700, 74.981483
2138, 16.666693, 6.666700, 55.736469
2139, 16.666693, 6.666700, 59.585472
2140, 17.777803, 6.666700, 61.509972
2141, 20.000027, 6.666700, 61.509972
2142, 18.888914, 6.666700, 63.434471
2143, 21.111137, 6.666700, 63.434471
2144, 20.000025, 6.666700, 65.358971
2145, 22.222248, 6.666700, 65.358971
2146, 21.111137, 6.666700, 67.283478
2147, 18.888914, 6.666700, 67.283478
2148, 20.000025, 6.666700, 69.207977
2149, 22.222248, 6.666700, 69.207977
2150, 21.111135, 6.666700, 71.132477
2151, 23.333359, 6.666700, 71.132477
2152, 22.222248, 6.666700, 73.056976
2153, 24.444469, 6.666700, 73.056976
2154, 23.333359, 6.666700, 74.981483
2155, 21.111135, 6.666700, 74.981483
2156, 22.222248, 6.666700, 76.905983
2157, 24.444469, 6.666700, 76.905983
2158, 23.333359, 6.666700, 78.830482
2159, 25.555582, 6.666700, 78.830482
2160, 21.111135, 6.666700, 78.830482
2161, 24.444469, 6.666700, 80.754982
2162, 26.666693, 6.666700, 80.754982
2163, 17.777803, 6.666700, 69.207977
2164, 27.777803, 6.666700, 78.830482
2165, 28.888916, 6.666700, 80.754982
2166, 25.555582, 6.666700, 82.679482
2167, 16.666693, 6.666700, 44.189461
2168, 36.666695, 6.666700, 17.246445
2169, 38.888920, 6.666700, 17.246445
2170, 17.777803, 6.666700, 42.264961
2171, 18.888914, 6.666700, 17.246445
2172, 16.666691, 6.666700, 17.246445
2173, 15.555581, 6.666700, 61.509972
2174, 50.000027, 6.666700, 86.528488
2175, 15.555582, 6.666700, 42.264961
2176, 15.555580, 6.666700, 19.170946
2177, 15.555582, 6.666700, 46.113964
2178, 25.555582, 6.666700, 71.132477
2179, 30.000027, 6.666700, 78.830482
2180, 31.111137, 6.666700, 80.754982
2181, 16.666693, 6.666700, 40.340462
2182, 37.777809, 6.666700, 15.321943
2183, 40.000031, 6.666700, 15.321943
2184, 41.111141, 6.666700, 17.246445
2185, 42.222252, 6.666700, 15.321943
2186, 43.333366, 6.666700, 17.246445
2187, 44.444477, 6.666700, 15.321944
2188, 45.555588, 6.666700, 17.246445
2189, 46.666698, 6.666700, 15.321944
2190, 47.777809, 6.666700, 17.246445
2191, 48.888924, 6.666700, 15.321944
2192, 50.000034, 6.666700, 17.246445
2193, 48.888924, 6.666700, 19.170946
2194, 51.111145, 6.666700, 15.321944
2195, 51.111145, 6.666700, 19.170946
2196, 50.000034, 6.666700, 21.095448
2197, 17.777803, 6.666700, 15.321943
2198, 15.555580, 6.666700, 15.321943
2199, 20.000025, 6.666700, 15.321943
2200, 14.444470, 6.666700, 40.340462
2201, 52.222256, 6.666700, 21.095448
2202, 51.111145, 6.666700, 23.019949
2203, 18.888916, 6.666700, 40.340462
2204, 53.333366, 6.666700, 23.019949
2205, 52.222256, 6.666700, 24.944450
2206, 53.333363, 6.666700, 80.754982
2207, 15.555582, 6.666700, 38.415958
2208, 13.333360, 6.666700, 38.415958
2209, 23.333359, 6.666700, 63.434471
2210, 32.222248, 6.666700, 78.830482
2211, 33.333363, 6.666700, 80.754982
2212, 32.222248, 6.666700, 82.679489
2213, 34.444473, 6.666700, 82.679489
2214, 33.333363, 6.666700, 84.603989
2215, 35.555584, 6.666700, 84.603989
2216, 34.444473, 6.666700, 86.528488
2217, 36.666695, 6.666700, 86.528488
2218, 50.000034, 6.666700, 13.397443
2219, 52.222256, 6.666700, 13.397443
2220, 41.111141, 6.666700, 13.397442
2221, 16.666691, 6.666700, 13.397442
2222, 14.444468, 6.666700, 13.397442
2223, 54.444477, 6.666700, 24.944450
2224, 53.333366, 6.666700, 26.868952
2225, 51.111145, 6.666700, 26.868952
2226, 52.222256, 6.666700, 28.793453
2227, 50.000034, 6.666700, 28.793453
2228, 51.111145, 6.666700, 30.717955
2229, 53.333366, 6.666700, 30.717955
2230, 52.222256, 6.666700, 32.642456
2231, 50.000034, 6.666700, 32.642456
2232, 51.111145, 6.666700, 34.566956
2233, 53.333366, 6.666700, 34.566956
2234, 52.222256, 6.666700, 36.491459
2235, 50.000034, 6.666700, 36.491459
2236, 51.111145, 6.666700, 38.415958
2237, 48.888924, 6.666700, 38.415958
2238, 50.000034, 6.666700, 40.340458
2239, 52.222256, 6.666700, 40.340458
2240, 51.111145, 6.666700, 42.264961
2241, 48.888920, 6.666700, 42.264961
2242, 50.000034, 6.666700, 44.189461
2243, 52.222256, 6.666700, 44.189461
2244, 51.111145, 6.666700, 46.113964
2245, 48.888920, 6.666700, 46.113964
2246, 50.000034, 6.666700, 48.038464
2247, 52.222256, 6.666700, 48.038464
2248, 51.111145, 6.666700, 49.962963
2249, 53.333366, 6.666700, 49.962963
2250, 52.222256, 6.666700, 51.887466
2251, 50.000034, 6.666700, 51.887466
2252, 51.111145, 6.666700, 53.811966
2253, 53.333366, 6.666700, 53.811966
2254, 52.222256, 6.666700, 55.736469
2255, 35.555584, 6.666700, 15.321943
2256, 32.222248, 6.666700, 86.528488
2257, 12.222248, 6.666700, 40.340462
2258, 54.444477, 6.666700, 55.736469
2259, 53.333366, 6.666700, 57.660969
2260, 54.444477, 6.666700, 21.095448
2261, 55.555588, 6.666700, 57.660969
2262, 54.444477, 6.666700, 59.585468
2263, 48.888920, 6.666700, 53.811966
2264, 27.777805, 6.666700, 24.944450
2265, 14.444470, 6.666700, 36.491459
2266, 12.222248, 6.666700, 36.491459
2267, 36.666695, 6.666700, 82.679489
2268, 35.555584, 6.666700, 88.452988
2269, 37.777805, 6.666700, 88.452988
2270, 52.222256, 6.666700, 59.585468
2271, 53.333366, 6.666700, 61.509972
2272, 44.444477, 6.666700, 19.170946
2273, 31.111137, 6.666700, 76.905983
2274, 33.333363, 6.666700, 76.905983
2275, 32.222248, 6.666700, 74.981483
2276, 13.333357, 6.666700, 15.321943
2277, 12.222246, 6.666700, 13.397442
2278, 11.111135, 6.666700, 15.321943
2279, 55.555588, 6.666700, 84.603989
2280, 41.111141, 6.666700, 28.793453
2281, 42.222252, 6.666700, 26.868952
2282, 36.666695, 6.666700, 36.491459
2283, 28.888916, 6.666700, 53.811970
2284, 54.444477, 6.666700, 48.038464
2285, 55.555588, 6.666700, 49.962967
2286, 52.222252, 6.666700, 90.377495
2287, 36.666695, 6.666700, 63.434475
2288, 55.555588, 6.666700, 26.868952
2289, 14.444470, 6.666700, 59.585472
2290, 13.333359, 6.666700, 61.509972
2291, 12.222248, 6.666700, 59.585472
2292, 11.111136, 6.666700, 61.509972
2293, 45.555588, 6.666700, 13.397443
2294, 54.444477, 6.666700, 36.491459
2295, 55.555588, 6.666700, 34.566956
2296, 47.777809, 6.666700, 48.038464
2297, 47.777809, 6.666700, 36.491459
2298, 46.666698, 6.666700, 38.415958
2299, 46.666698, 6.666700, 46.113964
2300, 45.555588, 6.666700, 48.038464
2301, 44.444477, 6.666700, 46.113964
2302, 43.333366, 6.666700, 48.038464
2303, 25.555582, 6.666700, 48.038464
2304, 36.666695, 6.666700, 13.397442
2305, 34.444473, 6.666700, 13.397442
2306, 35.555584, 6.666700, 11.472940
2307, 33.333363, 6.666700, 11.472940
2308, 41.111141, 6.666700, 59.585472
2309, 16.666693, 6.666700, 36.491459
2310, 36.666695, 6.666700, 44.189465
2311, 12.222247, 6.666700, 63.434471
2312, 21.111137, 6.666700, 44.189465
2313, 23.333359, 6.666700, 82.679482
2314, 24.444469, 6.666700, 84.603989
2315, 22.222246, 6.666700, 84.603989
2316, 23.333359, 6.666700, 86.528488
2317, 21.111135, 6.666700, 86.528488
2318, 20.000025, 6.666700, 84.603989
2319, 18.888912, 6.666700, 86.528488
2320, 17.777802, 6.666700, 84.603989
2321, 16.666689, 6.666700, 86.528488
2322, 15.555578, 6.666700, 84.603989
2323, 14.444467, 6.666700, 86.528488
2324, 13.333355, 6.666700, 84.603989
2325, 12.222243, 6.666700, 86.528488
2326, 14.444467, 6.666700, 82.679482
2327, 12.222244, 6.666700, 82.679482
2328, 13.333356, 6.666700, 80.754982
2329, 11.111133, 6.666700, 80.754982
2330, 12.222244, 6.666700, 78.830482
2331, 15.555577, 6.666700, 88.452988
2332, 20.000023, 6.666700, 88.452988
2333, 13.333360, 6.666700, 34.566956
2334, 11.111137, 6.666700, 34.566956
2335, 41.111137, 6.666700, 71.132477
2336, 38.888916, 6.666700, 86.528488
2337, 40.000031, 6.666700, 88.452988
2338, 12.222248, 6.666700, 32.642456
2339, 55.555588, 6.666700, 61.509972
2340, 54.444477, 6.666700, 63.434471
2341, 15.555580, 6.666700, 11.472940
2342, 17.777803, 6.666700, 11.472940
2343, 51.111145, 6.666700, 11.472941
2344, 53.333366, 6.666700, 11.472941
2345, 54.444481, 6.666700, 13.397443
2346, 55.555592, 6.666700, 11.472941
2347, 10.000023, 6.666700, 13.397442
2348, 11.111135, 6.666700, 11.472940
2349, 56.666698, 6.666700, 36.491459
2350, 56.666698, 6.666700, 55.736469
2351, 10.000025, 6.666700, 63.434471
2352, 11.111136, 6.666700, 65.358971
2353, 56.666698, 6.666700, 63.434471
2354, 55.555588, 6.666700, 65.358971
2355, 10.000026, 6.666700, 36.491459
2356, 10.000025, 6.666700, 59.585468
2357, 11.111136, 6.666700, 57.660969
2358, 10.000021, 6.666700, 82.679482
2359, 10.000026, 6.666700, 32.642456
2360, 11.111137, 6.666700, 30.717955
2361, 56.666698, 6.666700, 48.038464
2362, 56.666702, 6.666700, 13.397443
2363, 10.000022, 6.666700, 78.830482
2364, 11.111134, 6.666700, 76.905983
2365, 56.666702, 6.666700, 24.944450
2366, 57.777809, 6.666700, 61.509972
2367, 57.777809, 6.666700, 88.452988
2368, 51.111145, 6.666700, 61.509972
2369, 13.333356, 6.666700, 76.905983
2370, 12.222244, 6.666700, 74.981483
2371, 10.000022, 6.666700, 74.981476
2372, 33.333363, 6.666700, 30.717955
2373, 18.888914, 6.666700, 28.793451
2374, 21.111135, 6.666700, 28.793453
2375, 41.111141, 6.666700, 86.528488
2376, 42.222252, 6.666700, 88.452988
2377, 41.111141, 6.666700, 90.377495
2378, 43.333363, 6.666700, 90.377495
2379, 36.666695, 6.666700, 90.377495
2380, 34.444473, 6.666700, 90.377495
2381, 54.444481, 6.666700, 9.548440
2382, 56.666702, 6.666700, 9.548441
2383, 34.444473, 6.666700, 9.548438
2384, 32.222252, 6.666700, 9.548438
2385, 31.111139, 6.666700, 11.472939
2386, 36.666698, 6.666700, 9.548439
2387, 30.000027, 6.666700, 9.548438
2388, 28.888916, 6.666700, 11.472939
2389, 27.777805, 6.666700, 9.548438
2390, 16.666691, 6.666700, 9.548439
2391, 18.888914, 6.666700, 9.548439
2392, 8.888911, 6.666700, 15.321942
2393, 10.000023, 6.666700, 17.246445
2394, 8.888911, 6.666700, 11.472940
2395, 10.000023, 6.666700, 9.548439
2396, 53.333366, 6.666700, 65.358971
2397, 54.444477, 6.666700, 67.283478
2398, 56.666698, 6.666700, 67.283478
2399, 55.555588, 6.666700, 69.207977
2400, 57.777809, 6.666700, 69.207977
2401, 56.666698, 6.666700, 71.132477
2402, 36.666695, 6.666700, 51.887466
2403, 48.888920, 6.666700, 23.019949
2404, 45.555588, 6.666700, 36.491459
2405, 44.444477, 6.666700, 38.415958
2406, 11.111135, 6.666700, 73.056976
2407, 26.666693, 6.666700, 11.472939
2408, 34.444473, 6.666700, 74.981483
2409, 33.333363, 6.666700, 73.056976
2410, 57.777813, 6.666700, 26.868952
2411, 57.777809, 6.666700, 49.962967
2412, 57.777813, 6.666700, 34.566956
2413, 58.888924, 6.666700, 36.491459
2414, 57.777813, 6.666700, 38.415958
2415, 8.888913, 6.666700, 65.358971
2416, 8.888915, 6.666700, 30.717955
2417, 10.000027, 6.666700, 28.793453
2418, 8.888911, 6.666700, 73.056976
2419, 8.888914, 6.666700, 57.660969
2420, 10.000026, 6.666700, 55.736469
2421, 53.333366, 6.666700, 69.207977
2422, 43.333363, 6.666700, 28.793453
2423, 14.444468, 6.666700, 74.981483
2424, 16.666691, 6.666700, 24.944450
2425, 35.555584, 6.666700, 76.905983
2426, 23.333359, 6.666700, 55.736469
2427, 17.777803, 6.666700, 49.962967
2428, 44.444477, 6.666700, 49.962963
2429, 24.444469, 6.666700, 65.358971
2430, 25.555582, 6.666700, 63.434475
2431, 26.666693, 6.666700, 65.358971
2432, 27.777803, 6.666700, 63.434475
2433, 28.888916, 6.666700, 65.358971
2434, 50.000034, 6.666700, 59.585468
2435, 26.666693, 6.666700, 61.509972
2436, 41.111141, 6.666700, 24.944450
2437, 24.444471, 6.666700, 19.170946
2438, 25.555580, 6.666700, 86.528488
2439, 24.444469, 6.666700, 88.452988
2440, 26.666693, 6.666700, 88.452988
2441, 25.555580, 6.666700, 90.377495
2442, 20.000025, 6.666700, 30.717953
2443, 22.222248, 6.666700, 30.717953
2444, 27.777803, 6.666700, 90.377495
2445, 25.555582, 6.666700, 9.548438
2446, 21.111135, 6.666700, 32.642456
2447, 23.333359, 6.666700, 32.642456
2448, 24.444469, 6.666700, 30.717955
2449, 22.222246, 6.666700, 34.566956
2450, 24.444469, 6.666700, 34.566956
2451, 23.333359, 6.666700, 36.491459
2452, 43.333363, 6.666700, 86.528488
2453, 42.222252, 6.666700, 84.603989
2454, 35.555584, 6.666700, 92.301994
2455, 33.333359, 6.666700, 92.301994
2456, 55.555592, 6.666700, 7.623939
2457, 35.555584, 6.666700, 7.623937
2458, 7.777804, 6.666700, 32.642456
2459, 57.777813, 6.666700, 7.623939
2460, 58.888924, 6.666700, 9.548441
2461, 37.777809, 6.666700, 7.623937
2462, 53.333370, 6.666700, 7.623939
2463, 7.777801, 6.666700, 17.246445
2464, 8.888911, 6.666700, 19.170944
2465, 58.888924, 6.666700, 71.132477
2466, 57.777809, 6.666700, 73.056976
2467, 7.778835, 6.666700, 55.737064
2468, 8.890118, 6.666700, 53.812664
2469, 11.111338, 6.666700, 53.812084
2470, 10.000259, 6.666700, 51.887600
2471, 7.777804, 6.666700, 28.793453
2472, 8.888915, 6.666700, 26.868952
2473, 58.888924, 6.666700, 67.283478
2474, 58.888924, 6.666700, 48.038464
2475, 57.777809, 6.666700, 46.113964
2476, 7.777801, 6.666700, 63.434471
2477, 7.762144, 6.666700, 51.901093
2478, 8.886344, 6.666700, 49.965260
2479, 7.777801, 6.666700, 9.548439
2480, 7.777800, 6.666700, 74.981476
2481, 58.888924, 6.666700, 24.944450
2482, 48.888920, 6.666700, 61.509972
2483, 47.777809, 6.666700, 59.585468
2484, 55.555588, 6.666700, 73.056976
2485, 56.666698, 6.666700, 74.981476
2486, 58.888924, 6.666700, 74.981476
2487, 57.777809, 6.666700, 76.905983
2488, 42.222256, 6.666700, 49.962963
2489, 43.333366, 6.666700, 51.887466
2490, 42.222256, 6.666700, 46.113964
2491, 25.555580, 6.666700, 36.491459
2492, 24.444469, 6.666700, 38.415958
2493, 44.444473, 6.666700, 26.868952
2494, 15.555578, 6.666700, 76.905983
2495, 43.333366, 6.666700, 36.491459
2496, 42.222256, 6.666700, 38.415958
2497, 31.111139, 6.666700, 73.056976
2498, 32.222248, 6.666700, 71.132477
2499, 55.555592, 6.666700, 15.321944
2500, 57.777813, 6.666700, 15.321944
2501, 10.000025, 6.666700, 67.283478
2502, 7.777802, 6.666700, 67.283478
2503, 11.110747, 6.666700, 49.963371
2504, 9.999533, 6.666700, 48.038914
2505, 7.777293, 6.666700, 48.038921
2506, 8.888915, 6.666700, 46.113964
2507, 27.777803, 6.666700, 13.397442
2508, 28.888916, 6.666700, 61.509972
2509, 30.000027, 6.666700, 44.189465
2510, 28.888916, 6.666700, 42.264961
2511, 43.333366, 6.666700, 44.189461
2512, 13.333359, 6.666700, 65.358971
2513, 27.777803, 6.666700, 59.585472
2514, 33.333363, 6.666700, 15.321943
2515, 44.444477, 6.666700, 34.566956
2516, 24.444469, 6.666700, 11.472939
2517, 34.444473, 6.666700, 71.132477
2518, 33.333363, 6.666700, 69.207977
2519, 36.666695, 6.666700, 74.981483
2520, 37.777805, 6.666700, 76.905983
2521, 14.444469, 6.666700, 32.642456
2522, 12.222248, 6.666700, 28.793453
2523, 42.222252, 6.666700, 92.301994
2524, 44.444473, 6.666700, 92.301994
2525, 26.666693, 6.666700, 92.301994
2526, 24.444469, 6.666700, 92.301994
2527, 45.555588, 6.666700, 90.377495
2528, 46.666698, 6.666700, 92.301994
2529, 8.894204, 6.666700, 7.626993
2530, 11.112017, 6.666700, 7.624447
2531, 28.888916, 6.666700, 7.623937
2532, 17.772509, 6.666700, 7.626994
2533, 19.993849, 6.666700, 7.633677
2534, 60.000034, 6.666700, 26.868952
2535, 58.888924, 6.666700, 28.793453
2536, 6.666689, 6.666700, 11.472940
2537, 60.000034, 6.666700, 38.415958
2538, 58.888924, 6.666700, 40.340462
2539, 6.666864, 6.666700, 57.661068
2540, 60.000019, 6.666700, 92.302040
2541, 60.000034, 6.666700, 76.905983
2542, 58.888924, 6.666700, 78.830482
2543, 6.666689, 6.666700, 19.170944
2544, 7.777801, 6.666700, 21.095446
2545, 10.000023, 6.666700, 21.095446
2546, 6.678154, 6.666700, 7.636730
2547, 60.000038, 6.666700, 7.623940
2548, 60.000034, 6.666700, 49.962967
2549, 60.000034, 6.666700, 34.566956
2550, 6.666693, 6.666700, 26.868952
2551, 6.666607, 6.666700, 46.114040
2552, 7.777790, 6.666700, 44.189476
2553, 60.000034, 6.666700, 46.113964
2554, 6.666689, 6.666700, 73.056976
2555, 61.111149, 6.666700, 9.548441
2556, 34.444473, 6.666700, 94.226494
2557, 55.555588, 6.666700, 76.905983
2558, 37.777805, 6.666700, 46.113964
2559, 41.111141, 6.666700, 44.189461
2560, 41.111141, 6.666700, 51.887466
2561, 42.222256, 6.666700, 53.811966
2562, 45.555588, 6.666700, 28.793453
2563, 26.666693, 6.666700, 34.566956
2564, 16.666689, 6.666700, 74.981483
2565, 15.555579, 6.666700, 73.056976
2566, 26.666693, 6.666700, 38.415958
2567, 25.555580, 6.666700, 40.340458
2568, 30.000027, 6.666700, 71.132477
2569, 46.666698, 6.666700, 26.868952
2570, 45.555588, 6.666700, 24.944450
2571, 56.666702, 6.666700, 17.246447
2572, 58.888924, 6.666700, 17.246447
2573, 60.000034, 6.666700, 15.321944
2574, 57.777813, 6.666700, 19.170948
2575, 60.000034, 6.666700, 19.170948
2576, 54.444473, 6.666700, 94.226494
2577, 28.888916, 6.666700, 73.056976
2578, 10.000024, 6.666700, 44.189465
2579, 18.888912, 6.666700, 82.679482
2580, 42.222252, 6.666700, 30.717955
2581, 30.000027, 6.666700, 59.585472
2582, 6.666689, 6.666700, 15.321942
2583, 58.888924, 6.666700, 51.887466
2584, 61.121422, 6.666700, 51.887466
2585, 56.666698, 6.666700, 40.340458
2586, 60.001747, 6.666700, 53.811966
2587, 44.444477, 6.666700, 53.811966
2588, 43.333366, 6.666700, 55.736469
2589, 58.888924, 6.666700, 63.434471
2590, 60.000034, 6.666700, 61.509972
2591, 58.888924, 6.666700, 59.585468
2592, 61.111145, 6.666700, 59.585468
2593, 56.666702, 6.666700, 32.642456
2594, 27.777803, 6.666700, 44.189461
2595, 15.555578, 6.666700, 80.754982
2596, 50.000034, 6.666700, 63.434471
2597, 47.777809, 6.666700, 63.434471
2598, 48.888920, 6.666700, 65.358971
2599, 38.888920, 6.666700, 21.095448
2600, 33.333363, 6.666700, 26.868952
2601, 8.888912, 6.666700, 42.264965
2602, 6.666690, 6.666700, 42.264965
2603, 7.777804, 6.666700, 40.340462
2604, 25.555582, 6.666700, 59.585472
2605, 38.888920, 6.666700, 9.548439
2606, 40.000031, 6.666700, 7.623937
2607, 41.111141, 6.666700, 9.548439
2608, 42.222256, 6.666700, 7.623937
2609, 43.333366, 6.666700, 9.548439
2610, 44.444477, 6.666700, 7.623937
2611, 45.555588, 6.666700, 9.548439
2612, 46.666702, 6.666700, 7.623938
2613, 27.777803, 6.666700, 67.283478
2614, 26.666693, 6.666700, 57.660969
2615, 45.555588, 6.666700, 55.736469
2616, 44.444477, 6.666700, 57.660969
2617, 45.555588, 6.666700, 40.340458
2618, 40.000031, 6.666700, 92.301994
2619, 41.111141, 6.666700, 36.491459
2620, 40.000031, 6.666700, 38.415958
2621, 32.222248, 6.666700, 55.736469
2622, 31.111137, 6.666700, 61.509972
2623, 40.000031, 6.666700, 49.962963
2624, 15.554698, 6.666700, 7.624447
2625, 27.777803, 6.666700, 86.528488
2626, 44.444473, 6.666700, 84.603989
2627, 32.222248, 6.666700, 90.377495
2628, 28.888916, 6.666700, 92.301994
2629, 20.000025, 6.666700, 11.472940
2630, 38.888916, 6.666700, 74.981483
2631, 40.000027, 6.666700, 76.905983
2632, 38.888916, 6.666700, 78.830482
2633, 41.111141, 6.666700, 78.830482
2634, 40.000031, 6.666700, 80.754982
2635, 23.333359, 6.666700, 40.340462
2636, 42.222252, 6.666700, 80.754982
2637, 21.111135, 6.666700, 36.491459
2638, 18.888914, 6.666700, 32.642456
2639, 24.444469, 6.666700, 42.264961
2640, 37.777805, 6.666700, 73.056976
2641, 16.666691, 6.666700, 28.793453
2642, 36.666695, 6.666700, 94.226494
2643, 45.555588, 6.666700, 86.528488
2644, 32.222248, 6.666700, 94.226494
2645, 47.777809, 6.666700, 90.377495
2646, 48.888920, 6.666700, 92.301994
2647, 45.555584, 6.666700, 94.226494
2648, 41.111137, 6.666700, 94.226494
2649, 25.555580, 6.666700, 94.226494
2650, 23.333357, 6.666700, 94.226494
2651, 22.222246, 6.666700, 92.301994
2652, 21.111134, 6.666700, 94.226494
2653, 20.000023, 6.666700, 92.301994
2654, 18.888910, 6.666700, 94.226494
2655, 17.777800, 6.666700, 92.301994
2656, 16.666689, 6.666700, 94.226494
2657, 15.555576, 6.666700, 92.301994
2658, 14.444465, 6.666700, 94.226494
2659, 13.333354, 6.666700, 92.301994
2660, 12.222242, 6.666700, 94.226494
2661, 11.111131, 6.666700, 92.301994
2662, 10.000019, 6.666700, 94.226494
2663, 8.888907, 6.666700, 92.301994
2664, 10.000019, 6.666700, 90.377487
2665, 7.777796, 6.666700, 90.377487
2666, 6.666685, 6.666700, 92.301994
2667, 5.540705, 6.666700, 90.377487
2668, 6.664207, 6.666700, 88.452988
2669, 10.003047, 6.666700, 5.701182
2670, 54.444481, 6.666700, 5.699438
2671, 45.555588, 6.666700, 5.699436
2672, 41.111145, 6.666700, 5.699436
2673, 36.661404, 6.666700, 5.702492
2674, 16.665045, 6.666700, 5.703600
2675, 34.438297, 6.666700, 5.715407
2676, 12.217603, 6.666700, 5.702868
2677, 47.777813, 6.666700, 5.699436
2678, 48.888924, 6.666700, 7.623938
2679, 50.000034, 6.666700, 5.699436
2680, 5.555482, 6.666700, 48.038555
2681, 5.575647, 6.666700, 55.736744
2682, 5.603820, 6.666700, 40.312611
2683, 6.674733, 6.666700, 38.411320
2684, 5.611928, 6.666700, 75.014015
2685, 6.676080, 6.666700, 76.911400
2686, 61.057178, 6.666700, 24.913294
2687, 62.536819, 6.666700, 26.793633
2688, 4.464779, 6.666700, 88.466652
2689, 5.598433, 6.666700, 86.553795
2690, 7.784527, 6.666700, 86.532707
2691, 6.674951, 6.666700, 84.608910
2692, 62.205078, 6.666700, 53.800419
2693, 46.666698, 6.666700, 65.358971
2694, 7.777804, 6.666700, 24.944452
2695, 10.000027, 6.666700, 24.944452
2696, 5.609546, 6.666700, 24.913294
2697, 17.777802, 6.666700, 73.056976
2698, 11.111129, 6.666700, 96.150993
2699, 30.000027, 6.666700, 67.283478
2700, 31.111137, 6.666700, 65.358971
2701, 7.777801, 6.666700, 71.132477
2702, 5.595036, 6.666700, 71.128914
2703, 59.991039, 6.666700, 23.014757
2704, 17.777802, 6.666700, 76.905983
2705, 58.888924, 6.666700, 44.189461
2706, 56.666698, 6.666700, 44.189461
2707, 61.066288, 6.666700, 44.215359
2708, 54.444481, 6.666700, 17.246447
2709, 61.066818, 6.666700, 55.710438
2710, 60.000038, 6.666700, 11.472942
2711, 62.185719, 6.666700, 11.451845
2712, 12.222101, 6.666700, 48.038609
2713, 13.333270, 6.666700, 49.963058
2714, 28.888916, 6.666700, 46.113964
2715, 47.777809, 6.666700, 51.887466
2716, 48.888920, 6.666700, 57.660969
2717, 35.555580, 6.666700, 96.150993
2718, 42.222256, 6.666700, 42.264961
2719, 40.000031, 6.666700, 42.264961
2720, 16.666693, 6.666700, 67.283478
2721, 15.555580, 6.666700, 69.207977
2722, 48.888924, 6.666700, 11.472941
2723, 35.555584, 6.666700, 69.207977
2724, 34.444473, 6.666700, 67.283478
2725, 23.333359, 6.666700, 9.548438
2726, 24.444469, 6.666700, 7.623937
2727, 43.333363, 6.666700, 78.830482
2728, 46.666698, 6.666700, 84.603989
2729, 5.595238, 6.666700, 28.809359
2730, 61.044666, 6.666700, 63.472855
2731, 58.888927, 6.666700, 5.699438
2732, 61.111149, 6.666700, 5.699438
2733, 11.110860, 6.666700, 3.794254
2734, 35.537788, 6.666700, 3.805912
2735, 5.623185, 6.666700, 21.056414
2736, 4.471087, 6.666700, 19.082954
2737, 61.062904, 6.666700, 40.312607
2738, 62.222256, 6.666700, 38.415958
2739, 61.044064, 6.666700, 78.791748
2740, 59.988853, 6.666700, 80.748528
2741, 57.775948, 6.666700, 80.753906
2742, 58.886749, 6.666700, 82.678230
2743, 61.056408, 6.666700, 82.647881
2744, 59.990547, 6.666700, 84.598511
2745, 61.054794, 6.666700, 75.014015
2746, 4.158485, 6.666700, 38.204910
2747, 5.555582, 6.666700, 36.491459
2748, 62.591240, 6.666700, 84.491356
2749, 61.171059, 6.666700, 86.508804
2750, 63.196293, 6.666700, 86.536522
2751, 62.566635, 6.666700, 88.610245
2752, 4.137416, 6.666700, 42.252243
2753, 4.127796, 6.666700, 57.712524
2754, 5.555581, 6.666700, 59.585468
2755, 4.128435, 6.666700, 84.556473
2756, 5.555574, 6.666700, 82.679489
2757, 62.222256, 6.666700, 46.113964
2758, 4.444470, 6.666700, 46.113964
2759, 62.174809, 6.666700, 23.008127
2760, 4.495108, 6.666700, 76.926697
2761, 5.565583, 6.666700, 78.834839
2762, 3.371397, 6.666700, 78.855835
2763, 4.386050, 6.666700, 92.293549
2764, 5.545838, 6.666700, 94.225082
2765, 3.333351, 6.666700, 94.226494
2766, 62.290989, 6.666700, 49.968449
2767, 3.332242, 6.666700, 48.015884
2768, 4.357613, 6.666700, 49.981335
2769, 3.228856, 6.666700, 52.078663
2770, 5.453997, 6.666700, 51.964828
2771, 3.340486, 6.666700, 90.305298
2772, 2.138617, 6.666700, 88.174149
2773, 4.347987, 6.666700, 53.907784
2774, 63.333370, 6.666700, 9.548441
2775, 64.258583, 6.666700, 11.348180
2776, 4.457160, 6.666700, 96.159027
2777, 8.888906, 6.666700, 96.150993
2778, 15.555573, 6.666700, 96.150993
2779, 20.000019, 6.666700, 96.150993
2780, 24.444464, 6.666700, 96.150993
2781, 58.897327, 6.666700, 86.524292
2782, 56.666027, 6.666700, 82.679092
2783, 45.555588, 6.666700, 63.434471
2784, 47.777809, 6.666700, 67.283478
2785, 50.000031, 6.666700, 67.283478
2786, 48.888920, 6.666700, 69.207977
2787, 47.777809, 6.666700, 71.132477
2788, 50.000031, 6.666700, 71.132477
2789, 41.111141, 6.666700, 55.736469
2790, 38.888920, 6.666700, 51.887466
2791, 37.777809, 6.666700, 49.962967
2792, 55.555164, 6.666700, 80.754738
2793, 40.000031, 6.666700, 46.113964
2794, 38.888920, 6.666700, 36.491459
2795, 7.779175, 6.666700, 82.680305
2796, 6.673266, 6.666700, 69.207382
2797, 4.148966, 6.666700, 69.097488
2798, 5.555578, 6.666700, 67.283478
2799, 6.666690, 6.666700, 65.358971
2800, 4.502110, 6.666700, 65.325691
2801, 5.565186, 6.666700, 63.428925
2802, 3.389141, 6.666700, 63.377365
2803, 2.156937, 6.666700, 65.442719
2804, 4.444467, 6.666700, 61.509972
2805, 8.890009, 6.666700, 69.207878
2806, 11.111319, 6.666700, 69.207962
2807, 47.777809, 6.666700, 28.793453
2808, 46.666698, 6.666700, 30.717955
2809, 48.888920, 6.666700, 26.868952
2810, 26.666693, 6.666700, 42.264961
2811, 25.555580, 6.666700, 44.189461
2812, 27.777803, 6.666700, 40.340462
2813, 28.888914, 6.666700, 38.415958
2814, 6.686952, 6.666700, 23.008249
2815, 4.469349, 6.666700, 23.011721
2816, 8.892290, 6.666700, 23.018000
2817, 11.111698, 6.666700, 23.019623
2818, 12.222342, 6.666700, 24.944397
2819, 13.333467, 6.666700, 23.019884
2820, 32.222248, 6.666700, 67.283478
2821, 33.333363, 6.666700, 65.358971
2822, 32.222248, 6.666700, 63.434475
2823, 14.444466, 6.666700, 90.377487
2824, 27.777805, 6.666700, 71.132477
2825, 43.333363, 6.666700, 82.679489
2826, 26.666693, 6.666700, 73.056976
2827, 27.777803, 6.666700, 74.981483
2828, 41.111141, 6.666700, 82.679489
2829, 61.101738, 6.666700, 21.092613
2830, 63.296040, 6.666700, 21.098684
2831, 58.887806, 6.666700, 21.094961
2832, 37.777809, 6.666700, 38.415958
2833, 8.890255, 6.666700, 38.415188
2834, 61.068516, 6.666700, 13.372830
2835, 38.888920, 6.666700, 44.189465
2836, 37.777809, 6.666700, 42.264961
2837, 62.567299, 6.666700, 95.968239
2838, 11.111136, 6.666700, 42.264961
2839, 12.222248, 6.666700, 44.189465
2840, 44.444473, 6.666700, 65.358971
2841, 44.444473, 6.666700, 61.509972
2842, 56.666687, 6.666700, 98.075531
2843, 59.984516, 6.666700, 42.264637
2844, 62.520676, 6.666700, 42.255894
2845, 4.444466, 6.666700, 80.754982
2846, 58.881821, 6.666700, 13.393341
2847, 62.540230, 6.666700, 15.394308
2848, 5.570765, 6.666700, 1.913655
2849, 4.461306, 6.666700, 3.832752
2850, 2.047044, 6.666700, 3.618592
2851, 3.334902, 6.666700, 5.740983
2852, 6.683488, 6.666700, 3.817158
2853, 61.143105, 6.666700, 1.930973
2854, 57.775227, 6.666700, 42.264908
2855, 55.555157, 6.666700, 42.264954
2856, 61.111141, 6.666700, 94.226494
2857, 62.146553, 6.666700, 92.286629
2858, 61.111141, 6.666700, 90.377495
2859, 61.111149, 6.666700, 17.246447
2860, 62.176338, 6.666700, 19.180441
2861, 59.992645, 6.666700, 57.656631
2862, 62.064255, 6.666700, 57.682613
2863, 63.243931, 6.666700, 59.863991
2864, 6.668585, 6.666700, 80.755844
2865, 12.222242, 6.666700, 90.377487
2866, 11.111131, 6.666700, 88.452988
2867, 54.444469, 6.666700, 98.075500
2868, 53.333359, 6.666700, 96.151001
2869, 51.111137, 6.666700, 96.150993
2870, 52.222248, 6.666700, 94.226494
2871, 50.000027, 6.666700, 98.075500
2872, 48.888916, 6.666700, 96.150993
2873, 14.444431, 6.666700, 48.038506
2874, 58.888916, 6.666700, 90.377510
2875, 60.068813, 6.666700, 88.475220
2876, 56.668098, 6.666700, 86.527786
2877, 18.888912, 6.666700, 90.377487
2878, 47.777809, 6.666700, 24.944450
2879, 46.666698, 6.666700, 23.019949
2880, 44.444477, 6.666700, 23.019949
2881, 47.777809, 6.666700, 21.095448
2882, 40.000031, 6.666700, 34.566956
2883, 42.222256, 6.666700, 11.472940
2884, 57.777809, 6.666700, 53.811966
2885, 21.111135, 6.666700, 82.679482
2886, 20.000025, 6.666700, 80.754982
2887, 17.777802, 6.666700, 80.754982
2888, 5.562781, 6.666700, 9.553627
2889, 4.482207, 6.666700, 11.452708
2890, 3.381947, 6.666700, 9.607332
2891, 2.416433, 6.666700, 11.358137
2892, 5.598407, 6.666700, 13.372973
2893, 46.666698, 6.666700, 88.452988
2894, 14.444468, 6.666700, 17.246445
2895, 13.333357, 6.666700, 19.170944
2896, 12.222245, 6.666700, 17.246445
2897, 54.444405, 6.666700, 40.340458
2898, 54.444290, 6.666700, 82.679382
2899, 54.444405, 6.666700, 78.830444
2900, 36.666695, 6.666700, 71.132477
2901, 52.222256, 6.666700, 17.246445
2902, 42.222252, 6.666700, 19.170946
2903, 62.245079, 6.666700, 7.630521
2904, 63.399704, 6.666700, 5.703738
2905, 25.555582, 6.666700, 24.944450
2906, 26.666693, 6.666700, 26.868952
2907, 28.888916, 6.666700, 26.868952
2908, 27.777805, 6.666700, 28.793453
2909, 30.000027, 6.666700, 28.793453
2910, 28.888916, 6.666700, 30.717955
2911, 24.444469, 6.666700, 26.868952
2912, 26.666693, 6.666700, 30.717955
2913, 31.111139, 6.666700, 30.717955
2914, 31.111139, 6.666700, 26.868952
2915, 30.000027, 6.666700, 32.642456
2916, 45.555580, 6.666700, 98.075500
2917, 44.444469, 6.666700, 96.150993
2918, 16.666229, 6.666700, 1.913111
2919, 37.777809, 6.666700, 34.566956
2920, 25.555582, 6.666700, 13.397441
2921, 26.666693, 6.666700, 15.321943
2922, 28.888916, 6.666700, 15.321943
2923, 24.444469, 6.666700, 15.321943
2924, 27.777805, 6.666700, 17.246445
2925, 40.000031, 6.666700, 19.170946
2926, 41.111141, 6.666700, 21.095448
2927, 50.000027, 6.666700, 1.924502
2928, 53.333366, 6.666700, 19.170948
2929, 55.555592, 6.666700, 19.170948
2930, 16.666691, 6.666700, 21.095448
2931, 56.666695, 6.666700, 1.924502
2932, 54.444473, 6.666700, 1.924502
2933, 11.111133, 6.666700, 84.603989
2934, 62.127872, 6.666700, 76.858864
2935, 41.111134, 6.666700, 98.075500
2936, 40.000023, 6.666700, 96.150993
2937, 17.777802, 6.666700, 23.019949
2938, 21.111122, 6.666700, 1.923473
2939, 22.222233, 6.666700, 3.849004
2940, 24.444456, 6.666700, 3.849004
2941, 19.996235, 6.666700, 3.832695
2942, 25.555569, 6.666700, 1.924502
2943, 26.666679, 6.666700, 3.849004
2944, 28.888903, 6.666700, 3.849004
2945, 30.000015, 6.666700, 1.924502
2946, 31.111126, 6.666700, 3.849004
2947, 23.333359, 6.666700, 24.944450
2948, 32.222248, 6.666700, 59.585472
2949, 23.333359, 6.666700, 13.397442
2950, 5.560015, 6.666700, 17.231779
2951, 3.468735, 6.666700, 17.155104
2952, 4.623774, 6.666700, 15.343953
2953, 48.888920, 6.666700, 30.717955
2954, 47.777809, 6.666700, 32.642456
2955, 45.555580, 6.666700, 1.924502
2956, 31.111137, 6.666700, 69.207977
2957, 6.673302, 6.666700, 30.720606
2958, 5.556683, 6.666700, 32.642899
2959, 6.666876, 6.666700, 34.567032
2960, 4.460318, 6.666700, 34.508949
2961, 3.334009, 6.666700, 32.523773
2962, 4.465347, 6.666700, 30.670231
2963, 44.444477, 6.666700, 30.717955
2964, 43.333363, 6.666700, 32.642456
2965, 7.784939, 6.666700, 13.393364
2966, 46.666698, 6.666700, 53.811966
2967, 54.444477, 6.666700, 28.793453
2968, 55.555588, 6.666700, 30.717955
2969, 56.666702, 6.666700, 28.793453
2970, 57.777813, 6.666700, 30.717955
2971, 60.000034, 6.666700, 30.717955
2972, 58.888924, 6.666700, 32.642456
2973, 61.111145, 6.666700, 32.642456
2974, 62.211426, 6.666700, 30.692343
2975, 62.222256, 6.666700, 34.566956
2976, 63.329014, 6.666700, 32.532745
2977, 63.385757, 6.666700, 36.586300
2978, 61.111145, 6.666700, 28.793453
2979, 41.110813, 6.666700, 1.916890
2980, 18.888912, 6.666700, 78.830482
2981, 20.000025, 6.666700, 76.905983
2982, 18.888912, 6.666700, 74.981483
2983, 20.000025, 6.666700, 73.056976
2984, 17.777802, 6.666700, 30.717953
2985, 15.555580, 6.666700, 30.717955
2986, 20.000025, 6.666700, 34.566956
2987, 4.145171, 6.666700, 26.808174
2988, 35.555588, 6.666700, 38.415958
2989, 55.555592, 6.666700, 23.019949
2990, 15.555580, 6.666700, 26.868952
2991, 4.137744, 6.666700, 73.164909
2992, 30.000015, 6.666700, 98.075500
2993, 28.888906, 6.666700, 96.150993
2994, 31.111134, 6.666700, 96.150993
2995, 22.222248, 6.666700, 38.415958
2996, 59.990643, 6.666700, 73.062401
2997, 61.109577, 6.666700, 71.133377
2998, 62.580940, 6.666700, 73.194588
2999, 63.186172, 6.666700, 71.148102
3000, 62.565380, 6.666700, 69.071121
3001, 8.888946, 6.666700, 34.566971
3002, 59.988953, 6.666700, 65.365372
3003, 62.134827, 6.666700, 65.404297
3004, 57.776581, 6.666700, 57.660248
3005, 40.000031, 6.666700, 30.717955
3006, 28.888916, 6.666700, 76.905983
3007, 61.122601, 6.666700, 48.039379
3008, 63.337242, 6.666700, 48.015980
3009, 63.339584, 6.666700, 51.960285
3010, 64.585289, 6.666700, 54.155815
3011, 55.555588, 6.666700, 53.811966
3012, 13.333356, 6.666700, 73.056976
3013, 14.444468, 6.666700, 71.132477
3014, 54.444477, 6.666700, 51.887466
3015, 51.111141, 6.666700, 76.905983
3016, 52.222252, 6.666700, 74.981483
3017, 6.668292, 6.666700, 61.509048
3018, 8.889180, 6.666700, 61.509815
3019, 5.555582, 6.666700, 44.189461
3020, 31.111139, 6.666700, 46.113964
3021, 60.056961, 6.666700, 69.185318
3022, 61.111145, 6.666700, 67.283478
3023, 30.000027, 6.666700, 13.397442
3024, 31.111139, 6.666700, 15.321943
3025, 16.666689, 6.666700, 82.679482
3026, 36.666695, 6.666700, 48.038464
3027, 44.444473, 6.666700, 88.452988
3028, 61.991871, 6.666700, 61.722084
3029, 32.222252, 6.666700, 13.397442
3030, 32.222252, 6.666700, 17.246445
3031, 26.666693, 6.666700, 53.811970
3032, 53.333366, 6.666700, 46.113964
3033, 31.111137, 6.666700, 53.811970
3034, 30.000027, 6.666700, 55.736469
3035, 35.555584, 6.666700, 80.754982
3036, 34.444462, 6.666700, 98.075500
3037, 26.666693, 6.666700, 76.905983
3038, 27.777803, 6.666700, 32.642456
3039, 28.888916, 6.666700, 34.566956
3040, 37.777805, 6.666700, 84.603989
3041, 18.888914, 6.666700, 51.887466
3042, 16.666693, 6.666700, 51.887466
3043, 17.777803, 6.666700, 53.811966
3044, 15.555581, 6.666700, 53.811966
3045, 14.444470, 6.666700, 55.736469
3046, 15.555581, 6.666700, 57.660969
3047, 24.444471, 6.666700, 61.509972
3048, 23.333359, 6.666700, 59.585472
3049, 22.222248, 6.666700, 61.509972
3050, 24.444469, 6.666700, 69.207977
3051, 57.776630, 6.666700, 11.472259
3052, 26.666693, 6.666700, 46.113964
3053, 24.444469, 6.666700, 46.113964
3054, 42.222252, 6.666700, 61.509972
3055, 30.000027, 6.666700, 40.340462
3056, 17.777803, 6.666700, 65.358971
3057, 6.632145, 6.666700, 49.981667
3058, 47.777809, 6.666700, 40.340458
3059, 58.880383, 6.666700, 55.731285
3060, 25.555582, 6.666700, 28.793453
3061, 37.777809, 6.666700, 23.019949
3062, 13.333359, 6.666700, 57.660969
3063, 8.891638, 6.666700, 84.605644
3064, 13.333392, 6.666700, 53.811989
3065, 35.555584, 6.666700, 61.509972
3066, 32.222252, 6.666700, 24.944450
3067, 32.222252, 6.666700, 28.793453
3068, 35.555584, 6.666700, 73.056976
3069, 30.000027, 6.666700, 63.434475
3070, 53.333366, 6.666700, 15.321944
3071, 34.444473, 6.666700, 17.246445
3072, 53.333282, 6.666700, 42.264957
3073, 40.000027, 6.666700, 69.207977
3074, 40.000031, 6.666700, 53.811966
3075, 57.775963, 6.666700, 65.360039
3076, 34.444473, 6.666700, 78.830482
3077, 54.444477, 6.666700, 32.642456
3078, 22.222248, 6.666700, 26.868952
3079, 1.924501, 6.666700, 43.333332
3080, 64.742203, 6.666700, 43.333332
3081, 2.077046, 6.666700, 54.207275
3082, 64.568237, 6.666700, 38.681026
3083, 37.777805, 6.666700, 65.358978
3084, 8.890476, 6.666700, 76.906883
3085, 42.222252, 6.666700, 57.660969
3086, 61.941708, 6.666700, 80.550079
3087, 24.444471, 6.666700, 53.811970
3088, 54.444477, 6.666700, 44.189461
3089, 35.555588, 6.666700, 42.264961
3090, 46.666698, 6.666700, 42.264961
3091, 27.777805, 6.666700, 48.038464
3092, 30.000027, 6.666700, 48.038464
3093, 42.222248, 6.666700, 73.056976
3094, 40.000031, 6.666700, 57.660969
3095, 46.666698, 6.666700, 61.509972
3096, 56.666492, 6.666700, 59.585350
3097, 46.666698, 6.666700, 49.962963
3098, 8.889617, 6.666700, 88.453690
3099, 64.428146, 6.666700, 65.474648
3100, 1.924501, 6.666700, 58.888889
3101, 2.147183, 6.666700, 34.471508
3102, 1.961731, 6.666700, 39.032417
3103, 37.777809, 6.666700, 11.472940
3104, 28.888916, 6.666700, 88.452988
3105, 30.000027, 6.666700, 74.981483
3106, 12.222287, 6.666700, 55.736492
3107, 56.666698, 6.666700, 51.887466
3108, 64.742203, 6.666700, 27.777779
3109, 41.111145, 6.666700, 48.038464
3110, 48.888920, 6.666700, 49.962963
3111, 51.111145, 6.666700, 57.660969
3112, 26.666693, 6.666700, 84.603989
3113, 28.888916, 6.666700, 84.603989
3114, 47.777809, 6.666700, 44.189461
3115, 23.333357, 6.666700, 90.377495
3116, 17.777802, 6.666700, 34.566956
3117, 22.222248, 6.666700, 19.170946
3118, 55.555588, 6.666700, 46.113964
3119, 30.000027, 6.666700, 24.944450
3120, 48.888924, 6.666700, 34.566956
3121, 11.111060, 6.666700, 46.114033
3122, 25.555582, 6.666700, 74.981483
3123, 25.555580, 6.666700, 32.642456
3124, 16.666687, 6.666700, 48.038471
3125, 1.924501, 6.666700, 70.000000
3126, 45.555588, 6.666700, 51.887466
3127, 35.555584, 6.666700, 49.962967
3128, 52.222256, 6.666700, 63.434471
3129, 23.333359, 6.666700, 28.793453
3130, 1.961281, 6.666700, 74.394821
3131, 51.111137, 6.666700, 88.452988
3132, 21.111137, 6.666700, 59.585472
3133, 64.428284, 6.666700, 76.771759
3134, 64.933174, 6.666700, 81.183029
3135, 14.444322, 6.666700, 9.548524
3136, 23.333359, 6.666700, 67.283478
3137, 51.111141, 6.666700, 73.056976
3138, 53.333363, 6.666700, 73.056976
3139, 37.777809, 6.666700, 53.811966
3140, 1.924501, 6.666700, 27.777779
3141, 2.023429, 6.666700, 23.264189
3142, 14.444469, 6.666700, 63.434471
3143, 50.000034, 6.666700, 24.944450
3144, 54.444477, 6.666700, 71.132477
3145, 50.000034, 6.666700, 55.736469
3146, 20.000027, 6.666700, 42.264961
3147, 64.708313, 6.666700, 25.588770
3148, 17.777803, 6.666700, 38.415958
3149, 38.888920, 6.666700, 24.944450
3150, 45.555588, 6.666700, 21.095448
3151, 14.444467, 6.666700, 78.830482
3152, 12.222278, 6.666700, 67.283470
3153, 32.222252, 6.666700, 32.642456
3154, 11.111153, 6.666700, 26.868944
3155, 51.111145, 6.666700, 65.358971
3156, 31.111139, 6.666700, 7.623937
3157, 38.882744, 6.666700, 5.709174
3158, 1.957037, 6.666700, 83.358185
3159, 22.222248, 6.666700, 57.660969
3160, 64.707878, 6.666700, 16.624529
3161, 16.666693, 6.666700, 63.434471
3162, 13.333333, 6.666700, 11.472955
3163, 56.666515, 6.666700, 21.095367
3164, 45.555588, 6.666700, 67.283478
3165, 53.333363, 6.666700, 92.301994
3166, 57.776096, 6.666700, 23.018990
3167, 26.666693, 6.666700, 7.623937
3168, 38.888920, 6.666700, 48.038464
3169, 38.888920, 6.666700, 13.397442
3170, 47.777809, 6.666700, 55.736469
3171, 33.332626, 6.666700, 7.630248
3172, 7.776173, 6.666700, 94.226257
3173, 22.222246, 6.666700, 80.754982
3174, 64.393341, 6.666700, 92.261009
3175, 38.888916, 6.666700, 90.377495
3176, 43.333366, 6.666700, 5.699436
3177, 27.777803, 6.666700, 82.679489
3178, 43.333363, 6.666700, 24.944450
3179, 34.444473, 6.666700, 28.793453
3180, 45.555588, 6.666700, 44.189461
3181, 56.666306, 6.666700, 78.830254
3182, 10.001715, 6.666700, 86.529587
3183, 55.555576, 6.666700, 96.151039
3184, 52.222256, 6.666700, 67.283478
3185, 22.222246, 6.666700, 88.452988
3186, 61.119877, 6.666700, 36.507263
3187, 24.444471, 6.666700, 57.660969
3188, 8.889456, 6.666700, 80.755264
3189, 25.555582, 6.666700, 67.283478
3190, 50.000034, 6.666700, 9.548440
3191, 12.222248, 6.666700, 51.887466
3192, 14.444470, 6.666700, 44.189465
3193, 36.666695, 6.666700, 78.830482
3194, 13.333316, 6.666700, 46.114006
3195, 33.333359, 6.666700, 88.452988
3196, 57.777809, 6.666700, 84.603981
3197, 7.780586, 6.666700, 78.831886
3198, 11.111134, 6.666700, 19.170944
3199, 18.888914, 6.666700, 13.397442
3200, 47.777813, 6.666700, 13.397443
3201, 25.555582, 6.666700, 55.736469
3202, 53.333355, 6.666700, 38.415958
3203, 51.111145, 6.666700, 69.207977
3204, 13.333359, 6.666700, 42.264961
3205, 55.555576, 6.666700, 38.415958
3206, 46.666698, 6.666700, 57.660969
3207, 40.000031, 6.666700, 23.019949
3208, 52.222256, 6.666700, 9.548440
3209, 14.444470, 6.666700, 51.887466
3210, 21.111135, 6.666700, 17.246445
3211, 40.000031, 6.666700, 11.472940
3212, 16.666689, 6.666700, 78.830482
3213, 56.666702, 6.666700, 5.699438
3214, 26.666693, 6.666700, 69.207977
3215, 30.000027, 6.666700, 82.679489
3216, 45.555588, 6.666700, 59.585468
3217, 44.444477, 6.666700, 42.264961
3218, 43.333366, 6.666700, 13.397442
3219, 15.555581, 6.666700, 65.358971
3220, 10.000249, 6.666700, 40.340332
3221, 44.444477, 6.666700, 11.472940
3222, 15.555559, 6.666700, 49.962990
3223, 30.000027, 6.666700, 36.491459
3224, 11.111398, 6.666700, 38.415810
3225, 40.000031, 6.666700, 84.603989
3226, 33.333363, 6.666700, 19.170946
3227, 33.333359, 6.666700, 57.660969
3228, 27.777805, 6.666700, 55.736469
3229, 21.111135, 6.666700, 90.377487
3230, 43.333366, 6.666700, 40.340458
3231, 28.888916, 6.666700, 57.660969
3232, 42.222252, 6.666700, 23.019949
3233, 23.333359, 6.666700, 17.246445
3234, 31.111139, 6.666700, 19.170946
3235, 37.777805, 6.666700, 92.301994
3236, 31.111137, 6.666700, 57.660969
3237, 13.333354, 6.666700, 88.452988
3238, 7.779403, 6.666700, 36.490570
3239, 37.777805, 6.666700, 80.754982
3240, 41.111141, 6.666700, 40.340458
3241, 12.222364, 6.666700, 9.548540
3242, 46.666698, 6.666700, 19.170946
3243, 14.444474, 6.666700, 67.283478
3244, 17.777800, 6.666700, 88.452988
3245, 16.666689, 6.666700, 90.377487
3246, 16.666691, 6.666700, 71.132477
3247, 46.666698, 6.666700, 34.566956
3248, 18.888914, 6.666700, 71.132477
3249, 10.000025, 6.666700, 71.132477
3250, 26.666693, 6.666700, 19.170946
3251, 23.333359, 6.666700, 48.038464
3252, 30.000027, 6.666700, 17.246445
3253, 13.333394, 6.666700, 69.207970
3254, 52.222256, 6.666700, 71.132477
3255, 31.111137, 6.666700, 84.603989
3256, 38.888916, 6.666700, 82.679489
3257, 27.777803, 6.666700, 36.491459
3258, 43.333363, 6.666700, 21.095448
3259, 28.888916, 6.666700, 69.207977
3260, 38.888920, 6.666700, 40.340458
3261, 46.666698, 6.666700, 11.472941
3262, 30.000027, 6.666700, 86.528488
3263, 33.333359, 6.666700, 61.509972
3264, 15.555598, 6.666700, 23.019938
3265, 13.332579, 6.666700, 7.624711
3266, 54.444477, 6.666700, 74.981476
3267, 31.111137, 6.666700, 88.452988
3268, 14.437849, 6.666700, 5.710145
3269, 25.555582, 6.666700, 17.246445
3270, 48.888916, 6.666700, 73.056984
3271, 47.777813, 6.666700, 9.548440
3272, 34.444473, 6.666700, 63.434475
3273, 52.222240, 6.666700, 78.830475
3274, 30.000027, 6.666700, 90.377495
3275, 22.222248, 6.666700, 15.321943
3276, 42.222252, 6.666700, 76.905983
3277, 31.111137, 6.666700, 92.301994
3278, 43.333363, 6.666700, 59.585472
3279, 12.222358, 6.666700, 21.095381
3280, 51.111145, 6.666700, 7.623939
3281, 21.111135, 6.666700, 13.397442
3282, 52.222260, 6.666700, 5.699438
3283, 35.555584, 6.666700, 65.358978
3284, 36.666695, 6.666700, 67.283478
3285, 37.777805, 6.666700, 69.207977
3286, 22.222248, 6.666700, 11.472940
3287, 7.778142, 6.666700, 59.585308
3288, 22.222248, 6.666700, 46.113964
3289, 45.555584, 6.666700, 82.679489
3290, 44.444473, 6.666700, 76.905983
3291, 45.555588, 6.666700, 32.642456
3292, 21.110107, 6.666700, 9.550062
3293, 38.888916, 6.666700, 71.132477
3294, 53.333351, 6.666700, 76.905975
3295, 22.221636, 6.666700, 7.631202
3296, 42.222256, 6.666700, 34.566956
3297, 41.111141, 6.666700, 32.642456
3298, 40.000027, 6.666700, 73.056976
3299, 23.333359, 6.666700, 44.189465
3300, 12.222246, 6.666700, 71.132477
3301, 22.222248, 6.666700, 42.264961
3302, 41.111137, 6.666700, 74.981483
3303, 21.111137, 6.666700, 40.340462
3304, 20.000025, 6.666700, 38.415958
3305, 18.888914, 6.666700, 36.491459
3306, 15.555581, 6.666700, 34.566959
3307, 45.555584, 6.666700, 78.830482
3308, 16.666691, 6.666700, 32.642456
3309, 13.333359, 6.666700, 30.717955
3310, 44.444473, 6.666700, 80.754982
3311, 14.444479, 6.666700, 21.095440
3312, 14.444469, 6.666700, 28.793453
3313, 13.333377, 6.666700, 26.868942
3314, 47.777805, 6.666700, 82.679489
3315, 14.444510, 6.666700, 24.944427
3316, 36.666698, 6.666700, 40.340462
3317, 50.000027, 6.666700, 94.226494
3318, 46.666691, 6.666700, 96.150993
3319, 48.888920, 6.666700, 84.603989
3320, 43.333363, 6.666700, 94.226494
3321, 47.777805, 6.666700, 86.528488
3322, 42.222248, 6.666700, 96.150993
3323, 38.888916, 6.666700, 94.226494
3324, 36.666687, 6.666700, 98.075500
3325, 48.888920, 6.666700, 88.452988
3326, 33.333359, 6.666700, 96.150993
3327, 5.572006, 6.666700, 98.085106
3328, 47.777805, 6.666700, 94.226494
3329, 6.669646, 6.666700, 96.153664
3330, 50.000031, 6.666700, 90.377487
3331, 10.000013, 6.666700, 98.075493
3332, 51.111141, 6.666700, 92.301994
3333, 13.333350, 6.666700, 96.150993
3334, 16.666679, 6.666700, 98.075500
3335, 17.777798, 6.666700, 96.150993
3336, 21.111124, 6.666700, 98.075500
3337, 22.222240, 6.666700, 96.150993
3338, 25.555571, 6.666700, 98.075500
3339, 27.777803, 6.666700, 94.226494
3340, 30.000023, 6.666700, 94.226494
3341, 37.777802, 6.666700, 96.150993
3342, 2.046457, 6.666700, 96.380234
3343, 26.666687, 6.666700, 96.150993
3344, 12.222235, 6.666700, 98.075493
3345, 6.662966, 6.666700, 53.822784
3346, 62.264145, 6.666700, 3.797924
3347, 2.103596, 6.666700, 18.944338
3348, 64.670952, 6.666700, 3.610738
3349, 4.418402, 6.666700, 7.665849
3350, 7.799164, 6.666700, 5.718210
3351, 8.903481, 6.666700, 3.801327
3352, 34.429489, 6.666700, 1.907542
3353, 33.319645, 6.666700, 3.825291
3354, 37.772297, 6.666700, 3.804345
3355, 18.886095, 6.666700, 5.724236
3356, 13.330802, 6.666700, 3.802627
3357, 60.012344, 6.666700, 3.810708
3358, 57.779861, 6.666700, 3.811760
3359, 55.555931, 6.666700, 3.811935
3360, 53.333424, 6.666700, 3.811965
3361, 51.111149, 6.666700, 3.811971
3362, 48.888924, 6.666700, 3.811972
3363, 46.666702, 6.666700, 3.811972
3364, 44.444477, 6.666700, 3.811972
3365, 42.222256, 6.666700, 3.811972
3366, 39.997398, 6.666700, 3.808478
3367, 36.659679, 6.666700, 1.904475
3368, 27.777805, 6.666700, 5.736474
3369, 30.000027, 6.666700, 5.736474
3370, 25.555582, 6.666700, 5.736474
3371, 23.333359, 6.666700, 5.736474
3372, 21.108900, 6.666700, 5.734548
3373, 17.777800, 6.666700, 3.811972
3374, 15.553067, 6.666700, 3.808418
3375, 12.221677, 6.666700, 1.893301
3376, 32.220997, 6.666700, 5.734138
3377, 10.002275, 6.666700, 1.896170
3378, 5.555558, 6.666700, 5.736463
3379, 65.034698, 6.666700, 61.071266
3380, 64.818069, 6.666700, 96.686752
3381, 64.794426, 6.666700, 87.729950
3382, 64.816132, 6.666700, 69.944084
3383, 64.818085, 6.666700, 72.310455
3384, 3.304708, 6.666700, 13.530968
3385, 63.262516, 6.666700, 13.186428
3386, 3.628586, 6.666700, 86.662849
3387, 3.610626, 6.666700, 28.883015
3388, 63.078735, 6.666700, 28.885458
3389, 3.563867, 6.666700, 71.114128
3390, 64.830368, 6.666700, 85.421806
3391, 63.097610, 6.666700, 55.876495
3392, 3.625816, 6.666700, 44.342251
3393, 63.033260, 6.666700, 44.346474
3394, 3.610595, 6.666700, 55.646198
3395, 3.622795, 6.666700, 40.173355
3396, 63.010948, 6.666700, 40.162521
3397, 3.634031, 6.666700, 59.800827
3398, 3.640895, 6.666700, 82.456322
3399, 63.146076, 6.666700, 82.037056
3400, 65.112434, 6.666700, 58.888889
3401, 3.657155, 6.666700, 24.757507
3402, 63.004738, 6.666700, 24.695229
3403, 63.016254, 6.666700, 17.496542
3404, 3.665663, 6.666700, 75.259514
3405, 62.985653, 6.666700, 75.228500
3406, 1.605238, 6.666700, 16.642641
3407, 3.681732, 6.666700, 67.003418
3408, 62.988960, 6.666700, 67.015022
3409, 1.507985, 6.666700, 32.222221
3410, 65.165436, 6.666700, 32.257378
3411, 62.980270, 6.666700, 90.680534
3412, 1.487112, 6.666700, 47.803787
3413, 65.175026, 6.666700, 47.777779
3414, 1.488619, 6.666700, 94.444435
3415, 1.488608, 6.666700, 5.555558
3416, 1.508411, 6.666700, 63.346329
3417, 1.482005, 6.666700, 78.888885
3418, 65.185181, 6.666700, 21.111111
3419, 62.954956, 6.666700, 93.970070
3420, 3.682063, 6.666700, 36.156994
3421, 62.934494, 6.666700, 63.664761
3422, 62.930878, 6.666700, 78.598106
3423, 3.642296, 6.666700, 20.915859
3424, 65.221191, 6.666700, 52.181793
3425, 1.446080, 6.666700, 52.146076
3426, 1.490991, 6.666700, 90.146156
3427, 1.559090, 6.666700, 9.737085
3428, 65.122971, 6.666700, 9.742393
3429, 65.270424, 6.666700, 36.648823
3430, 65.251526, 6.666700, 5.604547
3431, 1.626781, 6.666700, 1.626780
3432, 1.626781, 6.666700, 98.373222
3433, 65.039917, 6.666700, 1.626780
3434, 65.039917, 6.666700, 98.373222
3435, 63.798676, 6.666700, 57.965816
3436, 2.917538, 6.666700, 15.449260
3437, 1.461275, 6.666700, 12.781436
3438, 65.127502, 6.666700, 12.792270
3439, 63.589958, 6.666700, 80.150665
3440, 63.621292, 6.666700, 61.907825
3441, 0.000000, 4.796149, 72.205849
3442, 0.000000, 4.796149, 78.905266
3443, 0.000000, 4.742199, 87.777779
3444, 0.000000, 1.924501, 94.444443
3445, 0.000000, 1.924501, 83.333336
3446, 0.000000, 1.704216, 16.711605
3447, 0.000000, 4.778522, 21.048197
3448, 0.000000, 4.742199, 10.000000
3449, 0.000000, 4.742199, 25.555555
3450, 0.000000, 4.742199, 30.000000
3451, 0.000000, 4.742199, 34.444443
3452, 0.000000, 4.742199, 5.555555
3453, 0.000000, 4.742199, 67.777779
3454, 0.000000, 1.924501, 54.444443
3455, 0.000000, 4.778522, 45.618469
3456, 0.000000, 4.742199, 58.888889
3457, 0.000000, 1.924501, 38.888889
3458, 0.000000, 1.870551, 50.016376
3459, 0.000000, 1.924501, 63.333332
3460, 0.000000, 3.333350, 97.915108
3461, 0.000000, 3.333350, 2.084890
3462, 0.000000, 1.837604, 76.666664
3463, 0.000000, 1.924501, 70.000000
3464, 0.000000, 4.742199, 52.222221
3465, 0.000000, 1.924501, 90.000000
3466, 0.000000, 4.742199, 14.444445
3467, 0.000000, 1.924501, 12.222222
3468, 0.000000, 1.924501, 27.777779
3469, 0.000000, 4.742199, 41.111111
3470, 0.000000, 1.924501, 7.777778
3471, 0.000000, 1.704216, 23.288395
3472, 0.000000, 1.924501, 32.222221
3473, 0.000000, 1.704216, 43.378273
3474, 0.000000, 4.742199, 92.222221
3475, 0.000000, 4.742199, 83.333336
3476, 0.000000, 1.924501, 58.888889
3477, 0.000000, 4.742199, 63.333332
3478, 0.000000, 1.823122, 74.444443
3479, 0.000000, 3.847512, 75.555557
3480, 0.000000, 4.742199, 70.000000
3481, 0.000000, 1.924501, 87.777779
3482, 0.000000, 1.924501, 52.222221
3483, 0.000000, 1.924501, 81.111115
3484, 0.000000, 1.924501, 65.555557
3485, 0.000000, 1.848481, 41.113842
3486, 0.000000, 4.870519, 43.406734
3487, 0.000000, 4.742199, 65.555557
3488, 0.000000, 4.742199, 50.000000
3489, 0.000000, 4.742199, 27.777779
3490, 0.000000, 4.742199, 85.555557
3491, 0.000000, 1.924501, 85.555557
3492, 0.000000, 1.924501, 61.111111
3493, 0.000000, 4.742199, 38.888889
3494, 0.000000, 4.835149, 47.788265
3495, 0.000000, 3.183012, 46.804729
3496, 0.000000, 4.784576, 18.941317
3497, 0.000000, 3.073437, 19.998253
3498, 0.000000, 1.924501, 34.444443
3499, 0.000000, 4.871528, 16.738319
3500, 0.000000, 4.742199, 81.111115
3501, 0.000000, 1.924501, 30.000000
3502, 0.000000, 1.924501, 36.666668
3503, 0.000000, 1.848481, 14.447174
3504, 0.000000, 4.742199, 7.777778
3505, 0.000000, 1.924501, 10.000000
3506, 0.000000, 4.742199, 12.222222
3507, 0.000000, 4.742199, 54.444443
3508, 0.000000, 4.742199, 61.111111
3509, 0.000000, 1.924501, 5.555555
3510, 0.000000, 4.870519, 23.259933
3511, 0.000000, 1.848481, 25.552826
3512, 0.000000, 4.742199, 32.222221
3513, 0.000000, 4.742199, 94.444443
3514, 0.000000, 4.742199, 36.666668
3515, 0.000000, 1.924501, 67.777779
3516, 0.000000, 4.742199, 90.000000
3517, 0.000000, 4.742199, 56.666668
3518, 0.000000, 1.924501, 56.666668
3519, 0.000000, 1.875111, 72.222221
3520, 0.000000, 1.924501, 92.222221
3521, 0.000000, 1.875740, 78.888885
3522, 0.000000, 4.963702, 96.601677
3523, 0.000000, 1.702998, 96.601677
3524, 0.000000, 4.963702, 3.398325
3525, 0.000000, 1.702998, 3.398325
3526, 0.000000, 5.060937, 73.996727
3527, 0.000000, 3.195038, 17.805656
3528, 0.000000, 5.060937, 77.114388
3529, 0.000000, 3.193861, 22.191723
3530, 0.000000, 3.212124, 44.497665
3531, 0.000000, 1.632627, 47.803516
3532, 0.000000, 3.333350, 88.888885
3533, 0.000000, 3.282104, 24.419184
3534, 0.000000, 3.333350, 33.333332
3535, 0.000000, 3.333350, 37.777779
3536, 0.000000, 3.333350, 53.333332
3537, 0.000000, 3.333350, 91.111115
3538, 0.000000, 3.333350, 55.555557
3539, 0.000000, 3.333350, 84.444443
3540, 0.000000, 3.333350, 35.555557
3541, 0.000000, 3.282469, 15.580089
3542, 0.000000, 3.333350, 82.222221
3543, 0.000000, 3.333350, 11.111111
3544, 0.000000, 3.333350, 68.888885
3545, 0.000000, 3.333350, 6.666667
3546, 0.000000, 3.322559, 13.335651
3547, 0.000000, 3.322528, 26.664286
3548, 0.000000, 3.333350, 31.111111
3549, 0.000000, 3.333350, 8.888889
3550, 0.000000, 3.333350, 57.777779
3551, 0.000000, 3.333350, 86.666664
3552, 0.000000, 3.285148, 42.251270
3553, 0.000000, 3.333350, 66.666664
3554, 0.000000, 3.333350, 64.444443
3555, 0.000000, 3.322787, 40.002701
3556, 0.000000, 3.333350, 80.000000
3557, 0.000000, 3.333350, 62.222221
3558, 0.000000, 3.333350, 93.333336
3559, 0.000000, 3.331546, 28.888493
3560, 0.000000, 3.333350, 60.000000
3561, 0.000000, 3.333350, 51.111111
3562, 0.000000, 3.333350, 71.111115
3563, 0.000000, 3.394422, 77.817245
3564, 0.000000, 3.374419, 73.305145
3565, 0.000000, 3.339077, 48.888889
3566, 0.000000, 1.461182, 21.106422
3567, 0.000000, 1.523972, 18.896791
3568, 0.000000, 1.621996, 45.599216
3569, 0.000000, 3.333350, 4.452710
3570, 0.000000, 3.333350, 95.556778
3571, 0.000000, 1.626790, 98.373215
3572, 0.000000, 5.039910, 1.626787
3573, 0.000000, 5.039910, 98.373215
3574, 0.000000, 1.626790, 1.626787
3575, 5.555558, 4.742198, 0.000000
3576, 61.111141, 1.924502, 0.000000
3577, 52.238625, 1.870552, 0.000000
3578, 10.000005, 4.742198, 0.000000
3579, 14.444451, 4.742198, 0.000000
3580, 56.666695, 1.924502, 0.000000
3581, 21.111122, 4.742198, 0.000000
3582, 45.600517, 1.704216, 0.000000
3583, 41.111130, 1.924502, 0.000000
3584, 27.714878, 4.778522, 0.000000
3585, 36.683064, 1.870552, 0.000000
3586, 32.222237, 4.829095, 0.000000
3587, 64.581810, 3.333350, 0.000000
3588, 2.084891, 3.333350, 0.000000
3589, 23.316967, 1.870552, 0.000000
3590, 50.000027, 4.829095, 0.000000
3591, 16.666676, 1.924502, 0.000000
3592, 58.888920, 4.742198, 0.000000
3593, 7.777781, 1.924502, 0.000000
3594, 54.444473, 4.742198, 0.000000
3595, 12.222228, 1.924502, 0.000000
3596, 43.333355, 4.742198, 0.000000
3597, 38.888908, 4.742198, 0.000000
3598, 29.874186, 1.580733, 0.000000
3599, 56.666695, 4.742198, 0.000000
3600, 52.222248, 4.790959, 0.000000
3601, 10.000005, 1.924502, 0.000000
3602, 14.444451, 1.924502, 0.000000
3603, 58.888920, 1.924502, 0.000000
3604, 43.336086, 1.848482, 0.000000
3605, 34.444462, 4.843578, 0.000000
3606, 33.333351, 2.823421, 0.000000
3607, 21.111122, 1.924502, 0.000000
3608, 45.618492, 4.864464, 0.000000
3609, 36.666683, 4.791588, 0.000000
3610, 16.666676, 4.742198, 0.000000
3611, 7.777781, 4.742198, 0.000000
3612, 18.888899, 1.924502, 0.000000
3613, 47.851200, 4.813382, 0.000000
3614, 49.026978, 3.187812, 0.000000
3615, 25.545082, 4.835149, 0.000000
3616, 26.528618, 3.183011, 0.000000
3617, 18.888899, 4.742198, 0.000000
3618, 38.888908, 1.924502, 0.000000
3619, 54.444473, 1.924502, 0.000000
3620, 41.111130, 4.742198, 0.000000
3621, 23.332890, 4.791222, 0.000000
3622, 12.222228, 4.742198, 0.000000
3623, 29.926615, 4.885955, 0.000000
3624, 5.555558, 1.924502, 0.000000
3625, 61.111141, 4.742198, 0.000000
3626, 63.268375, 4.963701, 0.000000
3627, 3.398326, 1.702999, 0.000000
3628, 63.268375, 1.702999, 0.000000
3629, 3.398326, 4.963701, 0.000000
3630, 34.892181, 1.606610, 0.000000
3631, 28.822203, 3.195070, 0.000000
3632, 50.025764, 1.633427, 0.000000
3633, 46.719910, 3.217724, 0.000000
3634, 25.529829, 1.632627, 0.000000
3635, 31.752628, 1.548646, 0.000000
3636, 57.777805, 3.333350, 0.000000
3637, 8.888893, 3.333350, 0.000000
3638, 6.666670, 3.333350, 0.000000
3639, 60.000031, 3.333350, 0.000000
3640, 53.333359, 3.333350, 0.000000
3641, 13.333340, 3.333350, 0.000000
3642, 55.555584, 3.333350, 0.000000
3643, 11.111116, 3.333350, 0.000000
3644, 15.555563, 3.333350, 0.000000
3645, 20.000010, 3.333350, 0.000000
3646, 44.471767, 3.285072, 0.000000
3647, 17.777786, 3.333350, 0.000000
3648, 22.222233, 3.333350, 0.000000
3649, 42.224796, 3.322780, 0.000000
3650, 40.000446, 3.331589, 0.000000
3651, 37.777798, 3.333350, 0.000000
3652, 31.066450, 3.267919, 0.000000
3653, 24.444456, 3.339077, 0.000000
3654, 47.821461, 1.623863, 0.000000
3655, 51.111137, 3.339077, 0.000000
3656, 27.718403, 1.598573, 0.000000
3657, 35.583763, 3.292590, 0.000000
3658, 4.443222, 3.333350, 0.000000
3659, 62.223476, 3.333350, 0.000000
3660, 65.039917, 1.626789, 0.000000
3661, 1.626787, 5.039911, 0.000000
3662, 1.626787, 1.626789, 0.000000
3663, 65.039917, 5.039911, 0.000000
3664, 5.555558, 4.742198, 100.000000
3665, 61.111141, 1.924502, 100.000000
3666, 52.238625, 1.870552, 100.000000
3667, 10.000005, 4.742198, 100.000000
3668, 14.444451, 4.742198, 100.000000
3669, 56.666695, 1.924502, 100.000000
3670, 21.111122, 4.742198, 100.000000
3671, 45.600517, 1.704216, 100.000000
3672, 27.714878, 4.778522, 100.000000
3673, 41.111130, 1.924502, 100.000000
3674, 36.683064, 1.870552, 100.000000
3675, 32.222237, 4.829095, 100.000000
3676, 64.581810, 3.333350, 100.000000
3677, 2.084891, 3.333350, 100.000000
3678, 23.316967, 1.870552, 100.000000
3679, 50.000027, 4.829095, 100.000000
3680, 16.666676, 1.924502, 100.000000
3681, 58.888920, 4.742198, 100.000000
3682, 7.777781, 1.924502, 100.000000
3683, 54.444473, 4.742198, 100.000000
3684, 12.222228, 1.924502, 100.000000
3685, 43.333355, 4.742198, 100.000000
3686, 38.888908, 4.742198, 100.000000
3687, 29.874186, 1.580733, 100.000000
3688, 56.666695, 4.742198, 100.000000
3689, 52.222248, 4.790959, 100.000000
3690, 10.000005, 1.924502, 100.000000
3691, 14.444451, 1.924502, 100.000000
3692, 58.888920, 1.924502, 100.000000
3693, 34.444462, 4.843578, 100.000000
3694, 33.333351, 2.823421, 100.000000
3695, 43.336086, 1.848482, 100.000000
3696, 21.111122, 1.924502, 100.000000
3697, 45.618492, 4.864464, 100.000000
3698, 36.666683, 4.791588, 100.000000
3699, 16.666676, 4.742198, 100.000000
3700, 7.777781, 4.742198, 100.000000
3701, 18.888899, 1.924502, 100.000000
3702, 47.851200, 4.813382, 100.000000
3703, 49.026978, 3.187812, 100.000000
3704, 25.545082, 4.835149, 100.000000
3705, 26.528618, 3.183011, 100.000000
3706, 18.888899, 4.742198, 100.000000
3707, 54.444473, 1.924502, 100.000000
3708, 41.111130, 4.742198, 100.000000
3709, 38.888908, 1.924502, 100.000000
3710, 23.332890, 4.791222, 100.000000
3711, 12.222228, 4.742198, 100.000000
3712, 29.926615, 4.885955, 100.000000
3713, 5.555558, 1.924502, 100.000000
3714, 61.111141, 4.742198, 100.000000
3715, 63.268375, 4.963701, 100.000000
3716, 3.398326, 1.702999, 100.000000
3717, 63.268375, 1.702999, 100.000000
3718, 3.398326, 4.963701, 100.000000
3719, 34.892181, 1.606610, 100.000000
3720, 28.822203, 3.195070, 100.000000
3721, 50.025764, 1.633427, 100.000000
3722, 46.719910, 3.217724, 100.000000
3723, 25.529829, 1.632627, 100.000000
3724, 31.752628, 1.548646, 100.000000
3725, 57.777805, 3.333350, 100.000000
3726, 8.888893, 3.333350, 100.000000
3727, 6.666670, 3.333350, 100.000000
3728, 60.000031, 3.333350, 100.000000
3729, 53.333359, 3.333350, 100.000000
3730, 13.333340, 3.333350, 100.000000
3731, 55.555584, 3.333350, 100.000000
3732, 11.111116, 3.333350, 100.000000
3733, 15.555563, 3.333350, 100.000000
3734, 20.000010, 3.333350, 100.000000
3735, 44.471767, 3.285072, 100.000000
3736, 17.777786, 3.333350, 100.000000
3737, 22.222233, 3.333350, 100.000000
3738, 42.224796, 3.322780, 100.000000
3739, 40.000446, 3.331589, 100.000000
3740, 37.777798, 3.333350, 100.000000
3741, 31.066450, 3.267919, 100.000000
3742, 24.444456, 3.339077, 100.000000
3743, 47.821461, 1.623863, 100.000000
3744, 51.111137, 3.339077, 100.000000
3745, 27.718403, 1.598573, 100.000000
3746, 35.583763, 3.292590, 100.000000
3747, 4.443222, 3.333350, 100.000000
3748, 62.223476, 3.333350, 100.000000
3749, 65.039917, 1.626789, 100.000000
3750, 1.626787, 5.039911, 100.000000
3751, 1.626787, 1.626789, 100.000000
3752, 65.039917, 5.039911, 100.000000
3753, 63.321632, 3.336900, 70.000000
3754, 3.345067, 3.329800, 70.000000
3755, 3.344509, 3.334625, 29.999800
3756, 59.994907, 3.333346, 10.192886
3757, 6.671794, 3.333354, 10.192886
3758, 21.111137, 3.333346, 12.114441
3759, 45.555565, 3.333354, 12.114441
3760, 15.555556, 3.333350, 43.547962
3761, 7.777777, 3.333350, 30.076454
3762, 56.666676, 3.333350, 12.114441
3763, 10.000023, 3.333350, 12.114441
3764, 15.555555, 3.333350, 25.585951
3765, 52.222252, 3.333350, 83.962486
3766, 14.444449, 3.333350, 83.962486
3767, 37.777794, 3.333350, 60.226978
3768, 28.888905, 3.333350, 60.226978
3769, 33.333351, 3.333350, 58.943966
3770, 38.888905, 3.333350, 64.717468
3771, 27.777794, 3.333350, 64.717468
3772, 50.000019, 3.333350, 76.264473
3773, 16.666681, 3.333350, 76.264473
3774, 24.444460, 3.333350, 71.773987
3775, 42.222240, 3.333350, 71.773987
3776, 51.111134, 3.333350, 62.792965
3777, 15.555568, 3.333350, 62.792965
3778, 51.111134, 3.333350, 58.943962
3779, 15.555568, 3.333350, 58.943962
3780, 34.444462, 3.333350, 49.321461
3781, 48.888908, 3.333350, 85.886978
3782, 17.777792, 3.333350, 85.886978
3783, 51.111134, 3.333350, 55.094959
3784, 15.555568, 3.333350, 55.094959
3785, 48.888908, 3.333350, 82.037979
3786, 17.777792, 3.333350, 82.037979
3787, 20.996367, 3.267839, 53.244431
3788, 45.555576, 3.333350, 53.170460
3789, 38.888905, 3.333350, 68.566467
3790, 27.777794, 3.333350, 68.566467
3791, 31.111128, 3.333350, 47.396957
3792, 44.444462, 3.333350, 48.679974
3793, 22.222237, 3.333350, 48.679974
3794, 46.666687, 3.333350, 44.830971
3795, 20.000015, 3.333350, 44.830971
3796, 32.222240, 3.333350, 76.264473
3797, 35.555573, 3.333350, 78.188972
3798, 28.888905, 3.333350, 78.188972
3799, 48.888908, 3.333350, 40.981968
3800, 24.444460, 3.333350, 75.622986
3801, 42.222240, 3.333350, 75.622986
3802, 32.222240, 3.333350, 80.113480
3803, 18.888901, 3.333350, 57.019463
3804, 47.777798, 3.333350, 57.019463
3805, 27.777794, 3.333350, 73.698486
3806, 38.888908, 3.333350, 73.698486
3807, 33.333351, 3.333350, 55.094963
3808, 20.000015, 3.333350, 40.981968
3809, 16.666681, 3.333350, 39.057468
3810, 40.000019, 3.333350, 79.471992
3811, 51.111130, 3.333350, 37.132965
3812, 14.444458, 3.333350, 35.208466
3813, 44.444462, 3.333350, 40.981968
3814, 33.333351, 3.333350, 64.075981
3815, 35.555573, 3.333350, 82.037979
3816, 54.444466, 3.333350, 60.868465
3817, 12.222235, 3.333350, 60.868465
3818, 53.333351, 3.333350, 33.283962
3819, 32.222240, 3.333350, 83.962479
3820, 35.555573, 3.333350, 70.490974
3821, 31.111128, 3.333350, 70.490974
3822, 11.111124, 3.333350, 33.283962
3823, 28.888905, 3.333350, 82.037979
3824, 25.555571, 3.333350, 80.113480
3825, 53.333351, 3.333350, 93.584991
3826, 13.333348, 3.333350, 93.584991
3827, 21.111126, 3.333350, 80.113480
3828, 45.555573, 3.333350, 80.113480
3829, 27.777792, 3.333350, 27.510458
3830, 38.888908, 3.333350, 27.510458
3831, 35.555573, 3.333350, 85.886978
3832, 52.222240, 3.333350, 87.811485
3833, 14.444459, 3.333350, 87.811485
3834, 56.666687, 3.333350, 31.359463
3835, 44.444466, 3.333350, 29.434959
3836, 22.222235, 3.333350, 29.434959
3837, 32.222240, 3.333350, 87.811485
3838, 35.555573, 3.333350, 89.735985
3839, 25.555569, 3.333350, 37.774452
3840, 41.111130, 3.333350, 37.774452
3841, 28.888905, 3.333350, 85.886978
3842, 24.444458, 3.333350, 25.585958
3843, 42.222240, 3.333350, 25.585958
3844, 38.888905, 3.333350, 83.962479
3845, 30.000017, 3.333350, 91.660484
3846, 41.111130, 3.333350, 87.811485
3847, 25.555571, 3.333350, 87.811485
3848, 17.777790, 3.333350, 89.735985
3849, 48.888908, 3.333350, 89.735985
3850, 45.555576, 3.333350, 87.811485
3851, 21.111126, 3.333350, 87.811485
3852, 27.777792, 3.333350, 23.661457
3853, 38.888908, 3.333350, 23.661457
3854, 35.555573, 3.333350, 25.585958
3855, 31.111128, 3.333350, 25.585958
3856, 25.555571, 3.333350, 83.962479
3857, 35.555573, 3.333350, 29.434959
3858, 31.111128, 3.333350, 29.434959
3859, 10.000012, 3.333350, 18.529438
3860, 56.666687, 3.333350, 18.529438
3861, 21.111124, 3.333350, 35.208466
3862, 45.555576, 3.333350, 35.208466
3863, 24.444458, 3.333350, 21.736956
3864, 42.222240, 3.333350, 21.736956
3865, 35.555573, 3.333350, 21.736956
3866, 31.111128, 3.333350, 21.736956
3867, 52.222244, 3.333350, 15.963451
3868, 14.444455, 3.333350, 15.963451
3869, 38.888908, 3.333350, 91.660484
3870, 18.888901, 3.333350, 15.963451
3871, 47.777798, 3.333350, 15.963451
3872, 23.333347, 3.333350, 42.906467
3873, 42.222244, 3.333350, 33.283962
3874, 24.444458, 3.333350, 33.283962
3875, 14.444458, 3.333350, 31.359463
3876, 27.777792, 3.333350, 19.812454
3877, 38.888908, 3.333350, 19.812454
3878, 43.333351, 3.333350, 83.962479
3879, 41.111130, 3.333350, 50.604473
3880, 25.555571, 3.333350, 50.604473
3881, 21.111126, 3.333350, 83.962479
3882, 42.222240, 3.333350, 17.887953
3883, 24.444458, 3.333350, 17.887953
3884, 24.444460, 3.333350, 62.792969
3885, 42.222240, 3.333350, 62.792969
3886, 46.666687, 3.333350, 24.302944
3887, 20.000015, 3.333350, 24.302944
3888, 21.111126, 3.333350, 73.698486
3889, 45.555576, 3.333350, 73.698486
3890, 17.777790, 3.333350, 29.434959
3891, 48.888908, 3.333350, 29.434959
3892, 35.555573, 3.333350, 17.887953
3893, 31.111126, 3.333350, 17.887953
3894, 42.222240, 3.333350, 66.641968
3895, 24.444460, 3.333350, 66.641968
3896, 46.666687, 3.333350, 20.453939
3897, 20.000013, 3.333350, 20.453939
3898, 33.333351, 3.333350, 33.283962
3899, 25.555571, 3.333350, 91.660484
3900, 42.222240, 3.333350, 55.094963
3901, 24.444458, 3.333350, 55.094963
3902, 37.777794, 3.333350, 55.094963
3903, 28.888905, 3.333350, 55.094963
3904, 28.888903, 3.333350, 14.038949
3905, 37.777798, 3.333350, 14.038949
3906, 24.444458, 3.333350, 14.038949
3907, 42.222244, 3.333350, 14.038949
3908, 33.333351, 3.333350, 14.038949
3909, 42.222240, 3.333350, 58.943966
3910, 24.444460, 3.333350, 58.943966
3911, 43.333351, 3.333350, 91.660484
3912, 33.333351, 3.333350, 10.189946
3913, 17.777790, 3.333350, 66.641968
3914, 48.888908, 3.333350, 66.641968
3915, 40.000019, 3.333350, 10.189946
3916, 26.666679, 3.333350, 10.189946
3917, 27.777792, 3.333350, 31.359461
3918, 38.888908, 3.333350, 31.359461
3919, 17.777790, 3.333350, 33.283962
3920, 48.888908, 3.333350, 33.283962
3921, 21.111126, 3.333350, 68.566467
3922, 45.555573, 3.333350, 68.566467
3923, 52.222233, 3.333347, 80.113480
3924, 14.444467, 3.333353, 80.113480
3925, 42.222240, 3.333350, 44.830971
3926, 35.555573, 3.333350, 44.830971
3927, 18.888903, 3.333350, 60.868465
3928, 47.777798, 3.333350, 60.868465
3929, 21.111124, 3.333350, 91.660484
3930, 12.222222, 3.333346, 57.019470
3931, 54.444477, 3.333354, 57.019470
3932, 33.333351, 3.333350, 93.584991
3933, 46.666687, 3.333350, 93.584991
3934, 17.777779, 3.333346, 51.245964
3935, 48.888920, 3.333354, 51.245964
3936, 37.777798, 3.333350, 39.698952
3937, 28.888903, 3.333350, 39.698952
3938, 52.222248, 3.333352, 19.812450
3939, 14.444450, 3.333348, 19.812450
3940, 34.444462, 3.333350, 37.774452
3941, 17.777792, 3.333350, 93.584991
3942, 31.111128, 3.333350, 51.245960
3943, 45.555576, 3.333350, 64.717468
3944, 21.111124, 3.333350, 64.717468
3945, 30.000015, 3.333350, 35.208462
3946, 56.666687, 3.333350, 73.698486
3947, 10.000013, 3.333350, 73.698486
3948, 32.222240, 3.333350, 42.906467
3949, 37.777794, 3.333350, 35.849953
3950, 51.111134, 3.333350, 70.490967
3951, 15.555568, 3.333350, 70.490967
3952, 25.555571, 3.333350, 46.755470
3953, 50.000019, 3.333350, 95.509491
3954, 55.555569, 3.333348, 89.735992
3955, 11.111131, 3.333352, 89.735992
3956, 38.888908, 3.333350, 46.755470
3957, 25.555571, 3.333350, 95.509491
3958, 41.111130, 3.333350, 95.509491
3959, 21.111126, 3.333350, 95.509491
3960, 36.666687, 3.333350, 95.509491
3961, 30.000013, 3.333350, 95.509491
3962, 56.666676, 3.333350, 64.717476
3963, 10.000025, 3.333350, 64.717476
3964, 12.222220, 3.333299, 6.982439
3965, 54.444481, 3.333401, 6.982439
3966, 9.999999, 3.333345, 26.227451
3967, 56.666702, 3.333354, 26.227451
3968, 53.333355, 3.333350, 29.434961
3969, 14.444447, 3.333350, 12.114444
3970, 52.222252, 3.333350, 12.114444
3971, 54.444477, 3.333350, 53.170467
3972, 52.222256, 3.333354, 23.661449
3973, 52.222214, 3.333341, 42.906487
3974, 52.222256, 3.333346, 46.755463
3975, 56.666656, 3.333346, 35.208469
3976, 13.333362, 3.333350, 66.641960
3977, 53.333340, 3.333350, 66.641960
3978, 11.111111, 3.333346, 37.132957
3979, 15.555556, 3.333350, 47.396965
3980, 12.222222, 3.333323, 53.170467
3981, 12.222222, 3.333350, 45.472462
3982, 17.777788, 3.333350, 10.189947
3983, 48.888912, 3.333350, 10.189947
3984, 54.444366, 3.333350, 39.057510
3985, 9.999985, 3.333347, 95.509529
3986, 55.555588, 3.333346, 44.830963
3987, 12.222247, 3.333419, 41.623463
3988, 12.222222, 3.333323, 49.321465
3989, 55.555588, 3.333384, 48.679966
3990, 56.666325, 3.333265, 81.396690
3991, 10.000376, 3.333435, 81.396690
3992, 8.888904, 3.333354, 43.547970
3993, 57.777569, 3.333369, 58.943844
3994, 36.666683, 3.333350, 8.265445
3995, 30.000015, 3.333350, 8.265445
3996, 10.000532, 3.333350, 69.849785
3997, 56.666168, 3.333350, 69.849785
3998, 56.666683, 3.333354, 95.509506
3999, 8.889131, 3.333274, 58.943844
4000, 55.555038, 3.333347, 85.886681
4001, 11.111662, 3.333353, 85.886681
4002, 7.777928, 3.333358, 35.207924
4003, 57.777637, 3.333296, 40.981876
4004, 10.001065, 3.333353, 77.547943
4005, 56.665634, 3.333347, 77.547943
4006, 46.666702, 3.335224, 6.340937
4007, 10.002464, 3.333416, 22.376972
4008, 56.664238, 3.333284, 22.376972
4009, 33.333351, 3.333350, 6.355912
4010, 23.333334, 3.332753, 8.265438
4011, 43.333366, 3.333947, 8.265438
4012, 17.777777, 3.330545, 6.340937
4013, 57.772038, 3.333346, 55.092117
4014, 8.894661, 3.333354, 55.092117
4015, 3.440919, 3.331489, 65.857613
4016, 63.225780, 3.335211, 65.857613
4017, 26.666693, 3.333350, 6.353161
4018, 40.000008, 3.333350, 6.353161
4019, 50.000038, 3.333346, 4.428659
4020, 8.888889, 3.333315, 47.396965
4021, 59.978512, 3.333028, 79.480049
4022, 6.688187, 3.333672, 79.480049
4023, 59.978786, 3.333346, 62.780125
4024, 6.687914, 3.333354, 62.780125
4025, 21.111111, 3.332094, 4.428659
4026, 58.888924, 3.333346, 46.755463
4027, 59.993576, 3.333346, 16.601227
4028, 6.673126, 3.333354, 16.601227
4029, 43.333355, 3.336671, 4.428666
4030, 8.888889, 3.333406, 51.245964
4031, 36.666687, 3.326961, 4.465696
4032, 30.000015, 3.339739, 4.465696
4033, 57.770508, 3.332680, 5.073668
4034, 8.896191, 3.335330, 5.073668
4035, 3.373325, 3.367309, 60.971165
4036, 63.350567, 3.334349, 43.333424
4037, 59.999329, 3.333346, 33.284363
4038, 63.282661, 3.332186, 30.063704
4039, 6.666762, 3.333029, 93.585075
4040, 59.999939, 3.333671, 93.585075
4041, 3.321038, 3.358556, 85.555557
4042, 63.345661, 3.308144, 85.555557
4043, 63.294308, 3.299168, 60.971607
4044, 35.388893, 3.333347, 74.243752
4045, 39.055576, 3.333349, 43.002693
4046, 27.611124, 3.333350, 43.002693
4047, 37.611115, 3.333347, 51.149742
4048, 31.111116, 3.333347, 66.834435
4049, 35.555584, 3.333354, 66.834435
4050, 53.166672, 3.333348, 74.243752
4051, 13.500028, 3.333352, 74.243752
4052, 11.277791, 3.333349, 29.531187
4053, 12.222474, 3.332167, 3.362603
4054, 54.444225, 3.334533, 3.362603
4055, 8.889000, 3.333383, 39.891499
4056, 58.889587, 3.333162, 87.815331
4057, 7.777113, 3.333538, 87.815331
4058, 59.783115, 3.333102, 29.560192
4059, 6.672609, 3.320545, 20.450994
4060, 59.994091, 3.346155, 20.450994
4061, 57.777809, 3.333298, 51.438488
4062, 6.912381, 3.334840, 66.500122
4063, 59.754318, 3.331860, 66.500122
4064, 6.945365, 3.334004, 24.140295
4065, 59.721172, 3.333348, 75.783981
4066, 63.198246, 3.339112, 76.381187
4067, 6.945527, 3.333353, 75.783981
4068, 3.468456, 3.327588, 76.381187
4069, 59.721722, 3.332697, 24.138271
4070, 3.298928, 3.330108, 41.127422
4071, 3.390082, 3.333825, 45.526169
4072, 16.893967, 3.333353, 22.334709
4073, 48.813156, 3.333346, 47.615681
4074, 52.298019, 3.333346, 50.385746
4075, 59.999081, 3.333036, 36.812668
4076, 3.401534, 3.404650, 80.478928
4077, 63.265167, 3.262050, 80.478928
4078, 62.308510, 3.328594, 39.428364
4079, 3.406434, 3.293568, 54.576675
4080, 59.969078, 3.333346, 71.024681
4081, 6.697622, 3.333354, 71.024681
4082, 4.573441, 3.333472, 33.320312
4083, 63.253498, 3.373074, 54.579586
4084, 49.682564, 3.289251, 26.044165
4085, 4.657613, 3.331366, 90.754875
4086, 62.009087, 3.335334, 90.754875
4087, 5.830611, 3.327426, 6.784493
4088, 60.836094, 3.339274, 6.784494
4089, 3.309166, 3.408356, 16.264690
4090, 4.424522, 3.368813, 12.915380
4091, 3.266474, 3.325454, 25.541319
4092, 5.831873, 3.333006, 49.155251
4093, 8.007388, 3.333773, 84.366493
4094, 58.659313, 3.332927, 84.366493
4095, 63.203590, 3.323020, 23.605408
4096, 4.530119, 3.335454, 36.821106
4097, 63.353348, 3.254094, 16.263336
4098, 62.252396, 3.294324, 12.908196
4099, 5.925385, 3.350394, 3.352429
4100, 60.741310, 3.316307, 3.352430
4101, 61.254475, 3.320239, 50.693157
4102, 16.203688, 3.333349, 96.632111
4103, 45.087772, 3.333349, 96.627945
4104, 25.015026, 3.335931, 3.365656
4105, 16.116228, 3.333321, 3.363374
4106, 47.777798, 3.518545, 37.774467
4107, 59.975536, 3.144592, 43.552574
4108, 5.969110, 3.185086, 56.776180
4109, 60.692989, 3.486631, 56.773643
4110, 63.319618, 3.331627, 34.433453
4111, 63.152824, 3.353498, 46.846268
4112, 3.362796, 3.500076, 19.668760
4113, 3.319258, 3.330853, 93.833214
4114, 63.347443, 3.335847, 93.833214
4115, 22.314806, 3.333350, 38.576302
4116, 18.796329, 3.333350, 71.292824
4117, 47.870369, 3.333350, 71.292824
4118, 46.481564, 3.333350, 76.905983
4119, 20.185135, 3.333349, 76.905983
4120, 51.203754, 3.333374, 7.784356
4121, 55.740700, 3.333349, 15.321941
4122, 10.926000, 3.333351, 15.321941
4123, 13.243220, 3.333353, 23.178150
4124, 63.291862, 3.163010, 19.658224
4125, 18.935188, 3.333350, 48.118633
4126, 61.101753, 3.147658, 96.792511
4127, 5.564947, 3.519042, 96.792511
4128, 3.364739, 3.337680, 9.081908
4129, 63.301937, 3.329021, 9.081932
4130, 5.846471, 3.204616, 52.414249
4131, 14.814824, 3.148153, 8.906938
4132, 49.259289, 3.148154, 22.378443
4133, 35.185204, 3.148156, 41.623463
4134, 28.518532, 3.518551, 49.321461
4135, 52.962986, 3.148153, 96.792496
4136, 12.962967, 3.518548, 96.792496
4137, 9.632368, 3.147235, 8.908130
4138, 57.034332, 3.519465, 8.908130
4139, 39.375469, 2.980618, 3.308490
4140, 61.818054, 3.335035, 26.825842
4141, 4.207437, 3.376960, 73.175133
4142, 62.459263, 3.289740, 73.175133
4143, 46.275330, 3.547628, 3.161936
4144, 6.039738, 3.471425, 27.293747
4145, 5.686584, 3.578050, 43.278053
4146, 32.026161, 3.576644, 39.774433
4147, 49.281075, 3.090051, 18.718126
4148, 17.385628, 3.576649, 18.718126
4149, 38.366035, 3.090049, 76.792778
4150, 30.392178, 3.090049, 62.981651
4151, 36.274525, 3.576651, 62.981651
4152, 41.332855, 3.597162, 40.879829
4153, 22.000013, 3.617316, 60.868465
4154, 44.666687, 3.049384, 60.868465
4155, 22.000013, 3.617317, 57.019463
4156, 44.666687, 3.049383, 57.019463
4157, 41.333351, 3.049383, 29.434959
4158, 25.333347, 3.617317, 29.434959
4159, 44.666687, 3.049383, 15.963451
4160, 22.000013, 3.617317, 15.963451
4161, 38.000019, 3.049383, 87.811485
4162, 28.444460, 3.617316, 88.966187
4163, 39.333351, 3.049384, 16.733252
4164, 27.333347, 3.617316, 16.733252
4165, 20.666679, 3.617316, 32.129261
4166, 46.000019, 3.049384, 32.129261
4167, 18.222235, 3.617318, 36.363163
4168, 46.444462, 3.617317, 83.962479
4169, 50.444462, 3.617317, 92.430290
4170, 14.888902, 3.049385, 90.890686
4171, 17.333336, 3.049387, 13.269151
4172, 49.333363, 3.617313, 13.269151
4173, 14.666666, 3.617313, 51.245964
4174, 36.222240, 3.049383, 11.344646
4175, 30.444460, 3.617317, 11.344646
4176, 9.555648, 3.049358, 92.430321
4177, 57.111061, 3.617343, 92.430313
4178, 20.222263, 3.049253, 8.265639
4179, 13.095176, 3.590381, 77.319740
4180, 53.571526, 3.076319, 77.319740
4181, 3.144804, 3.743841, 50.815533
4182, 3.084899, 3.088707, 57.900230
4183, 63.578053, 3.577168, 57.899063
4184, 34.788895, 3.034568, 52.381413
4185, 14.100014, 3.632130, 28.299505
4186, 63.501080, 3.530689, 4.992196
4187, 3.165618, 3.136012, 4.992203
4188, 32.505215, 3.701041, 73.216347
4189, 5.180042, 3.581690, 83.047897
4190, 61.486656, 3.085011, 83.047897
4191, 49.728992, 3.639018, 44.690136
4192, 36.111134, 3.024693, 57.660969
4193, 30.555567, 3.642007, 57.660969
4194, 27.222242, 3.642004, 57.660969
4195, 39.444458, 3.024696, 57.660969
4196, 44.166687, 3.642007, 37.934841
4197, 26.944462, 3.642008, 35.048080
4198, 36.388905, 3.642009, 33.123577
4199, 53.611141, 3.642003, 26.387833
4200, 13.611121, 3.024698, 38.897079
4201, 48.681881, 2.926277, 79.004471
4202, 17.984818, 3.740423, 79.004471
4203, 46.666687, 3.024698, 27.350077
4204, 20.000013, 3.642002, 27.350077
4205, 42.916683, 3.642010, 78.589928
4206, 59.301846, 3.645934, 13.637316
4207, 32.982018, 3.493167, 96.825462
4208, 7.372171, 3.017985, 13.642741
4209, 4.257085, 3.069869, 22.610302
4210, 25.520557, 3.013028, 40.806423
4211, 28.467857, 3.653681, 45.911308
4212, 54.023113, 3.653955, 71.335312
4213, 12.643588, 3.012745, 71.335312
4214, 60.393944, 3.660438, 53.588837
4215, 33.796501, 3.781669, 3.199667
4216, 50.083324, 2.831279, 73.286835
4217, 16.583376, 3.835421, 73.286835
4218, 28.049639, 2.969519, 52.235531
4219, 54.276577, 2.968750, 9.956860
4220, 5.878830, 2.942905, 39.535381
4221, 60.561302, 3.761436, 59.896229
4222, 6.106108, 2.904625, 59.896641
4223, 33.333351, 2.901236, 23.661457
4224, 33.333351, 2.901236, 19.812454
4225, 33.333351, 2.901236, 27.510458
4226, 46.111130, 2.901237, 90.698235
4227, 23.333347, 2.901236, 85.886978
4228, 23.333347, 2.901236, 89.735985
4229, 41.666683, 2.901236, 47.717720
4230, 18.333345, 3.765465, 63.755215
4231, 48.333355, 2.901236, 63.755215
4232, 23.333349, 3.765464, 82.037979
4233, 22.777792, 2.901235, 45.793221
4234, 32.777794, 2.901236, 90.698235
4235, 30.555573, 2.901236, 32.321712
4236, 36.111130, 2.901236, 92.622734
4237, 23.333347, 2.901237, 93.584991
4238, 27.777794, 2.901236, 93.584984
4239, 51.111134, 2.901235, 31.359463
4240, 18.333349, 2.901232, 54.132713
4241, 48.333351, 3.765467, 54.132713
4242, 23.888910, 3.765468, 11.152203
4243, 42.777790, 2.901232, 11.152203
4244, 52.777790, 2.901238, 90.698242
4245, 53.888905, 3.765469, 63.755215
4246, 12.777795, 2.901231, 63.755215
4247, 53.888889, 2.901221, 36.170704
4248, 54.999931, 2.901180, 41.944210
4249, 51.666615, 3.765528, 40.019676
4250, 57.477474, 4.175588, 37.866901
4251, 46.111225, 3.765580, 9.227846
4252, 12.223783, 3.775758, 10.201991
4253, 57.206207, 3.779717, 61.839981
4254, 9.460492, 2.886983, 61.839981
4255, 6.260934, 2.928456, 46.104485
4256, 23.333349, 3.800740, 78.280624
4257, 41.373192, 2.448047, 82.381645
4258, 40.000019, 2.865960, 53.262112
4259, 2.688453, 2.901248, 96.676941
4260, 63.978249, 3.765452, 96.676941
4261, 14.921294, 2.863417, 5.982109
4262, 33.333351, 3.802502, 68.662697
4263, 23.333347, 3.640068, 97.341965
4264, 47.837284, 2.802518, 97.357269
4265, 38.888908, 3.067074, 97.342354
4266, 27.777792, 2.807543, 97.312279
4267, 2.883711, 2.718309, 88.436157
4268, 63.782990, 3.948391, 88.436157
4269, 27.765970, 3.907460, 2.742500
4270, 12.780784, 2.662910, 25.935692
4271, 18.882113, 3.604977, 2.637661
4272, 7.475749, 3.828331, 90.620888
4273, 59.190956, 2.838366, 90.620880
4274, 18.951847, 3.649271, 97.357925
4275, 64.026398, 3.775534, 49.991684
4276, 63.987156, 2.800919, 37.168056
4277, 43.577881, 3.903694, 94.367668
4278, 2.591153, 3.918972, 48.110023
4279, 34.119015, 2.654327, 61.509972
4280, 31.829403, 2.654324, 37.171871
4281, 55.925976, 4.012319, 67.283554
4282, 10.740726, 2.654381, 67.283554
4283, 38.148170, 4.012373, 71.132477
4284, 28.518532, 2.654327, 71.132477
4285, 23.703722, 4.012373, 69.207977
4286, 42.962978, 2.654327, 69.207977
4287, 21.851864, 2.654327, 71.132477
4288, 44.814838, 4.012373, 71.132477
4289, 18.148155, 2.654326, 42.906467
4290, 37.407425, 4.012379, 80.113480
4291, 26.296310, 4.012379, 60.868465
4292, 40.370392, 2.654321, 60.868465
4293, 20.370373, 2.654326, 50.604462
4294, 46.296329, 4.012374, 50.604462
4295, 21.851864, 4.012380, 22.378441
4296, 44.814838, 2.654320, 22.378441
4297, 22.592609, 2.654320, 19.812454
4298, 44.074093, 4.012380, 19.812454
4299, 12.592604, 2.654320, 17.887949
4300, 54.074097, 4.012380, 17.887949
4301, 26.296314, 4.012379, 77.547478
4302, 29.629648, 4.012379, 75.622978
4303, 22.962980, 4.012379, 51.245968
4304, 43.703720, 2.654321, 51.245968
4305, 33.703716, 2.654321, 46.755463
4306, 23.703714, 2.654320, 35.849960
4307, 40.370388, 2.654321, 35.208454
4308, 36.296318, 4.012379, 47.396965
4309, 55.925949, 4.012374, 28.793455
4310, 17.407415, 4.012374, 45.472462
4311, 54.073837, 2.654154, 82.037979
4312, 12.592861, 4.012546, 82.037979
4313, 8.518806, 2.654104, 32.642170
4314, 11.852415, 4.013493, 20.452015
4315, 54.814285, 2.653207, 20.452015
4316, 58.565838, 4.032978, 97.366280
4317, 8.100842, 2.633713, 97.366287
4318, 23.525267, 2.736583, 5.592441
4319, 51.913372, 4.039011, 2.609255
4320, 2.579531, 2.752905, 82.999138
4321, 64.087166, 3.913795, 82.999138
4322, 41.111130, 2.407417, 85.245483
4323, 43.333351, 2.407417, 89.094482
4324, 33.333351, 4.259282, 16.604952
4325, 40.000019, 4.259283, 12.755948
4326, 26.666681, 2.407418, 12.755948
4327, 44.444462, 2.407417, 43.547970
4328, 41.111130, 2.407417, 92.943489
4329, 51.111118, 2.407406, 67.924980
4330, 15.555583, 4.259294, 67.924980
4331, 11.875312, 2.607504, 79.552994
4332, 54.791389, 4.059196, 79.552994
4333, 51.111134, 4.259768, 28.154482
4334, 43.336983, 4.260097, 81.398575
4335, 52.528591, 2.651843, 5.172442
4336, 28.273937, 2.582447, 37.164078
4337, 35.059429, 2.582451, 35.239578
4338, 14.940601, 4.084247, 41.013081
4339, 54.778515, 2.582275, 24.178684
4340, 9.693485, 2.825332, 2.535881
4341, 56.973083, 3.841263, 2.535749
4342, 2.535378, 3.842767, 38.580597
4343, 61.546848, 2.556797, 87.540291
4344, 5.119851, 4.109903, 87.540291
4345, 31.434185, 4.107003, 60.704567
4346, 18.646873, 2.654323, 74.562271
4347, 48.019825, 4.012377, 74.562271
4348, 43.010910, 2.571193, 35.746967
4349, 51.036606, 4.275857, 52.572002
4350, 20.530369, 2.534103, 17.940001
4351, 46.136333, 4.132597, 17.940001
4352, 19.714725, 2.673585, 38.390949
4353, 59.753555, 4.161227, 39.358215
4354, 3.496540, 4.076426, 2.515830
4355, 63.170151, 2.590273, 2.515828
4356, 2.617300, 2.544655, 63.419415
4357, 64.049568, 4.122221, 63.419746
4358, 30.653522, 2.492527, 44.901020
4359, 59.138317, 4.208386, 49.287971
4360, 18.061831, 2.481678, 25.928408
4361, 21.938189, 2.481676, 25.928411
4362, 44.728512, 4.185024, 25.928411
4363, 54.306278, 2.468339, 68.966370
4364, 12.360422, 4.198361, 68.966370
4365, 2.583870, 4.037721, 35.045956
4366, 7.721427, 2.377196, 37.694908
4367, 7.510352, 2.525053, 81.879395
4368, 59.156349, 4.141647, 81.879395
4369, 42.697598, 2.526293, 97.497505
4370, 20.532091, 2.515218, 58.943962
4371, 46.134609, 4.151483, 58.943962
4372, 29.896503, 2.440838, 41.987629
4373, 49.058319, 2.369771, 35.752155
4374, 46.666687, 2.369771, 39.894585
4375, 46.666687, 4.012375, 42.264969
4376, 35.555573, 2.654325, 15.321950
4377, 31.111126, 2.654325, 15.321950
4378, 33.333351, 2.654325, 30.717960
4379, 44.444462, 4.012375, 46.113972
4380, 43.333351, 4.012375, 86.528481
4381, 41.111130, 4.012375, 90.377487
4382, 51.111130, 4.012376, 34.566963
4383, 31.111128, 4.012375, 53.811962
4384, 38.888908, 4.012375, 94.226486
4385, 51.111122, 4.012380, 65.358963
4386, 15.555579, 2.654320, 65.358963
4387, 57.593945, 4.299979, 43.441750
4388, 25.884424, 4.247746, 53.068554
4389, 61.821041, 2.483078, 67.962769
4390, 4.845658, 4.183622, 67.962769
4391, 59.188473, 2.607335, 26.992748
4392, 39.099800, 4.306155, 49.199715
4393, 22.676031, 4.172953, 2.478777
4394, 29.999828, 4.308689, 72.671883
4395, 55.247475, 4.218395, 97.541054
4396, 58.897217, 4.302526, 68.807861
4397, 7.769483, 2.364174, 68.807861
4398, 64.247536, 2.698212, 27.676516
4399, 46.409748, 2.350314, 47.248627
4400, 35.271534, 2.430619, 97.538902
4401, 41.858631, 4.216080, 2.452848
4402, 60.995163, 2.626559, 48.167210
4403, 61.041084, 4.314204, 45.636475
4404, 25.442997, 4.062408, 44.254463
4405, 33.192497, 4.334946, 35.720772
4406, 38.985336, 4.320654, 62.310898
4407, 27.681362, 2.346046, 62.310898
4408, 41.021263, 4.320647, 69.686272
4409, 25.645439, 2.346053, 69.686272
4410, 27.681370, 2.346045, 76.105057
4411, 42.318665, 4.320655, 52.688393
4412, 38.985329, 4.320655, 33.766029
4413, 11.208177, 2.345874, 83.480255
4414, 55.458523, 4.320827, 83.480255
4415, 11.492704, 2.414818, 75.622803
4416, 55.173996, 4.251882, 75.622803
4417, 64.331093, 2.265789, 91.015999
4418, 2.335610, 4.400911, 91.015999
4419, 48.656315, 4.269468, 2.410537
4420, 31.427374, 2.432980, 2.460380
4421, 54.275604, 4.345866, 22.343243
4422, 18.711037, 2.397650, 68.874542
4423, 47.955662, 4.269050, 68.874542
4424, 12.977633, 2.397634, 14.038951
4425, 53.689068, 4.269066, 14.038951
4426, 62.189167, 2.338045, 63.700264
4427, 4.477686, 4.328675, 63.700424
4428, 49.063465, 2.398948, 6.658364
4429, 5.542963, 2.365690, 31.073481
4430, 32.351971, 4.379329, 45.385551
4431, 24.282583, 2.279685, 52.622417
4432, 64.321381, 3.740611, 40.982197
4433, 38.650524, 2.326354, 81.607071
4434, 35.417282, 4.336643, 60.064522
4435, 37.573940, 2.279686, 48.797653
4436, 15.555571, 4.355670, 94.367157
4437, 6.694831, 4.392025, 32.149284
4438, 61.171745, 4.359022, 41.557362
4439, 55.452705, 4.339640, 51.037231
4440, 11.214111, 2.327064, 39.490211
4441, 60.849625, 4.203101, 85.581879
4442, 5.817074, 2.463599, 85.581879
4443, 57.761826, 2.276692, 67.721092
4444, 8.904876, 4.390008, 67.721092
4445, 33.333351, 2.304107, 71.237160
4446, 30.014767, 4.390560, 37.659386
4447, 8.258005, 2.300694, 27.787712
4448, 62.065720, 4.347711, 21.560600
4449, 40.041821, 2.310560, 70.921860
4450, 26.624880, 4.356141, 70.921860
4451, 64.257454, 2.334401, 14.097193
4452, 62.071526, 2.323111, 78.430626
4453, 4.595173, 4.343589, 78.430626
4454, 64.135361, 2.510675, 52.275791
4455, 7.534623, 4.199275, 73.367188
4456, 59.132076, 2.467426, 73.367188
4457, 36.819244, 2.271227, 72.427185
4458, 9.847566, 4.395556, 31.347757
4459, 62.213135, 2.361296, 32.257656
4460, 2.286643, 2.225397, 33.289436
4461, 23.176294, 2.265196, 23.661457
4462, 43.490406, 4.401504, 23.661457
4463, 17.699272, 4.401505, 41.117970
4464, 46.113453, 4.383256, 14.358355
4465, 20.553247, 2.283444, 14.358355
4466, 23.886581, 2.283440, 27.829868
4467, 42.780117, 4.383260, 27.829868
4468, 44.997696, 2.283440, 85.567574
4469, 46.113453, 4.383260, 62.473557
4470, 20.553247, 2.283440, 62.473557
4471, 37.219917, 4.383256, 16.282860
4472, 30.557894, 2.283444, 89.416573
4473, 43.886589, 4.383256, 31.678871
4474, 22.780113, 2.283443, 31.678871
4475, 12.775475, 4.383263, 91.341080
4476, 16.666677, 4.383256, 15.324636
4477, 50.000023, 2.283444, 15.324636
4478, 35.555573, 4.383255, 13.400129
4479, 16.113426, 2.283435, 52.851051
4480, 50.891293, 4.324200, 97.670418
4481, 2.296285, 2.376907, 11.654159
4482, 10.894803, 2.336868, 97.663132
4483, 11.245738, 4.416502, 24.303028
4484, 22.288389, 4.418002, 40.867390
4485, 22.156080, 4.417990, 75.737572
4486, 44.510620, 2.248709, 75.737572
4487, 51.177254, 4.418044, 10.075421
4488, 57.707741, 2.246324, 16.491480
4489, 8.958959, 4.420376, 16.491480
4490, 21.669447, 4.378888, 6.667030
4491, 58.950397, 2.242984, 95.615952
4492, 7.716269, 4.423703, 95.615974
4493, 2.455418, 4.361666, 14.108526
4494, 16.170956, 2.270664, 27.796659
4495, 30.591906, 2.277193, 74.055817
4496, 64.379051, 4.284235, 11.654460
4497, 37.556126, 4.338728, 2.324501
4498, 48.246944, 2.264755, 43.177334
4499, 35.555573, 4.404524, 55.623272
4500, 26.666681, 2.262176, 55.623268
4501, 40.000019, 4.404524, 55.623268
4502, 28.431385, 2.262173, 33.548111
4503, 15.098052, 4.404530, 37.397114
4504, 31.111116, 2.260816, 55.625835
4505, 58.560001, 2.367363, 7.264714
4506, 8.106498, 4.299430, 7.265087
4507, 57.797630, 2.186928, 44.796638
4508, 15.134982, 2.253967, 77.946152
4509, 51.531719, 4.412733, 77.946152
4510, 33.333351, 2.166066, 66.641968
4511, 47.794014, 4.484576, 35.236549
4512, 17.755508, 4.463301, 24.410049
4513, 28.894457, 4.502504, 66.641968
4514, 37.772243, 2.164196, 66.641968
4515, 37.780575, 4.502501, 44.826157
4516, 34.447235, 4.502498, 76.259666
4517, 5.322177, 2.325481, 18.522598
4518, 36.671345, 4.503050, 53.165577
4519, 47.777260, 4.505484, 95.510422
4520, 57.778408, 2.160873, 20.453894
4521, 8.888292, 4.505827, 20.453894
4522, 50.000027, 4.506196, 83.962479
4523, 16.666676, 2.160504, 83.962479
4524, 41.111118, 2.160500, 77.547485
4525, 43.333351, 4.506198, 73.698486
4526, 23.333349, 2.160502, 73.698486
4527, 52.222248, 4.506196, 57.019463
4528, 14.444450, 2.160505, 57.019463
4529, 41.111126, 2.160502, 64.717468
4530, 25.555573, 4.506198, 64.717468
4531, 50.000019, 2.160503, 60.868465
4532, 16.666679, 4.506197, 60.868465
4533, 14.444457, 2.160502, 60.868465
4534, 52.222244, 4.506197, 60.868465
4535, 33.333351, 2.160502, 78.188972
4536, 31.111128, 4.506198, 78.188972
4537, 31.111128, 4.506198, 82.037979
4538, 30.000015, 2.160502, 80.113480
4539, 34.444462, 4.506198, 80.113480
4540, 32.222240, 4.506198, 49.321461
4541, 36.666683, 2.160502, 83.962479
4542, 33.333351, 2.160502, 82.037979
4543, 40.000019, 4.506197, 25.585958
4544, 26.666681, 2.160502, 25.585958
4545, 36.666683, 4.506197, 27.510458
4546, 30.000015, 2.160502, 27.510458
4547, 25.555571, 4.506198, 73.698486
4548, 41.111130, 2.160502, 73.698486
4549, 31.111128, 4.506198, 85.886978
4550, 50.000019, 2.160503, 57.019463
4551, 16.666679, 4.506197, 57.019463
4552, 12.222236, 4.506197, 35.208466
4553, 27.777794, 4.506198, 83.962479
4554, 36.666683, 4.506197, 23.661457
4555, 30.000015, 2.160502, 23.661457
4556, 34.444462, 4.506198, 83.962479
4557, 27.777794, 4.506198, 80.113480
4558, 54.444466, 2.160503, 31.359463
4559, 28.888905, 4.506197, 25.585958
4560, 37.777798, 2.160503, 25.585958
4561, 33.333351, 2.160502, 85.886978
4562, 25.555569, 4.506197, 23.661457
4563, 41.111130, 2.160503, 23.661457
4564, 30.000015, 2.160502, 83.962479
4565, 28.888905, 4.506197, 21.736956
4566, 37.777798, 2.160503, 21.736956
4567, 40.000019, 4.506197, 21.736956
4568, 26.666681, 2.160502, 21.736956
4569, 34.444462, 4.506198, 87.811485
4570, 36.666683, 4.506197, 19.812454
4571, 30.000015, 2.160503, 19.812454
4572, 20.000013, 4.506198, 85.886978
4573, 20.000013, 2.160502, 89.735985
4574, 53.333355, 2.160503, 58.943962
4575, 13.333345, 4.506197, 58.943962
4576, 13.333347, 2.160503, 33.283962
4577, 25.555569, 4.506197, 19.812454
4578, 41.111130, 2.160503, 19.812454
4579, 26.666681, 2.160502, 85.886978
4580, 47.777798, 2.160502, 87.811485
4581, 44.444462, 2.160502, 66.641968
4582, 22.222239, 4.506198, 66.641968
4583, 26.666681, 2.160502, 82.037979
4584, 17.777790, 2.160502, 58.943962
4585, 48.888908, 4.506198, 58.943962
4586, 28.888905, 4.506197, 29.434959
4587, 37.777794, 2.160502, 29.434959
4588, 21.111126, 2.160503, 42.906467
4589, 20.000015, 4.506198, 82.037979
4590, 40.000015, 4.506198, 66.641968
4591, 26.666683, 2.160502, 66.641968
4592, 46.666687, 4.506198, 29.434959
4593, 20.000013, 2.160502, 29.434959
4594, 24.444460, 4.506198, 48.679974
4595, 20.000015, 4.506198, 93.584991
4596, 51.111130, 2.160502, 85.886986
4597, 15.555570, 4.506198, 85.886986
4598, 15.555569, 4.506197, 33.283962
4599, 50.000019, 4.506198, 87.811485
4600, 16.666681, 2.160502, 87.811485
4601, 16.666679, 2.160502, 31.359463
4602, 31.111128, 2.160502, 93.584991
4603, 20.000013, 2.160503, 66.641968
4604, 46.666687, 4.506197, 66.641968
4605, 38.888908, 4.506197, 37.774452
4606, 43.333351, 4.506197, 64.717468
4607, 23.333347, 2.160503, 64.717468
4608, 16.666668, 2.160498, 49.321465
4609, 36.666683, 2.160502, 37.774452
4610, 51.111130, 2.160504, 82.037994
4611, 15.555570, 4.506196, 82.037994
4612, 14.444445, 2.160500, 45.472462
4613, 54.444458, 2.160495, 87.811485
4614, 12.222242, 4.506205, 87.811485
4615, 53.333366, 4.506199, 44.830963
4616, 55.555573, 4.506197, 33.283958
4617, 57.777798, 4.506197, 71.773987
4618, 8.888902, 2.160502, 71.773987
4619, 11.111112, 2.160490, 51.245964
4620, 56.666698, 4.506203, 46.755451
4621, 11.111112, 2.160488, 47.396965
4622, 13.333337, 4.506179, 55.094959
4623, 53.333359, 2.160518, 55.094971
4624, 11.111115, 4.506200, 43.547977
4625, 54.444485, 2.160513, 46.755474
4626, 13.333329, 4.506184, 47.396973
4627, 10.000096, 2.160499, 35.208454
4628, 55.555420, 4.506201, 58.943970
4629, 11.111299, 2.160499, 58.943970
4630, 10.000201, 4.506249, 57.019596
4631, 56.666489, 2.160444, 57.019577
4632, 13.333702, 2.160500, 85.886986
4633, 53.333000, 4.506200, 85.886986
4634, 57.777328, 2.160498, 33.283974
4635, 50.874489, 4.379389, 48.599525
4636, 44.247616, 2.315229, 2.314631
4637, 21.103075, 4.504409, 46.760120
4638, 10.000013, 4.506016, 49.321438
4639, 58.892418, 2.158940, 60.853806
4640, 7.774546, 4.507802, 60.853939
4641, 55.551743, 4.506201, 55.094967
4642, 11.114953, 2.160496, 55.094975
4643, 20.008444, 4.502459, 55.099831
4644, 46.658257, 2.164241, 55.099831
4645, 47.786232, 4.502456, 91.665352
4646, 27.777794, 4.502450, 91.650749
4647, 49.991562, 2.164254, 39.052582
4648, 54.452888, 4.502462, 91.665352
4649, 22.213945, 2.164036, 10.185334
4650, 61.335365, 4.347231, 18.522579
4651, 61.183174, 4.424057, 64.720009
4652, 5.483619, 2.242578, 64.720001
4653, 25.551826, 4.506124, 8.271549
4654, 41.114876, 2.160576, 8.271549
4655, 27.781321, 2.160503, 8.271557
4656, 38.885380, 4.506197, 8.271557
4657, 42.218018, 4.506336, 6.347887
4658, 34.448784, 2.160503, 8.272929
4659, 32.217918, 4.506197, 8.272929
4660, 23.333347, 4.510744, 87.811485
4661, 33.333374, 4.510744, 21.736956
4662, 33.333374, 4.510744, 25.585958
4663, 34.444462, 4.510744, 91.660484
4664, 23.333368, 4.510744, 91.660484
4665, 44.447975, 2.164868, 6.346218
4666, 11.116733, 4.511301, 62.789742
4667, 55.549969, 2.155399, 62.789742
4668, 10.001805, 4.506158, 53.167389
4669, 8.903315, 2.160474, 79.472145
4670, 57.763386, 4.506227, 79.472145
4671, 57.786602, 2.171373, 48.695213
4672, 30.892437, 2.330867, 97.655312
4673, 61.066570, 4.494403, 77.547401
4674, 5.600129, 2.172297, 77.547401
4675, 8.903504, 4.512600, 37.140862
4676, 35.781185, 2.328975, 2.323826
4677, 35.542564, 4.506220, 6.363593
4678, 31.124136, 2.160480, 6.363593
4679, 28.873632, 4.506225, 6.367537
4680, 37.793068, 2.160475, 6.367537
4681, 6.601980, 4.258973, 54.580463
4682, 27.755035, 4.514005, 95.490356
4683, 62.224846, 4.417213, 36.411652
4684, 2.221987, 3.608395, 27.788950
4685, 56.667027, 4.505856, 87.811180
4686, 9.999673, 2.160844, 87.811180
4687, 40.022972, 4.506205, 75.583229
4688, 51.157043, 4.506205, 17.887953
4689, 15.509657, 2.160495, 17.887953
4690, 7.808144, 2.147012, 18.511913
4691, 23.333338, 2.145577, 80.143929
4692, 52.345051, 4.451624, 68.637367
4693, 14.321651, 2.215076, 68.637367
4694, 38.766068, 2.215090, 12.043527
4695, 27.900631, 4.451610, 12.043527
4696, 39.877174, 4.451601, 85.957909
4697, 43.210510, 4.451601, 42.835545
4698, 44.571346, 2.216893, 82.111237
4699, 2.221230, 2.876559, 43.350460
4700, 39.615570, 2.219108, 89.514038
4701, 29.615574, 4.447592, 16.185408
4702, 31.111139, 4.447592, 13.595032
4703, 26.666681, 4.442214, 14.205185
4704, 40.000019, 2.224486, 14.205185
4705, 58.852913, 4.522196, 18.508656
4706, 44.491535, 4.516551, 89.722542
4707, 54.444466, 2.242332, 12.327067
4708, 61.158039, 4.467645, 31.348656
4709, 64.457619, 3.725507, 32.238846
4710, 64.248909, 4.320431, 78.432625
4711, 2.417789, 2.346269, 78.432625
4712, 12.222235, 4.303485, 12.641132
4713, 37.777805, 4.527521, 89.791367
4714, 32.270203, 2.139185, 12.142139
4715, 48.227882, 4.306534, 8.006066
4716, 16.628738, 2.160494, 35.142746
4717, 25.479683, 2.160495, 15.963450
4718, 41.187016, 4.506205, 15.963450
4719, 26.590797, 2.160495, 89.735985
4720, 16.742565, 4.506203, 91.660484
4721, 48.850964, 2.160497, 93.650711
4722, 22.260178, 2.160502, 55.029243
4723, 44.406521, 4.506198, 55.029243
4724, 41.073189, 4.506197, 31.425180
4725, 25.593513, 2.160502, 31.425180
4726, 47.739849, 2.160501, 12.048734
4727, 18.926851, 4.506199, 12.048734
4728, 55.517616, 2.160501, 93.650749
4729, 11.149079, 4.506192, 93.650780
4730, 42.755238, 2.216115, 39.391228
4731, 2.361339, 4.429277, 21.747293
4732, 47.824345, 2.151862, 4.498665
4733, 57.572186, 2.241726, 29.329439
4734, 54.445316, 2.118747, 50.604874
4735, 50.075790, 2.178748, 49.405262
4736, 27.820601, 2.162028, 4.499914
4737, 7.350673, 2.411411, 41.719688
4738, 49.939034, 2.133394, 53.135262
4739, 47.580486, 2.239744, 49.457340
4740, 41.230503, 2.171519, 42.892155
4741, 56.548038, 2.145268, 83.893990
4742, 10.118662, 4.521432, 83.893990
4743, 32.549965, 2.187697, 52.981247
4744, 26.705458, 1.998088, 48.659863
4745, 35.608616, 4.506197, 39.607079
4746, 51.217228, 4.506204, 21.736952
4747, 16.773315, 4.503371, 8.264592
4748, 29.944454, 2.160495, 68.662712
4749, 36.722248, 4.506205, 68.662712
4750, 10.055636, 2.160392, 41.719757
4751, 56.609417, 2.159214, 53.263477
4752, 2.281352, 4.182820, 7.038310
4753, 64.385338, 2.483891, 7.038323
4754, 18.952021, 2.160502, 95.400169
4755, 12.301426, 4.537710, 31.414751
4756, 11.941557, 4.423178, 27.431042
4757, 64.276901, 2.478487, 67.905945
4758, 2.389802, 4.188213, 67.905945
4759, 11.049303, 2.157472, 5.172806
4760, 55.616932, 4.509537, 5.172806
4761, 60.967079, 2.163657, 14.671508
4762, 34.734333, 4.499974, 31.526804
4763, 36.885532, 2.193758, 43.112717
4764, 2.410748, 2.221736, 52.600994
4765, 5.710814, 4.502700, 14.670559
4766, 64.298096, 2.220368, 21.696762
4767, 61.101124, 2.174719, 22.382215
4768, 52.226635, 2.143459, 72.319305
4769, 14.440064, 4.523241, 72.319305
4770, 7.929301, 2.160522, 53.170467
4771, 14.445649, 2.142268, 95.412689
4772, 2.448510, 4.376673, 32.064957
4773, 41.208694, 4.549220, 83.905273
4774, 19.042891, 2.160502, 22.378443
4775, 53.410351, 4.506208, 48.546600
4776, 50.077862, 4.506207, 80.248314
4777, 16.588837, 2.160493, 80.248314
4778, 13.338311, 4.546378, 5.172220
4779, 51.030930, 4.476543, 90.028992
4780, 58.806400, 2.160074, 64.575684
4781, 7.860301, 4.506626, 64.575684
4782, 52.118286, 2.112152, 27.570465
4783, 29.778625, 4.322502, 43.540382
4784, 26.784962, 2.154887, 44.973949
4785, 57.591808, 4.505681, 24.301598
4786, 7.961768, 2.160509, 49.321491
4787, 9.075266, 2.161019, 24.301598
4788, 57.591572, 2.160681, 75.623466
4789, 9.075130, 4.506019, 75.623466
4790, 58.796093, 4.506336, 35.048534
4791, 20.000004, 2.070452, 82.037987
4792, 20.000004, 2.070452, 85.886986
4793, 20.000023, 4.596249, 89.735992
4794, 32.222229, 2.070451, 49.321465
4795, 31.111135, 4.596249, 93.584991
4796, 16.666676, 4.596249, 49.321480
4797, 57.775990, 2.070754, 79.473206
4798, 8.890711, 4.595946, 79.473206
4799, 7.871002, 4.505753, 26.064825
4800, 58.635811, 2.139084, 3.040146
4801, 8.030863, 4.527634, 3.040162
4802, 39.903694, 2.160503, 39.532112
4803, 4.488759, 4.518587, 59.200306
4804, 63.880653, 4.314449, 25.801296
4805, 18.988258, 2.159492, 4.588662
4806, 62.178524, 2.147785, 59.202442
4807, 5.393791, 2.229203, 69.297592
4808, 61.272907, 4.437497, 69.297592
4809, 44.646595, 2.239913, 18.253469
4810, 22.020103, 4.426787, 18.253469
4811, 55.555935, 2.082179, 5.121615
4812, 15.639491, 2.300582, 93.075691
4813, 7.909014, 4.564519, 45.396717
4814, 39.900131, 2.110017, 44.920292
4815, 21.045584, 4.585474, 42.944309
4816, 9.326764, 4.353446, 28.513494
4817, 60.027920, 2.210283, 40.922504
4818, 4.147254, 2.184916, 28.042505
4819, 7.828338, 2.142552, 22.224606
4820, 58.836639, 4.523785, 22.223518
4821, 18.982161, 4.581476, 22.324612
4822, 22.715393, 4.332056, 27.284239
4823, 43.951305, 2.334644, 27.284239
4824, 61.247185, 2.185394, 35.048504
4825, 46.666698, 4.529323, 48.269524
4826, 58.743259, 4.570930, 31.443554
4827, 16.666693, 4.616282, 53.170467
4828, 43.333340, 2.050411, 31.359453
4829, 23.333359, 4.616289, 31.359453
4830, 31.111137, 4.616290, 89.735992
4831, 12.222226, 2.050414, 91.660492
4832, 34.580715, 4.568494, 72.327766
4833, 58.769638, 4.578117, 64.649948
4834, 7.897147, 2.088594, 64.649902
4835, 16.313200, 2.135175, 41.419388
4836, 57.649353, 4.576696, 75.697144
4837, 9.017347, 2.090003, 75.697144
4838, 34.563267, 4.506197, 95.303719
4839, 57.649799, 2.089603, 24.228054
4840, 16.666691, 4.618638, 27.510452
4841, 28.888916, 4.619616, 33.283955
4842, 35.555561, 2.047082, 55.094971
4843, 32.103313, 4.513969, 4.644800
4844, 15.555578, 4.620124, 78.188980
4845, 51.111122, 2.046576, 78.188980
4846, 52.325233, 2.243226, 52.777172
4847, 4.804203, 4.483565, 47.275768
4848, 33.333363, 4.572950, 29.252401
4849, 32.064137, 4.572948, 31.450741
4850, 52.380341, 2.093755, 64.626190
4851, 14.286360, 4.572945, 64.626190
4852, 25.934875, 4.319042, 97.677124
4853, 20.701815, 2.135828, 46.991772
4854, 5.508369, 2.107626, 54.537552
4855, 52.031086, 4.547654, 72.361618
4856, 14.635614, 2.119046, 72.361618
4857, 41.243843, 2.152948, 4.656490
4858, 44.444454, 2.127143, 24.702791
4859, 22.222248, 4.539557, 24.702791
4860, 59.145737, 4.494615, 8.250916
4861, 7.520998, 2.172014, 8.251008
4862, 58.121437, 4.542511, 27.953562
4863, 44.766277, 2.166960, 78.132202
4864, 57.456131, 2.166585, 14.096432
4865, 9.212773, 4.501907, 14.098475
4866, 34.626167, 2.091350, 76.159569
4867, 5.692684, 4.527965, 35.084148
4868, 19.844690, 4.557883, 29.569704
4869, 46.822010, 2.108817, 29.569704
4870, 48.729191, 4.570604, 24.244915
4871, 4.635463, 4.551969, 17.916674
4872, 14.169843, 2.350346, 2.350346
4873, 37.248314, 4.368212, 41.802711
4874, 62.037197, 2.174346, 45.027859
4875, 24.222372, 4.507247, 39.444992
4876, 36.891026, 2.112181, 53.088970
4877, 62.012028, 2.122879, 17.907917
4878, 25.382380, 2.083308, 8.365422
4879, 44.616989, 4.583574, 6.440536
4880, 36.819107, 4.475468, 65.141182
4881, 29.847591, 2.191232, 65.141182
4882, 10.945811, 4.581848, 4.973621
4883, 29.030590, 2.165700, 17.615538
4884, 34.444450, 2.082583, 88.013924
4885, 26.666693, 4.584116, 86.089424
4886, 19.824701, 4.584114, 66.540749
4887, 46.841999, 2.082586, 66.540749
4888, 28.713579, 2.082583, 29.536171
4889, 37.953121, 4.584117, 29.536171
4890, 16.666691, 4.584119, 31.157032
4891, 47.953125, 4.584116, 31.460672
4892, 36.666672, 2.082581, 19.610025
4893, 30.000027, 4.584119, 19.610025
4894, 25.555557, 2.082581, 19.610023
4895, 41.111141, 4.584119, 19.610023
4896, 36.841999, 4.584119, 83.861275
4897, 25.730885, 2.082584, 73.799706
4898, 18.888891, 2.082581, 91.862915
4899, 16.666689, 4.584120, 88.013916
4900, 47.602482, 4.584116, 87.710266
4901, 54.444477, 4.584118, 31.157015
4902, 14.269136, 2.082575, 49.220249
4903, 13.158016, 2.082593, 43.446732
4904, 13.508651, 4.584123, 43.446758
4905, 53.333340, 2.082582, 44.628551
4906, 9.824690, 2.082577, 45.371246
4907, 40.000027, 4.543960, 59.434799
4908, 26.666672, 2.122740, 59.434799
4909, 54.869541, 2.122739, 27.755880
4910, 5.565721, 4.317075, 29.563086
4911, 56.842213, 2.083081, 87.710587
4912, 9.824487, 4.583619, 87.710587
4913, 36.666672, 2.081917, 68.770622
4914, 30.000027, 4.584783, 68.770622
4915, 40.176826, 4.584784, 44.933033
4916, 64.402031, 4.586637, 21.975990
4917, 51.332684, 2.114567, 17.947624
4918, 15.334018, 4.552133, 17.947624
4919, 5.669180, 2.124514, 35.085220
4920, 29.588919, 4.343677, 97.645119
4921, 48.888920, 4.620424, 20.522184
4922, 55.847076, 2.160301, 71.774246
4923, 10.819625, 4.506399, 71.774246
4924, 26.812731, 4.506197, 39.445988
4925, 37.921219, 4.495311, 10.466643
4926, 28.745481, 2.171389, 10.466643
4927, 51.111168, 2.024699, 10.189911
4928, 54.592186, 4.506198, 95.253624
4929, 51.340794, 2.114402, 21.796844
4930, 59.088978, 2.096859, 18.446383
4931, 7.577724, 4.569841, 18.446383
4932, 16.895262, 2.112257, 8.328117
4933, 54.444481, 4.562322, 11.735727
4934, 31.111116, 2.113959, 59.418186
4935, 38.122688, 2.105994, 62.593842
4936, 28.544012, 4.560707, 62.593842
4937, 2.162739, 2.883193, 72.032784
4938, 2.326293, 2.492977, 74.416496
4939, 64.503960, 3.783508, 72.032784
4940, 64.340408, 4.173723, 74.416496
4941, 40.957901, 2.160496, 27.245058
4942, 25.708799, 4.506204, 27.245058
4943, 44.291237, 2.160496, 13.773548
4944, 22.375463, 4.506205, 13.773548
4945, 22.375467, 4.506204, 63.058369
4946, 44.291233, 2.160496, 63.058369
4947, 46.819916, 4.506198, 81.772575
4948, 7.930991, 4.507335, 11.855005
4949, 44.291084, 2.160502, 33.549629
4950, 22.375618, 4.506197, 33.549629
4951, 13.179968, 2.160501, 89.470322
4952, 61.282780, 4.620384, 14.764320
4953, 45.926807, 4.558331, 39.271782
4954, 2.353936, 2.346956, 36.722576
4955, 18.579399, 4.506199, 83.962479
4956, 34.276127, 2.081810, 95.392159
4957, 58.733868, 2.159365, 11.851816
4958, 62.225498, 4.627295, 48.655228
4959, 4.528262, 2.117007, 47.550781
4960, 19.838833, 2.151909, 10.446792
4961, 5.393875, 2.050177, 14.772037
4962, 51.111141, 4.593135, 74.565849
4963, 15.555561, 2.073565, 74.565849
4964, 2.330141, 4.584202, 52.889431
4965, 23.171333, 4.539461, 73.580215
4966, 43.495369, 2.127239, 73.580215
4967, 50.260155, 2.348395, 2.267582
4968, 36.886848, 4.324886, 97.669533
4969, 21.360571, 2.336880, 97.663116
4970, 56.914330, 2.336875, 97.663124
4971, 8.110765, 2.161323, 57.016834
4972, 33.128296, 4.530358, 66.400284
4973, 15.432900, 2.050724, 37.203773
4974, 58.551010, 4.505365, 57.016857
4975, 47.863178, 4.531104, 4.643411
4976, 15.338056, 2.080591, 14.142749
4977, 51.328644, 4.586109, 14.142749
4978, 39.478516, 4.558008, 81.736893
4979, 40.885090, 4.329820, 97.663116
4980, 57.610806, 4.511094, 89.999771
4981, 9.055896, 2.155606, 89.999771
4982, 33.333340, 2.082435, 17.574528
4983, 38.163795, 2.098903, 33.506821
4984, 26.525301, 4.525547, 66.893715
4985, 40.141399, 2.141153, 66.893715
4986, 26.371359, 4.532651, 89.701622
4987, 44.267040, 2.134045, 54.856392
4988, 22.399662, 4.532655, 54.856392
4989, 25.732996, 4.532655, 31.598032
4990, 40.933704, 2.134045, 31.598032
4991, 47.659908, 4.532656, 11.841514
4992, 11.229049, 2.134056, 93.858017
4993, 58.879650, 2.108706, 38.522369
4994, 25.424305, 2.048964, 42.982239
4995, 54.298782, 4.524360, 88.064102
4996, 18.069740, 4.524265, 58.943962
4997, 48.596962, 2.142435, 58.943962
4998, 36.374737, 2.142435, 23.661457
4999, 30.291964, 4.524265, 23.661457
5000, 36.374737, 2.142435, 27.510458
5001, 30.291964, 4.524265, 27.510458
5002, 30.965153, 2.142435, 86.139816
5003, 53.479332, 2.142455, 85.634140
5004, 13.187366, 4.524245, 85.634140
5005, 49.708069, 2.142437, 83.962486
5006, 34.736404, 2.142438, 80.113480
5007, 26.374741, 4.524262, 82.037979
5008, 49.854057, 4.524263, 56.766636
5009, 16.812645, 2.142437, 56.766636
5010, 30.965157, 2.142438, 77.936150
5011, 40.965157, 4.524262, 64.464638
5012, 25.701542, 2.142438, 64.464638
5013, 27.631823, 2.142438, 79.860649
5014, 50.145992, 2.142439, 88.064316
5015, 16.812651, 2.142438, 61.121292
5016, 49.854050, 4.524261, 61.121292
5017, 52.368214, 2.142439, 61.121292
5018, 14.298487, 4.524261, 61.121292
5019, 20.379412, 4.483408, 10.161015
5020, 22.368208, 2.142438, 66.894798
5021, 44.298492, 4.524261, 66.894798
5022, 9.853885, 4.524404, 34.956989
5023, 10.965173, 4.524229, 59.197002
5024, 55.701527, 2.142468, 59.196991
5025, 12.368284, 2.142447, 35.461327
5026, 55.409161, 2.142493, 33.536983
5027, 11.405998, 4.523849, 51.243759
5028, 53.183765, 4.523829, 54.840584
5029, 13.482927, 2.142868, 54.840588
5030, 10.965151, 4.524233, 47.144119
5031, 41.252102, 4.523378, 8.523128
5032, 14.743570, 4.521409, 45.480095
5033, 49.161469, 2.336714, 69.561066
5034, 17.505232, 4.329986, 69.561066
5035, 37.908195, 4.530780, 6.101270
5036, 20.029295, 4.594584, 14.154500
5037, 46.637405, 2.072117, 14.154500
5038, 2.086152, 2.097620, 22.016111
5039, 35.429916, 2.131893, 6.107398
5040, 34.580421, 4.519374, 8.537457
5041, 32.086277, 2.147326, 8.537457
5042, 26.666693, 4.614785, 55.283024
5043, 30.015078, 2.006190, 53.161766
5044, 27.913109, 4.518137, 8.541451
5045, 38.753590, 2.148563, 8.541451
5046, 53.067604, 4.534564, 8.639676
5047, 41.733780, 4.567361, 35.567936
5048, 40.975227, 4.528090, 73.406219
5049, 62.460213, 4.441700, 52.515411
5050, 22.222223, 2.045065, 40.811115
5051, 44.592422, 4.621642, 75.708405
5052, 22.074276, 2.045058, 75.708405
5053, 33.153378, 4.516231, 51.505550
5054, 24.941198, 2.096282, 77.902184
5055, 9.066098, 2.050267, 16.502632
5056, 14.861114, 2.207232, 21.858372
5057, 57.595314, 4.615709, 16.499578
5058, 49.629337, 4.507774, 39.059513
5059, 3.444665, 2.103365, 68.010956
5060, 63.222034, 4.563335, 68.010956
5061, 64.003235, 4.560512, 90.685448
5062, 2.663465, 2.106188, 90.685448
5063, 16.869482, 2.095557, 15.949647
5064, 49.797218, 4.571143, 15.949647
5065, 45.908295, 2.078594, 37.570808
5066, 37.317451, 4.393970, 75.117226
5067, 35.347744, 2.272727, 64.727524
5068, 31.318956, 4.393973, 64.727524
5069, 11.871989, 4.589603, 39.259720
5070, 23.333359, 4.608285, 84.248749
5071, 44.196526, 4.608287, 10.333094
5072, 53.581215, 4.608274, 41.125095
5073, 55.803474, 2.058410, 37.276035
5074, 32.025234, 2.160496, 34.867245
5075, 9.687667, 4.369297, 97.611870
5076, 12.222220, 2.056776, 11.824916
5077, 24.203981, 2.053619, 48.818794
5078, 20.834747, 2.314170, 2.314170
5079, 47.525925, 2.057484, 8.417588
5080, 30.048061, 4.342919, 2.330625
5081, 50.206623, 4.506212, 42.548603
5082, 46.914490, 2.050367, 81.894913
5083, 11.423389, 2.073601, 24.099266
5084, 60.770050, 4.385189, 88.943977
5085, 5.896648, 2.281512, 88.943977
5086, 20.732632, 4.463943, 37.242760
5087, 33.973019, 2.248463, 39.813221
5088, 36.346607, 2.140467, 31.307425
5089, 44.696373, 2.048542, 93.439545
5090, 36.455105, 4.506199, 37.407986
5091, 17.732201, 1.992592, 20.427633
5092, 14.902317, 4.556052, 22.036720
5093, 59.802250, 2.107704, 86.022369
5094, 6.864450, 4.558996, 86.022369
5095, 34.016476, 2.160496, 57.019463
5096, 32.650223, 4.506204, 57.019463
5097, 41.539112, 2.160501, 57.019463
5098, 19.107634, 4.512827, 4.798655
5099, 33.548306, 2.160502, 44.458660
5100, 25.296865, 4.619647, 16.110825
5101, 41.369835, 2.047053, 16.110825
5102, 28.888893, 2.015981, 47.548286
5103, 37.777786, 2.074092, 78.831955
5104, 6.897361, 2.094444, 5.088282
5105, 59.769878, 4.572566, 5.088269
5106, 30.554951, 4.593099, 41.303078
5107, 47.777786, 2.062199, 73.269707
5108, 18.888912, 4.604501, 73.269707
5109, 34.225109, 4.506199, 43.286396
5110, 52.002892, 4.506199, 95.129562
5111, 15.774916, 4.506196, 10.569874
5112, 11.880796, 2.099993, 31.438057
5113, 10.238857, 4.566792, 41.367088
5114, 23.569113, 2.109126, 83.687599
5115, 52.977310, 2.109165, 41.048664
5116, 55.199444, 4.557580, 37.199772
5117, 44.564568, 2.109035, 9.848057
5118, 19.439943, 4.597009, 18.211308
5119, 47.226757, 2.069691, 18.211308
5120, 2.184457, 2.188587, 18.018969
5121, 61.999290, 4.457330, 10.677472
5122, 56.784840, 4.660338, 53.102261
5123, 2.133689, 4.619855, 77.964188
5124, 64.533012, 2.046845, 77.964188
5125, 4.668530, 2.207348, 10.674069
5126, 59.765877, 2.086341, 5.105017
5127, 6.900281, 4.580674, 5.105001
5128, 40.949760, 4.596508, 77.737251
5129, 64.617340, 2.140631, 45.503769
5130, 64.541153, 4.555258, 18.236855
5131, 44.262066, 4.637473, 2.648570
5132, 2.152688, 4.614052, 62.492226
5133, 62.541843, 2.131739, 56.407364
5134, 51.000713, 2.000603, 97.370247
5135, 25.093819, 4.506199, 57.019463
5136, 64.513901, 2.052742, 62.493324
5137, 4.116831, 4.533022, 56.405445
5138, 47.312141, 4.506199, 22.378443
5139, 19.000824, 2.072394, 31.553316
5140, 9.361306, 2.160245, 20.453634
5141, 20.474234, 2.160501, 93.584991
5142, 57.303288, 4.506456, 20.453632
5143, 14.184450, 4.603938, 2.988813
5144, 51.587563, 4.506201, 82.037987
5145, 15.079139, 2.160499, 82.037987
5146, 51.980362, 2.148668, 75.876274
5147, 14.686339, 4.518033, 75.876274
5148, 5.082371, 2.201752, 94.904778
5149, 61.584328, 4.464948, 94.904778
5150, 59.238010, 2.085042, 31.460283
5151, 64.526802, 4.526808, 2.492122
5152, 2.139895, 2.139889, 2.492122
5153, 23.076715, 4.561844, 95.209557
5154, 29.147415, 2.144542, 2.131540
5155, 62.283009, 2.303472, 41.528248
5156, 23.827070, 2.160501, 57.019463
5157, 42.839630, 4.506199, 57.019463
5158, 23.827072, 2.160501, 60.868465
5159, 42.839630, 4.506199, 60.868465
5160, 19.135763, 2.160503, 34.780888
5161, 51.357990, 2.160501, 94.012566
5162, 58.640709, 4.506259, 95.079918
5163, 8.025969, 2.160435, 95.079933
5164, 53.042530, 2.031252, 14.206842
5165, 61.366714, 4.470269, 81.154106
5166, 5.299984, 2.196431, 81.154106
5167, 7.912920, 4.671101, 41.545452
5168, 5.332417, 4.521610, 61.344643
5169, 37.549377, 4.552732, 86.084694
5170, 42.979221, 2.179110, 80.406281
5171, 61.335224, 2.147568, 61.345539
5172, 39.146999, 2.160501, 37.327427
5173, 48.077003, 2.027523, 31.532206
5174, 39.889248, 2.122297, 49.007446
5175, 51.609116, 4.510427, 25.574974
5176, 6.056568, 4.524544, 22.346905
5177, 48.631023, 2.083969, 24.351963
5178, 21.794905, 2.072702, 78.019714
5179, 32.502338, 2.063653, 4.491006
5180, 35.555561, 2.042349, 59.696770
5181, 6.583548, 4.352372, 37.226761
5182, 18.816853, 4.700025, 39.099064
5183, 40.811100, 4.597317, 4.496006
5184, 59.737385, 2.091654, 55.176060
5185, 24.906681, 4.626595, 35.583099
5186, 58.599022, 2.063505, 35.457436
5187, 46.547459, 2.099499, 62.501225
5188, 20.119240, 4.567201, 62.501225
5189, 7.419432, 4.600680, 77.673859
5190, 59.247269, 2.066020, 77.673859
5191, 26.735500, 4.606000, 48.301498
5192, 41.111141, 4.730294, 92.943497
5193, 21.605211, 2.038366, 6.697167
5194, 5.330027, 4.515779, 8.713972
5195, 61.336662, 2.150917, 8.713970
5196, 43.221905, 4.694578, 96.856842
5197, 39.836632, 2.097289, 55.444843
5198, 3.289424, 2.025841, 7.095591
5199, 63.377159, 4.640809, 7.095592
5200, 25.007719, 4.506202, 93.584991
5201, 42.503872, 4.506197, 49.167770
5202, 47.496170, 2.160505, 52.682659
5203, 19.170528, 4.506195, 52.682659
5204, 31.392757, 4.506197, 33.771759
5205, 45.273945, 4.506197, 92.148285
5206, 52.503788, 2.160468, 38.569729
5207, 43.614971, 4.506200, 12.602240
5208, 23.051727, 2.160500, 12.602240
5209, 54.726082, 2.160498, 65.205254
5210, 11.940619, 4.506202, 65.205254
5211, 55.837059, 4.506255, 40.494232
5212, 56.384956, 2.160486, 39.545132
5213, 23.333342, 1.987681, 95.715782
5214, 53.158508, 2.021548, 48.679173
5215, 3.035664, 2.081910, 14.328671
5216, 63.613228, 4.594554, 14.335689
5217, 26.954861, 2.160501, 39.199810
5218, 64.263992, 2.200193, 48.436821
5219, 4.697354, 2.193190, 62.464573
5220, 61.969540, 4.473360, 62.464470
5221, 23.151770, 1.991860, 3.088396
5222, 8.954258, 4.581362, 24.020655
5223, 4.920185, 4.430569, 24.359812
5224, 38.149410, 2.042818, 85.734108
5225, 16.348478, 4.623883, 35.453854
5226, 54.771042, 2.014295, 91.466454
5227, 46.671455, 4.652413, 55.474823
5228, 19.995247, 2.014287, 55.474823
5229, 48.104382, 2.014295, 91.466431
5230, 28.109142, 2.014295, 91.474686
5231, 8.071382, 2.159053, 11.611835
5232, 58.594662, 4.507647, 11.610695
5233, 26.669069, 2.016730, 2.009736
5234, 37.480053, 2.160502, 45.346676
5235, 4.453785, 2.039275, 2.020928
5236, 62.212914, 4.627426, 2.020927
5237, 35.663647, 4.543237, 50.866314
5238, 43.333340, 2.006190, 46.391911
5239, 50.796272, 2.006191, 33.465733
5240, 16.666693, 4.660510, 65.081024
5241, 50.000008, 2.006190, 65.081024
5242, 37.777786, 2.006190, 93.948547
5243, 7.702015, 4.614155, 49.700829
5244, 47.171539, 2.160497, 22.378443
5245, 15.858696, 2.160501, 10.714985
5246, 20.621632, 4.501772, 70.496727
5247, 46.045067, 2.164927, 70.496727
5248, 12.528066, 4.501768, 16.504677
5249, 54.138634, 2.164932, 16.504677
5250, 25.111864, 2.176231, 97.454430
5251, 9.667780, 2.170231, 30.702440
5252, 61.860634, 2.141877, 52.607422
5253, 44.911129, 4.622836, 77.988693
5254, 18.506792, 4.643770, 95.330780
5255, 33.554512, 4.682317, 41.092251
5256, 37.453373, 2.160497, 90.297905
5257, 32.871086, 4.506203, 12.114448
5258, 51.376698, 4.531532, 5.828569
5259, 48.411709, 4.513053, 27.519358
5260, 57.299412, 4.614625, 14.219373
5261, 18.878115, 3.983800, 87.824760
5262, 42.081825, 2.035137, 52.752579
5263, 19.240471, 2.020184, 79.869102
5264, 50.303177, 2.140301, 46.335384
5265, 63.347794, 2.086027, 25.654900
5266, 60.442131, 4.428059, 73.780693
5267, 6.224570, 2.238642, 73.780693
5268, 18.561647, 4.561278, 75.840744
5269, 48.105053, 2.105422, 75.840744
5270, 64.564667, 4.616857, 35.879227
5271, 9.370265, 2.047337, 14.226149
5272, 17.444233, 2.157698, 46.826523
5273, 24.444469, 4.728961, 6.271586
5274, 42.731068, 4.660839, 39.405197
5275, 9.524561, 2.075299, 6.883731
5276, 57.141239, 4.591712, 6.883974
5277, 36.802120, 4.598822, 72.892937
5278, 14.027315, 4.506202, 14.038948
5279, 5.556422, 4.647694, 81.021599
5280, 61.110279, 2.019006, 81.021599
5281, 24.015743, 2.030267, 39.386238
5282, 11.353374, 4.696741, 75.762840
5283, 55.313328, 1.969959, 75.762840
5284, 13.152948, 1.955279, 29.539099
5285, 50.109726, 4.549802, 68.149879
5286, 16.556973, 2.116898, 68.149879
5287, 50.355095, 2.160492, 42.291428
5288, 25.444357, 1.956535, 23.661457
5289, 41.222343, 4.710165, 23.661457
5290, 52.977859, 4.506217, 37.748653
5291, 14.443595, 4.698277, 7.264306
5292, 54.752003, 2.115272, 95.807159
5293, 1.993278, 4.477216, 17.825972
5294, 3.790062, 2.090806, 39.291248
5295, 29.227121, 4.629469, 51.191261
5296, 11.868921, 2.152887, 21.782082
5297, 5.334491, 2.255259, 25.434446
5298, 61.608116, 2.173649, 94.777122
5299, 5.058583, 4.493051, 94.777122
5300, 2.070231, 2.040524, 46.892654
5301, 47.036591, 4.503686, 78.823135
5302, 64.540421, 2.031214, 95.289955
5303, 2.126281, 4.635486, 95.289955
5304, 46.657280, 4.754344, 97.485832
5305, 59.194893, 4.633979, 25.939737
5306, 64.550491, 2.135922, 17.954239
5307, 12.803813, 2.074559, 8.795323
5308, 51.913395, 2.009969, 35.455734
5309, 27.010460, 4.571140, 75.454277
5310, 45.500946, 4.490672, 85.846634
5311, 37.229870, 2.176028, 16.858229
5312, 35.062267, 2.176027, 13.103827
5313, 50.616177, 2.175637, 90.671928
5314, 19.272011, 4.506203, 34.544899
5315, 47.049797, 2.160500, 33.947529
5316, 61.635490, 2.241838, 75.069717
5317, 5.031210, 4.424862, 75.069717
5318, 3.005752, 1.962180, 49.313587
5319, 58.894897, 2.003214, 53.035461
5320, 44.060707, 4.506200, 33.948650
5321, 28.888906, 2.202353, 58.248104
5322, 37.777794, 4.464346, 58.248104
5323, 18.281466, 2.172211, 77.377449
5324, 61.831520, 2.034065, 37.257225
5325, 8.617338, 4.549307, 71.191376
5326, 58.049362, 2.117393, 71.191376
5327, 39.494244, 4.475921, 51.731609
5328, 11.117140, 4.683173, 79.003227
5329, 55.549561, 1.983527, 79.003227
5330, 58.878361, 1.921496, 81.459457
5331, 7.788341, 4.745204, 81.459457
5332, 14.043454, 1.997304, 41.352959
5333, 62.989609, 2.133964, 11.042658
5334, 3.696716, 4.525290, 11.043840
5335, 13.389235, 4.654350, 25.022861
5336, 39.924908, 1.919399, 75.622978
5337, 1.944583, 1.941895, 60.000000
5338, 7.762550, 4.573755, 56.624310
5339, 4.374659, 4.616320, 39.624352
5340, 22.581011, 2.154078, 33.938747
5341, 53.588463, 2.138212, 22.294628
5342, 24.082899, 4.524589, 60.844582
5343, 42.583801, 2.142111, 60.844582
5344, 33.304623, 1.885642, 74.323402
5345, 57.366585, 4.686986, 85.655937
5346, 9.300116, 1.979714, 85.655937
5347, 25.653603, 4.742706, 12.195149
5348, 41.013100, 1.923994, 12.195149
5349, 49.492134, 4.687956, 72.122246
5350, 17.174564, 1.978744, 72.122246
5351, 43.444881, 1.911002, 95.445099
5352, 11.341814, 2.132610, 27.607450
5353, 37.433796, 2.134346, 74.959213
5354, 44.444443, 1.870175, 58.943966
5355, 22.222258, 4.796525, 58.943966
5356, 64.647926, 4.564764, 53.061710
5357, 14.567414, 2.241327, 97.758675
5358, 47.308163, 2.002091, 95.303711
5359, 60.302132, 4.510715, 91.672050
5360, 6.364565, 2.155984, 91.672050
5361, 56.975105, 2.076424, 42.688061
5362, 62.854446, 2.199697, 97.842468
5363, 3.812252, 4.467003, 97.842468
5364, 34.444473, 4.801159, 62.151474
5365, 18.225185, 2.160503, 40.207058
5366, 19.251068, 4.531072, 50.013382
5367, 31.927204, 2.106652, 61.640858
5368, 10.347950, 4.589058, 7.155920
5369, 12.195293, 1.978910, 69.373390
5370, 54.471405, 4.687790, 69.373390
5371, 32.236931, 4.798284, 37.765984
5372, 64.722366, 4.724948, 59.996746
5373, 54.806183, 4.542747, 73.261864
5374, 11.860516, 2.123952, 73.261864
5375, 53.000359, 2.116235, 2.116738
5376, 4.330918, 2.029133, 97.964989
5377, 62.335781, 4.637567, 97.964989
5378, 33.353256, 4.797263, 47.385479
5379, 4.745511, 2.148606, 50.745518
5380, 51.486763, 2.088840, 25.399740
5381, 56.314999, 2.103941, 7.298954
5382, 61.578815, 4.655957, 8.465242
5383, 56.687435, 1.878268, 46.741600
5384, 40.964371, 4.699222, 42.817986
5385, 20.005993, 4.701014, 78.695114
5386, 3.696590, 4.534067, 43.659374
5387, 5.086140, 2.013541, 8.463369
5388, 42.028973, 1.966585, 2.547681
5389, 11.112062, 4.705578, 1.961659
5390, 55.554638, 1.961122, 1.961659
5391, 25.647299, 2.160500, 93.584991
5392, 55.413921, 4.631542, 24.873972
5393, 32.973080, 4.576759, 70.748337
5394, 59.132271, 4.438931, 2.227770
5395, 7.534332, 2.227734, 2.227734
5396, 61.611557, 4.440717, 24.824583
5397, 32.175800, 1.873409, 68.551949
5398, 52.793350, 1.959175, 8.595343
5399, 48.917095, 4.797512, 93.590302
5400, 15.642260, 4.774717, 5.029897
5401, 8.888149, 4.771828, 93.722115
5402, 57.778549, 1.894859, 93.722084
5403, 29.968279, 4.800004, 87.804657
5404, 14.422682, 4.800006, 53.146393
5405, 53.982216, 4.711647, 20.079336
5406, 44.444477, 4.711842, 51.780224
5407, 14.424623, 4.797504, 49.344288
5408, 22.220968, 1.955267, 51.779160
5409, 61.783424, 4.694238, 33.502789
5410, 63.101940, 4.542960, 28.196335
5411, 48.513416, 2.055870, 20.560658
5412, 26.203487, 1.965582, 33.579811
5413, 37.329388, 4.697044, 77.973984
5414, 5.198191, 4.709796, 50.844387
5415, 35.532871, 1.962257, 47.912003
5416, 59.649471, 4.560884, 51.666119
5417, 17.320787, 4.703872, 43.312328
5418, 34.440464, 1.849093, 68.571640
5419, 38.416679, 1.950627, 41.350826
5420, 28.250023, 4.716073, 41.350826
5421, 59.354649, 2.134899, 50.333405
5422, 33.335373, 4.820379, 78.185471
5423, 39.284958, 4.519608, 40.867786
5424, 58.960331, 2.063915, 57.394321
5425, 11.110524, 4.823263, 55.093948
5426, 37.777798, 4.824543, 21.736956
5427, 28.888905, 1.842157, 21.736956
5428, 37.777798, 4.824543, 25.585958
5429, 28.888905, 1.842157, 25.585958
5430, 26.666681, 4.824543, 21.736956
5431, 40.000019, 1.842158, 21.736956
5432, 33.333351, 4.824543, 82.037979
5433, 30.000017, 4.824543, 83.962479
5434, 34.444462, 1.842157, 83.962479
5435, 30.000017, 4.824543, 80.113480
5436, 33.333351, 4.824543, 85.886978
5437, 31.111128, 1.842157, 82.037979
5438, 27.777794, 1.842157, 83.962479
5439, 14.444457, 4.824543, 57.019463
5440, 52.222240, 1.842157, 57.019463
5441, 53.333252, 4.824544, 58.943966
5442, 13.333462, 1.842156, 58.943966
5443, 51.110893, 4.824545, 85.886986
5444, 15.555805, 1.842155, 85.886986
5445, 4.746666, 2.047167, 20.673716
5446, 22.889975, 4.681321, 4.653935
5447, 61.672302, 2.225233, 28.840975
5448, 53.401733, 4.696308, 4.879973
5449, 27.325945, 4.611716, 37.265968
5450, 7.034621, 4.599011, 47.551735
5451, 49.902508, 2.052975, 27.900290
5452, 16.180531, 1.944440, 23.942122
5453, 47.777809, 4.722259, 46.194118
5454, 53.333366, 4.722259, 51.807304
5455, 21.009783, 4.533619, 97.398376
5456, 63.695862, 2.017171, 87.333969
5457, 2.970840, 4.649529, 87.333969
5458, 37.985512, 2.045873, 2.045873
5459, 58.885349, 1.848796, 22.375666
5460, 47.776905, 2.226286, 2.155897
5461, 46.707596, 4.816390, 33.307568
5462, 29.838453, 1.968864, 50.067261
5463, 18.881407, 1.838300, 83.962486
5464, 30.062052, 1.975167, 38.363422
5465, 7.040738, 4.577140, 58.741756
5466, 8.675878, 1.978397, 66.745491
5467, 57.990826, 4.688300, 66.745506
5468, 45.561794, 1.848968, 4.431525
5469, 35.809536, 2.123461, 50.613617
5470, 34.456406, 4.832741, 23.668339
5471, 34.456406, 4.832741, 19.819336
5472, 48.888897, 1.833963, 55.108761
5473, 17.777803, 4.832737, 55.108761
5474, 23.345304, 4.832737, 46.762360
5475, 33.345306, 4.832737, 89.729095
5476, 18.888889, 1.833963, 64.731270
5477, 47.777809, 4.832736, 64.731270
5478, 52.233978, 4.832842, 31.366222
5479, 32.210522, 4.832848, 19.819218
5480, 27.765636, 1.833825, 87.804474
5481, 13.321188, 1.833822, 51.238953
5482, 64.469391, 4.371643, 38.776291
5483, 22.222248, 4.836606, 44.826252
5484, 7.120386, 2.134995, 44.201260
5485, 28.890715, 4.837724, 93.583954
5486, 32.222248, 4.837725, 91.662575
5487, 22.220440, 4.837727, 89.734947
5488, 19.212667, 2.055248, 12.587640
5489, 36.042660, 4.586666, 35.215355
5490, 49.999119, 1.826712, 12.114955
5491, 7.806828, 1.840498, 77.555115
5492, 58.859871, 4.826202, 77.555115
5493, 52.836601, 4.699728, 75.976746
5494, 13.830099, 1.966972, 75.976746
5495, 46.699829, 4.823849, 89.734833
5496, 43.333366, 4.734604, 15.370027
5497, 23.333334, 1.932096, 15.370027
5498, 17.493509, 2.065236, 97.934761
5499, 26.488001, 1.940051, 71.708809
5500, 26.524267, 4.535408, 4.482618
5501, 64.259483, 2.193528, 39.337303
5502, 54.962734, 4.736557, 43.205803
5503, 21.249712, 1.869440, 22.298429
5504, 5.107957, 1.940179, 41.463528
5505, 58.889633, 4.853704, 60.868061
5506, 7.777577, 1.812469, 60.868355
5507, 13.240323, 1.985804, 4.814971
5508, 16.163992, 4.688805, 20.208700
5509, 35.343121, 4.617914, 2.047779
5510, 27.777781, 1.927016, 15.356828
5511, 10.525362, 4.739686, 91.357185
5512, 56.251480, 2.028470, 10.361452
5513, 14.697330, 4.473218, 97.806519
5514, 38.304199, 4.740149, 18.191856
5515, 26.081961, 1.926550, 27.814371
5516, 40.584740, 4.740150, 27.814371
5517, 47.193077, 1.926550, 85.583069
5518, 13.859744, 4.740149, 89.432076
5519, 4.217062, 1.944668, 43.482300
5520, 45.709465, 1.869440, 50.693321
5521, 43.333363, 4.797264, 69.671776
5522, 23.333338, 1.869437, 69.671776
5523, 52.255280, 4.773640, 91.860306
5524, 36.666695, 4.841191, 91.690758
5525, 18.900175, 4.730270, 7.655221
5526, 64.672844, 2.720280, 56.162827

*ELEMENT, TYPE=C3D4, ELSET=ALL_ELEMENTS
1, 2451, 4306, 4115, 5086
2, 2102, 4577, 4297, 4810
3, 469, 4578, 4298, 4809
4, 2603, 4220, 4055, 5167
5, 2568, 4284, 2824, 4914
6, 597, 4601, 4576, 4716
7, 2023, 4201, 3772, 4509
8, 1989, 4036, 1846, 5129
9, 4655, 4678, 828, 4736
10, 4247, 4616, 2233, 5116
11, 2638, 4868, 4165, 4890
12, 2023, 2021, 4201, 4509
13, 1627, 4046, 4372, 5217
14, 2404, 3862, 4106, 4196
15, 480, 4047, 3879, 5174
16, 1084, 4602, 4207, 4956
17, 4595, 4720, 2653, 4793
18, 480, 3879, 4047, 4258
19, 3883, 553, 4350, 5497
20, 2186, 4351, 3882, 5496
21, 1250, 4242, 3916, 4878
22, 2266, 4552, 4503, 5069
23, 3109, 4229, 3956, 4915
24, 2050, 3807, 4184, 4499
25, 1031, 3954, 4177, 4273
26, 2050, 4184, 2048, 4499
27, 2333, 4598, 4552, 4755
28, 458, 4223, 457, 4224
29, 457, 4223, 459, 4224
30, 967, 4223, 453, 4225
31, 967, 1433, 4223, 4225
32, 819, 743, 4227, 4228
33, 819, 4227, 1394, 4228
34, 1644, 4234, 822, 4236
35, 1644, 994, 4234, 4236
36, 745, 890, 4228, 4237
37, 745, 4228, 891, 4237
38, 1644, 994, 822, 4234
39, 458, 457, 459, 4224
40, 967, 1433, 453, 4223
41, 819, 1394, 743, 4228
42, 745, 891, 890, 4237
43, 1069, 1756, 3753, 4142
44, 3389, 3754, 2702, 4141
45, 2451, 3861, 4306, 5086
46, 3150, 4298, 4296, 4462
47, 3754, 4081, 2702, 4141
48, 3753, 4080, 1069, 4142
49, 4720, 4793, 4595, 4898
50, 498, 3794, 4399, 5264
51, 598, 4601, 597, 4716
52, 2477, 4130, 4030, 4681
53, 3278, 4371, 3909, 5157
54, 1645, 4370, 3910, 5156
55, 2477, 4030, 4668, 4681
56, 2639, 4210, 2810, 4404
57, 1989, 4111, 4036, 5129
58, 2404, 4196, 4106, 4953
59, 4623, 4631, 1473, 4751
60, 4503, 4552, 3978, 5069
61, 1040, 828, 4678, 4736
62, 3110, 4073, 3935, 4825
63, 3883, 4350, 4160, 5497
64, 3882, 4351, 4159, 5496
65, 1497, 4939, 4142, 4940
66, 3130, 4937, 4141, 4938
67, 2102, 4297, 4295, 4810
68, 469, 4298, 4296, 4809
69, 2183, 4471, 3905, 4718
70, 4233, 4784, 857, 4994
71, 2877, 2653, 4720, 4793
72, 3591, 4105, 1294, 4271
73, 2451, 4115, 4306, 5185
74, 2340, 2353, 4245, 4253
75, 707, 720, 4246, 4254
76, 2340, 4245, 2339, 4253
77, 707, 4246, 706, 4254
78, 2023, 4118, 3772, 5301
79, 1989, 3393, 4036, 4111
80, 2333, 2521, 4598, 4755
81, 3861, 4115, 771, 4306
82, 4073, 4191, 2244, 4635
83, 2451, 4875, 4115, 5185
84, 3132, 3927, 4996, 5355
85, 1499, 3928, 4997, 5354
86, 1265, 4312, 573, 4331
87, 2898, 4311, 2206, 4332
88, 2824, 4284, 4450, 4914
89, 3278, 3909, 4371, 5159
90, 1645, 3910, 4370, 5158
91, 3937, 4372, 4046, 5217
92, 3692, 4126, 338, 4316
93, 1971, 3700, 4127, 4317
94, 3456, 3100, 4035, 4182
95, 2997, 3753, 2999, 4142
96, 1364, 3754, 1366, 4141
97, 3794, 498, 4498, 5264
98, 1677, 4691, 4791, 5114
99, 1745, 4088, 4186, 5126
100, 3883, 553, 4297, 4350
101, 2186, 4298, 3882, 4351
102, 3378, 4087, 4187, 5127
103, 2295, 2233, 4616, 5116
104, 4576, 4601, 4598, 4716
105, 4207, 4602, 1084, 4672
106, 1710, 4265, 3958, 5242
107, 4655, 4679, 4678, 4736
108, 4073, 4399, 3794, 5264
109, 3117, 2102, 4295, 4810
110, 1484, 469, 4296, 4809
111, 2340, 2339, 2353, 4253
112, 707, 706, 720, 4254
113, 1250, 3916, 974, 4878
114, 2228, 2953, 3891, 4891
115, 3905, 4471, 4163, 4718
116, 4552, 4598, 4576, 4755
117, 2793, 3109, 3956, 4915
118, 2381, 2456, 4138, 5046
119, 1340, 4313, 4429, 4919
120, 1559, 5264, 4905, 5287
121, 1688, 1692, 1260, 5261
122, 2451, 4306, 3861, 5185
123, 3517, 4182, 3538, 5137
124, 771, 4115, 3861, 4352
125, 1677, 4791, 1656, 5114
126, 903, 4957, 4098, 5333
127, 1473, 4631, 787, 4751
128, 1378, 4642, 4619, 4770
129, 3810, 4205, 2636, 4334
130, 1191, 4457, 4449, 4913
131, 4218, 4388, 1441, 4500
132, 4068, 1772, 4938, 5267
133, 4066, 3405, 4940, 5266
134, 3118, 4615, 4620, 4775
135, 3533, 3510, 4091, 4731
136, 1441, 4388, 4218, 4431
137, 1497, 1892, 4939, 4940
138, 3526, 4937, 3130, 4938
139, 671, 3904, 4175, 4926
140, 2245, 2244, 4073, 4191
141, 4232, 4791, 4691, 5114
142, 3538, 4182, 4079, 5137
143, 1765, 360, 4077, 4321
144, 1993, 4076, 3398, 4320
145, 2568, 2824, 4284, 4394
146, 3814, 2822, 4345, 5068
147, 2395, 4137, 3763, 4948
148, 4036, 4111, 3393, 4403
149, 3810, 4334, 2636, 4978
150, 4016, 1167, 4063, 4426
151, 2800, 4062, 4015, 4427
152, 2102, 3863, 4297, 4577
153, 3864, 4298, 469, 4578
154, 4449, 4457, 4283, 4913
155, 2883, 4243, 3915, 5031
156, 749, 4137, 3763, 5076
157, 3961, 4602, 4207, 4672
158, 4623, 4641, 4631, 4751
159, 4170, 4812, 1697, 4898
160, 2233, 4382, 4247, 5290
161, 2083, 4662, 4545, 4848
162, 4388, 4431, 1441, 4500
163, 4905, 5264, 4191, 5287
164, 2536, 4948, 4090, 5334
165, 3848, 4170, 1697, 4898
166, 2638, 4165, 3919, 4890
167, 2796, 4081, 4390, 4397
168, 1163, 4080, 4389, 4396
169, 2045, 4192, 3769, 5096
170, 2997, 3753, 4142, 4808
171, 1364, 3754, 4141, 4807
172, 2266, 4503, 2208, 5069
173, 1688, 1260, 4792, 5261
174, 4015, 4062, 2800, 4390
175, 4016, 4063, 1167, 4389
176, 3763, 4137, 2395, 4252
177, 3954, 4273, 1031, 4911
178, 4253, 4667, 1385, 4780
179, 4254, 4666, 3018, 4781
180, 4436, 4475, 2657, 4720
181, 2354, 3977, 4245, 4281
182, 3976, 4246, 721, 4282
183, 3902, 3139, 4501, 5327
184, 483, 3792, 4229, 4304
185, 1082, 4240, 3787, 4293
186, 4302, 4410, 886, 5010
187, 1294, 4105, 1729, 4271
188, 2306, 4174, 3912, 5040
189, 3533, 4731, 4091, 5038
190, 335, 4079, 3518, 4182
191, 2898, 4311, 4332, 4414
192, 1265, 4312, 4331, 4413
193, 3180, 3794, 4379, 4697
194, 3180, 4375, 3794, 4697
195, 3814, 4345, 2822, 5364
196, 2910, 4841, 4586, 4849
197, 1688, 4600, 1692, 5261
198, 1581, 4449, 4286, 4985
199, 3214, 4450, 4285, 4984
200, 1692, 4573, 1260, 5261
201, 3916, 4242, 1250, 4326
202, 3915, 4243, 2883, 4325
203, 3973, 4905, 4191, 5287
204, 4170, 4475, 4436, 4720
205, 2406, 4923, 4051, 5282
206, 773, 4922, 4050, 5283
207, 1130, 4086, 4040, 5298
208, 2763, 4085, 4039, 5299
209, 2381, 4219, 4138, 4933
210, 3772, 4118, 2023, 4347
211, 2381, 4138, 2382, 4933
212, 4612, 4621, 1399, 4902
213, 2490, 4229, 3109, 4915
214, 1765, 4190, 1122, 4321
215, 2755, 3398, 4189, 4320
216, 4619, 4621, 652, 4786
217, 3018, 4640, 4254, 4781
218, 1385, 4639, 4253, 4780
219, 2451, 3861, 4950, 5185
220, 1559, 534, 5264, 5287
221, 2702, 4081, 3754, 4390
222, 1069, 4080, 3753, 4389
223, 3036, 4400, 4207, 4968
224, 886, 4495, 4302, 5010
225, 3500, 4076, 1993, 4320
226, 1868, 4077, 360, 4321
227, 3110, 3935, 4073, 4635
228, 3289, 4168, 3878, 4334
229, 1627, 4372, 3937, 5217
230, 4098, 4957, 3756, 5333
231, 458, 3866, 4223, 4224
232, 453, 4223, 3855, 4225
233, 1394, 4227, 3851, 4228
234, 822, 4234, 3932, 4236
235, 891, 4228, 3929, 4237
236, 3865, 459, 4223, 4224
237, 3854, 4223, 1433, 4225
238, 743, 3847, 4227, 4228
239, 3838, 4234, 994, 4236
240, 890, 3899, 4228, 4237
241, 3612, 3591, 346, 4271
242, 3591, 1294, 346, 4271
243, 2796, 4397, 4390, 4444
244, 1163, 4396, 4389, 4443
245, 431, 3948, 4146, 4372
246, 2183, 3905, 4325, 4718
247, 2568, 4394, 4284, 4914
248, 2233, 2234, 4382, 5290
249, 3803, 2128, 4996, 5355
250, 3804, 495, 4997, 5354
251, 3965, 4138, 2456, 5046
252, 2023, 3772, 4201, 5301
253, 598, 597, 599, 4716
254, 2877, 2653, 2655, 4720
255, 1832, 1467, 4043, 4183
256, 3811, 4106, 2235, 4511
257, 4545, 4662, 4225, 4848
258, 3391, 4109, 4083, 4183
259, 903, 3756, 4957, 5333
260, 1265, 573, 4312, 5145
261, 2206, 4311, 2898, 5144
262, 1250, 4649, 4242, 4878
263, 3961, 1084, 4602, 4672
264, 2382, 4138, 3762, 4933
265, 749, 4137, 5076, 5307
266, 3702, 1978, 4480, 5304
267, 4164, 4717, 536, 4894
268, 4035, 4182, 3100, 4803
269, 3087, 4303, 4388, 4988
270, 3501, 3548, 3472, 3755
271, 848, 4447, 4064, 5297
272, 4642, 4668, 4619, 4770
273, 3518, 4079, 3538, 4182
274, 3803, 4996, 4370, 5355
275, 3804, 4997, 4371, 5354
276, 4370, 4996, 3927, 5355
277, 4371, 4997, 3928, 5354
278, 4064, 4447, 848, 4787
279, 597, 4576, 599, 4716
280, 2653, 4595, 2655, 4720
281, 471, 1484, 4296, 4809
282, 2104, 3117, 4295, 4810
283, 1033, 4040, 1130, 4086
284, 2763, 2666, 4039, 4085
285, 2999, 3753, 2997, 4808
286, 1364, 1366, 3754, 4807
287, 808, 3911, 4323, 4381
288, 808, 4328, 3911, 4381
289, 3846, 683, 4322, 4380
290, 3846, 4323, 683, 4380
291, 3813, 4327, 1513, 4375
292, 551, 536, 4717, 4894
293, 3560, 3456, 4035, 4182
294, 3092, 3791, 4134, 4211
295, 4586, 4841, 4235, 4849
296, 1971, 4317, 4127, 4492
297, 338, 4316, 4126, 4491
298, 3173, 2161, 4232, 4256
299, 4615, 4625, 4620, 4775
300, 4043, 4183, 1467, 4806
301, 1474, 1378, 4619, 4770
302, 3962, 4245, 2353, 4253
303, 3963, 4246, 720, 4254
304, 3816, 2339, 4245, 4253
305, 3817, 706, 4246, 4254
306, 2283, 4218, 3903, 5042
307, 2735, 4059, 4112, 4871
308, 3554, 3487, 4015, 5132
309, 2233, 4247, 3818, 4616
310, 2283, 4388, 4218, 5042
311, 1873, 4016, 1923, 5136
312, 2636, 3810, 2633, 4205
313, 3794, 4498, 4191, 5264
314, 2381, 4138, 4219, 5046
315, 3118, 3032, 4615, 4775
316, 3702, 4480, 4264, 5304
317, 4039, 4085, 2666, 4272
318, 4040, 4086, 1033, 4273
319, 321, 3471, 4091, 5038
320, 749, 3763, 713, 5076
321, 3491, 1757, 4041, 4267
322, 1833, 3390, 4042, 4268
323, 1102, 4060, 4124, 4877
324, 3813, 1513, 4374, 4375
325, 2810, 4210, 4046, 4404
326, 3152, 4282, 2501, 5210
327, 868, 1519, 4281, 5209
328, 1347, 3828, 4201, 4863
329, 2221, 4171, 3969, 5111
330, 2962, 4082, 4772, 4910
331, 3472, 3755, 3548, 4460
332, 3989, 4359, 2411, 4439
333, 2962, 4437, 4082, 4910
334, 4612, 4626, 4621, 4902
335, 1846, 3080, 1854, 4036
336, 718, 1385, 4667, 4780
337, 2351, 3018, 4666, 4781
338, 3560, 4182, 4035, 5337
339, 3074, 4501, 3139, 5327
340, 420, 4743, 4184, 4794
341, 2501, 4282, 3152, 4364
342, 868, 4281, 1519, 4363
343, 2709, 4083, 4109, 4214
344, 886, 4410, 4302, 4495
345, 2306, 3912, 4174, 5257
346, 2102, 2437, 4577, 4810
347, 804, 4578, 469, 4809
348, 3036, 4207, 4838, 4968
349, 4090, 4948, 3757, 5334
350, 3109, 3956, 4229, 4392
351, 1745, 4186, 1216, 5126
352, 2849, 3378, 4187, 5127
353, 2569, 4203, 3886, 5259
354, 1525, 4042, 1812, 4321
355, 3475, 3158, 4041, 4320
356, 3974, 2244, 4191, 4635
357, 3533, 4091, 3471, 5038
358, 2151, 4287, 4965, 5246
359, 4288, 4966, 518, 5247
360, 4082, 4429, 4313, 4919
361, 2228, 3891, 4333, 5478
362, 2647, 3933, 4103, 4277
363, 2987, 4684, 4144, 4910
364, 3969, 4171, 2221, 5278
365, 3941, 4102, 1684, 4754
366, 1040, 1524, 828, 4736
367, 4145, 5167, 4220, 5339
368, 1684, 4102, 3941, 4812
369, 2083, 2600, 4662, 4848
370, 2536, 3757, 4948, 5334
371, 1856, 1812, 1525, 4042
372, 3475, 3158, 3490, 4041
373, 4313, 4458, 2458, 5022
374, 3387, 4684, 2987, 4910
375, 887, 886, 4410, 5010
376, 3826, 4436, 4170, 4475
377, 4229, 4379, 2490, 5201
378, 4619, 4638, 4621, 4786
379, 2244, 2245, 4073, 4635
380, 878, 4233, 857, 4994
381, 1868, 1525, 1812, 4321
382, 3475, 3500, 3158, 4320
383, 2667, 4272, 4085, 4344
384, 1034, 4273, 4086, 4343
385, 2647, 4103, 3933, 4519
386, 431, 4146, 3948, 5087
387, 2725, 4010, 4242, 5019
388, 2333, 2338, 2521, 4755
389, 2337, 4161, 3846, 4713
390, 671, 4175, 3904, 4714
391, 2023, 4201, 2021, 5301
392, 3769, 4192, 2045, 4434
393, 3156, 4659, 4679, 4843
394, 2151, 4287, 3774, 4965
395, 518, 4288, 3775, 4966
396, 2705, 4026, 4387, 4403
397, 1915, 1846, 1854, 4036
398, 3886, 4203, 2569, 4362
399, 1524, 4655, 828, 4736
400, 2333, 4552, 2338, 4755
401, 1250, 976, 4649, 4878
402, 2872, 4480, 1978, 5304
403, 2268, 4713, 4569, 5169
404, 1924, 4183, 4043, 5372
405, 2569, 3886, 2878, 5259
406, 3902, 4518, 3139, 5327
407, 2872, 4519, 4480, 5304
408, 3693, 4207, 3036, 4400
409, 536, 4883, 4164, 4894
410, 923, 4602, 1084, 4956
411, 2048, 4499, 4184, 4518
412, 1430, 4741, 4911, 5093
413, 3063, 4742, 4912, 5094
414, 2458, 4437, 4313, 5022
415, 1006, 3813, 4730, 4740
416, 2755, 4189, 4041, 4320
417, 1122, 4190, 4042, 4321
418, 3327, 1971, 3700, 4127
419, 1694, 338, 3692, 4126
420, 3511, 3471, 3533, 4091
421, 728, 652, 4621, 4786
422, 1447, 4036, 1859, 4432
423, 3132, 4153, 3927, 5355
424, 1499, 4154, 3928, 5354
425, 3897, 2106, 4148, 4821
426, 2915, 4841, 2910, 4849
427, 2114, 2113, 3880, 5295
428, 3312, 4185, 4840, 4890
429, 3475, 3490, 3539, 4041
430, 1856, 1909, 1812, 4042
431, 1046, 4105, 4012, 4805
432, 2317, 4660, 4572, 5070
433, 1031, 4177, 3954, 5226
434, 2639, 3872, 4210, 4404
435, 1769, 4091, 4209, 5038
436, 3665, 1694, 3692, 4126
437, 3700, 3664, 3327, 4127
438, 1399, 4621, 651, 4902
439, 3880, 2113, 4388, 5295
440, 2411, 3989, 2361, 4359
441, 471, 1484, 469, 4296
442, 2104, 3117, 2102, 4295
443, 2796, 4081, 4397, 4444
444, 4080, 4396, 1163, 4443
445, 4017, 4104, 1039, 4318
446, 1294, 1729, 346, 4271
447, 1598, 4192, 3767, 4195
448, 3231, 4193, 3768, 4194
449, 3903, 4193, 3231, 4194
450, 1598, 3902, 4192, 4195
451, 1345, 3761, 4144, 4429
452, 2683, 4055, 2603, 4220
453, 3092, 4134, 3091, 4211
454, 4148, 4821, 2106, 5508
455, 3839, 4197, 986, 4306
456, 1192, 1677, 1656, 5114
457, 2295, 2294, 2233, 5116
458, 3755, 4772, 4082, 4910
459, 2346, 2382, 3762, 4933
460, 335, 3454, 3518, 4079
461, 4066, 4940, 1497, 5316
462, 4068, 4938, 3130, 5317
463, 1497, 4940, 4142, 5316
464, 3130, 4938, 4141, 5317
465, 1710, 3958, 1706, 5242
466, 1039, 4104, 4017, 4736
467, 2266, 3978, 4552, 5069
468, 4042, 4268, 2750, 4441
469, 4041, 4267, 1117, 4442
470, 2087, 4469, 4606, 5159
471, 454, 4470, 4607, 5158
472, 1514, 3471, 3511, 4091
473, 4654, 4665, 1093, 4857
474, 1149, 4367, 4093, 4413
475, 2782, 4368, 4094, 4414
476, 2438, 4885, 4660, 5070
477, 4012, 4105, 1046, 4261
478, 3693, 4400, 3036, 4968
479, 3939, 4299, 2895, 5248
480, 1262, 3938, 4300, 5249
481, 2354, 4245, 3962, 4281
482, 3963, 721, 4246, 4282
483, 483, 4229, 3879, 4304
484, 1082, 3934, 4240, 4293
485, 3935, 4241, 2715, 4294
486, 3939, 2895, 4918, 5248
487, 1262, 4917, 3938, 5249
488, 773, 1379, 4050, 4922
489, 3012, 4051, 2406, 4923
490, 604, 3809, 4167, 4973
491, 4198, 4762, 2077, 4889
492, 1364, 4141, 4081, 4807
493, 2997, 4142, 4080, 4808
494, 2045, 4499, 4192, 5096
495, 862, 771, 4115, 4306
496, 461, 4116, 396, 4287
497, 2029, 2094, 4117, 4288
498, 3070, 4121, 2708, 4300
499, 1075, 1437, 4122, 4299
500, 3939, 4918, 4299, 5248
501, 3938, 4917, 4300, 5249
502, 4201, 4610, 962, 4845
503, 2595, 4202, 4611, 4844
504, 2616, 4371, 3278, 5157
505, 1645, 983, 4370, 5156
506, 3538, 3518, 3454, 4079
507, 483, 3792, 1618, 4229
508, 1082, 1333, 3787, 4240
509, 2354, 3977, 2396, 4245
510, 763, 721, 3976, 4246
511, 4055, 4220, 2683, 5181
512, 3821, 1435, 4445, 4495
513, 671, 1470, 3904, 4926
514, 986, 4197, 3839, 4336
515, 3152, 4364, 4282, 5210
516, 1519, 4363, 4281, 5209
517, 1202, 677, 4046, 4358
518, 461, 4116, 4287, 4422
519, 4117, 4288, 2094, 4423
520, 3070, 4121, 4300, 4425
521, 4122, 4299, 1437, 4424
522, 1915, 1846, 4036, 5129
523, 1688, 4792, 4600, 5261
524, 2984, 4868, 2638, 4890
525, 4286, 4449, 4408, 4985
526, 4285, 4450, 4409, 4984
527, 4061, 4671, 870, 4734
528, 2348, 3763, 2395, 4252
529, 772, 862, 771, 4115
530, 461, 1154, 396, 4116
531, 2787, 2029, 2094, 4117
532, 3070, 2499, 2708, 4121
533, 866, 1075, 1437, 4122
534, 1166, 4063, 1167, 4426
535, 2800, 2799, 4062, 4427
536, 1216, 4186, 4100, 5126
537, 3312, 4840, 2641, 4890
538, 2849, 4187, 4099, 5127
539, 836, 1473, 787, 4751
540, 3903, 2283, 4383, 5295
541, 1031, 4177, 1030, 4273
542, 2235, 4106, 3811, 5058
543, 3173, 2158, 2161, 4256
544, 4678, 4679, 4659, 4843
545, 2490, 4229, 3925, 4379
546, 2233, 3818, 4247, 4382
547, 3903, 4218, 2283, 5295
548, 3404, 4068, 3130, 5317
549, 1771, 4066, 1497, 5316
550, 4094, 4911, 4741, 5093
551, 4093, 4912, 4742, 5094
552, 2633, 4205, 3810, 5128
553, 4573, 4792, 1260, 5261
554, 3333, 2660, 3826, 4136
555, 1690, 4238, 1303, 4266
556, 1690, 1708, 4238, 4266
557, 2245, 4191, 4073, 5453
558, 4396, 4443, 4080, 5326
559, 4397, 4444, 4081, 5325
560, 677, 4046, 4358, 4372
561, 2667, 2668, 4272, 4344
562, 1034, 1035, 4273, 4343
563, 3539, 3475, 4041, 4320
564, 1812, 4042, 1909, 4321
565, 1073, 4903, 4750, 4906
566, 609, 4310, 3760, 5272
567, 4002, 4437, 2458, 5022
568, 3794, 4375, 4327, 4697
569, 4327, 4379, 3794, 4697
570, 2228, 2231, 4891, 5478
571, 1345, 4144, 3761, 4447
572, 2104, 4295, 3897, 4810
573, 471, 4296, 3896, 4809
574, 1296, 4299, 3859, 4314
575, 518, 4286, 3775, 4288
576, 2151, 4285, 3774, 4287
577, 3864, 4296, 469, 4298
578, 3863, 4295, 2102, 4297
579, 3896, 4296, 3150, 4298
580, 609, 4289, 3760, 4310
581, 4466, 4474, 947, 4725
582, 4467, 4473, 2580, 4724
583, 1262, 4300, 3938, 4315
584, 2895, 4299, 3939, 4314
585, 1130, 4114, 4086, 5298
586, 2763, 4113, 4085, 5299
587, 4569, 4713, 4161, 5169
588, 918, 4107, 4026, 4874
589, 419, 4184, 420, 4743
590, 1756, 3753, 4142, 4939
591, 3754, 4141, 3389, 4937
592, 3333, 4136, 3826, 4436
593, 431, 3948, 428, 5087
594, 1924, 1832, 4043, 4183
595, 2395, 2479, 4137, 4948
596, 1772, 4068, 1112, 5267
597, 3405, 4066, 2745, 5266
598, 836, 4623, 1473, 4751
599, 3902, 4501, 4258, 5327
600, 4164, 4701, 2924, 4893
601, 1235, 1550, 4136, 4992
602, 394, 4116, 3888, 4287
603, 2027, 4117, 3889, 4288
604, 4200, 4503, 3978, 5069
605, 3921, 2148, 4886, 5034
606, 515, 4887, 3922, 5033
607, 3289, 4168, 4334, 4947
608, 4158, 4474, 4466, 4725
609, 4157, 4473, 4467, 4724
610, 3814, 1650, 4510, 4881
611, 595, 4601, 4494, 5284
612, 3846, 2376, 4381, 4706
613, 4188, 4302, 2275, 4394
614, 857, 4233, 3952, 4784
615, 4303, 5203, 2119, 5366
616, 1296, 4314, 3859, 5140
617, 4293, 5203, 4303, 5366
618, 3824, 4232, 2161, 4256
619, 3173, 4232, 3827, 4256
620, 3150, 4296, 3896, 5138
621, 3880, 4388, 4218, 5295
622, 2330, 3151, 3924, 4179
623, 1518, 3923, 697, 4180
624, 2386, 4174, 2306, 5040
625, 753, 4175, 673, 5041
626, 1627, 4046, 1203, 4372
627, 4239, 4782, 1679, 5451
628, 1692, 4600, 4573, 5261
629, 1303, 4238, 3957, 4266
630, 3961, 4238, 1708, 4266
631, 3428, 1837, 1874, 4129
632, 1795, 3470, 3505, 4128
633, 2404, 4106, 3862, 4511
634, 4572, 4660, 4227, 5070
635, 2803, 4015, 3487, 5132
636, 2495, 3862, 4196, 5320
637, 3897, 4148, 2106, 5118
638, 1992, 4141, 3130, 4937
639, 359, 4142, 1497, 4939
640, 1352, 4239, 1679, 5451
641, 1154, 4116, 461, 4422
642, 2787, 4117, 2094, 4423
643, 3070, 2499, 4121, 4425
644, 866, 4122, 1437, 4424
645, 2735, 4112, 4059, 5176
646, 1385, 4667, 4253, 5024
647, 3018, 4666, 4254, 5023
648, 1170, 4016, 1873, 5136
649, 1989, 1846, 4111, 5129
650, 640, 4149, 3797, 5103
651, 631, 4563, 4560, 4941
652, 2264, 4562, 4559, 4942
653, 2429, 4530, 4582, 4945
654, 796, 4529, 4581, 4946
655, 2376, 3846, 4380, 4706
656, 3551, 3491, 4041, 4267
657, 1901, 1833, 4042, 4268
658, 3114, 4191, 4375, 5081
659, 2330, 4179, 3924, 5328
660, 3923, 697, 4180, 5329
661, 2370, 2406, 4051, 5282
662, 737, 773, 4050, 5283
663, 380, 4632, 4686, 4951
664, 986, 4306, 4197, 5412
665, 1945, 4699, 4070, 5386
666, 1006, 4327, 3813, 4740
667, 1366, 4141, 3754, 4937
668, 2999, 4142, 3753, 4939
669, 2595, 4202, 2887, 4611
670, 962, 4201, 1254, 4610
671, 2898, 4332, 2792, 4414
672, 1265, 4331, 1159, 4413
673, 1650, 3814, 1639, 4881
674, 3283, 3814, 3272, 4880
675, 573, 4331, 4312, 5145
676, 2206, 4332, 4311, 5144
677, 4597, 4611, 2322, 4955
678, 2994, 2644, 4207, 4795
679, 4300, 4315, 1262, 5249
680, 4299, 4314, 2895, 5248
681, 4404, 4784, 4233, 4994
682, 2702, 4141, 4081, 4455
683, 1069, 4142, 4080, 4456
684, 979, 4805, 4178, 5193
685, 4750, 4903, 4624, 4906
686, 4268, 4441, 4343, 5084
687, 4267, 4442, 4344, 5085
688, 431, 1456, 3948, 4372
689, 4060, 1102, 4124, 4767
690, 4657, 4665, 4654, 4857
691, 4254, 4640, 3018, 5023
692, 1347, 527, 3828, 4863
693, 1385, 4253, 4639, 5024
694, 1191, 935, 4457, 4913
695, 1745, 4088, 1218, 4186
696, 3378, 4087, 2851, 4187
697, 918, 4026, 4107, 4507
698, 3283, 3814, 4880, 4972
699, 1620, 3950, 1380, 4363
700, 3253, 3951, 3013, 4364
701, 3846, 4161, 2337, 4696
702, 4252, 5076, 4137, 5307
703, 2794, 4605, 4412, 5047
704, 3001, 4002, 2458, 5022
705, 3132, 3927, 2136, 4996
706, 503, 1499, 3928, 4997
707, 604, 4167, 3809, 4352
708, 4480, 4519, 4264, 5304
709, 677, 1202, 4046, 4372
710, 2337, 3846, 4381, 4713
711, 671, 3904, 4377, 4714
712, 4660, 4885, 4227, 5070
713, 499, 3794, 498, 4498
714, 4193, 4383, 3034, 5096
715, 1347, 4201, 4118, 4863
716, 609, 4289, 4310, 5272
717, 3554, 4015, 4356, 5132
718, 1296, 4314, 5140, 5296
719, 4286, 4288, 518, 5247
720, 4285, 4287, 2151, 5246
721, 4299, 4314, 1296, 5296
722, 1192, 4691, 1677, 5114
723, 4077, 4190, 1765, 4321
724, 4076, 4189, 3398, 4320
725, 2607, 2883, 3915, 5031
726, 4016, 4357, 1923, 5136
727, 557, 3870, 4148, 4350
728, 2190, 3871, 4147, 4351
729, 1520, 4198, 3898, 4337
730, 3481, 1748, 3491, 4267
731, 1852, 3381, 1833, 4268
732, 963, 3777, 4386, 5476
733, 2596, 3776, 4385, 5477
734, 3920, 2231, 4382, 5478
735, 1174, 4360, 3890, 4593
736, 929, 3836, 4361, 4593
737, 2562, 3835, 4362, 4592
738, 2008, 4648, 4177, 4928
739, 1435, 3821, 1267, 4495
740, 2394, 2395, 3763, 4948
741, 3103, 3905, 4478, 4925
742, 1422, 4133, 3936, 5087
743, 2008, 4177, 2006, 4928
744, 557, 4148, 560, 4350
745, 2190, 4147, 2193, 4351
746, 2749, 2750, 4268, 4441
747, 1116, 1117, 4267, 4442
748, 3821, 4284, 1267, 4495
749, 4115, 4875, 3839, 5185
750, 3198, 4314, 3859, 5248
751, 1565, 4315, 3860, 5249
752, 2475, 2705, 4026, 4387
753, 3689, 4135, 1963, 4395
754, 3950, 1380, 4363, 4768
755, 3951, 3013, 4364, 4769
756, 2709, 4083, 3391, 4109
757, 2451, 3861, 2449, 4950
758, 1162, 4094, 4190, 5330
759, 2795, 4093, 4189, 5331
760, 1422, 3936, 4609, 5087
761, 904, 4096, 4220, 4366
762, 1706, 3958, 4328, 5242
763, 3156, 4679, 3369, 4843
764, 3885, 4606, 4469, 5159
765, 3884, 4607, 4470, 5158
766, 547, 3815, 4433, 5006
767, 2660, 3826, 4136, 4729
768, 2593, 4790, 4616, 4826
769, 4400, 4838, 4207, 4968
770, 628, 4629, 4642, 4971
771, 604, 4167, 602, 4973
772, 1684, 4771, 4102, 4812
773, 1340, 1339, 4313, 4919
774, 547, 4433, 532, 5006
775, 2383, 2306, 3912, 5040
776, 4239, 4333, 3891, 5478
777, 3875, 4494, 4601, 5284
778, 1202, 4358, 4046, 4784
779, 4080, 4443, 1163, 5326
780, 2796, 4081, 4444, 5325
781, 3020, 4430, 4211, 4783
782, 2851, 4187, 4087, 4752
783, 1218, 4186, 4088, 4753
784, 2261, 4628, 4641, 4974
785, 1230, 4182, 4035, 4222
786, 1102, 4124, 1103, 4877
787, 4051, 4923, 3947, 5282
788, 4050, 4922, 3946, 5283
789, 807, 3846, 992, 4161
790, 3289, 2626, 3878, 4168
791, 2735, 4112, 2736, 4871
792, 4282, 4364, 2501, 4444
793, 4281, 4363, 868, 4443
794, 2387, 4175, 2388, 5044
795, 754, 4174, 755, 5045
796, 845, 870, 4061, 4671
797, 4175, 4695, 2388, 5044
798, 4174, 4694, 755, 5045
799, 4303, 4431, 4388, 4988
800, 2275, 4302, 3105, 4394
801, 4069, 1063, 4767, 5265
802, 3787, 4303, 4293, 5203
803, 2490, 3925, 4229, 4915
804, 3927, 4153, 3132, 5188
805, 3928, 4154, 1499, 5187
806, 3795, 4289, 1481, 5272
807, 1347, 3828, 1253, 4201
808, 557, 4148, 3870, 5063
809, 2190, 4147, 3871, 5064
810, 2495, 4196, 5047, 5320
811, 2126, 4125, 2131, 4310
812, 2131, 4125, 3124, 4310
813, 2268, 2269, 4713, 5169
814, 4272, 4912, 2664, 5511
815, 3469, 4070, 1945, 4699
816, 3935, 2248, 4349, 4635
817, 2050, 4184, 3807, 5053
818, 3921, 2148, 5034, 5246
819, 3922, 515, 5033, 5247
820, 1989, 3080, 1846, 4036
821, 4081, 4141, 3754, 4807
822, 4080, 4142, 3753, 4808
823, 3764, 3264, 4512, 5092
824, 2863, 4183, 4043, 4221
825, 4312, 4331, 3924, 5145
826, 4311, 4332, 3923, 5144
827, 992, 4161, 3846, 5224
828, 3551, 3481, 3491, 4267
829, 1901, 1852, 1833, 4268
830, 2183, 2182, 3905, 4471
831, 2304, 3103, 3905, 4478
832, 3757, 4137, 2479, 4948
833, 1627, 1086, 1203, 4046
834, 3012, 2370, 2406, 4051
835, 737, 773, 1379, 4050
836, 1598, 3767, 880, 4195
837, 2513, 3231, 3768, 4194
838, 3228, 3903, 3231, 4194
839, 948, 3767, 1598, 4192
840, 2581, 3768, 3231, 4193
841, 3034, 3231, 3903, 4193
842, 1401, 1598, 3902, 4192
843, 606, 3809, 603, 4200
844, 2495, 3862, 2404, 4196
845, 3787, 2119, 4303, 5203
846, 1044, 4805, 979, 5193
847, 3756, 4138, 846, 4957
848, 356, 3755, 3472, 4460
849, 4614, 4686, 4632, 4951
850, 3501, 3472, 356, 3755
851, 4559, 4562, 4544, 4942
852, 4560, 4563, 4543, 4941
853, 4529, 4606, 4581, 4946
854, 4530, 4607, 4582, 4945
855, 929, 4361, 3836, 4466
856, 2562, 4362, 3835, 4467
857, 3814, 4345, 4150, 5068
858, 926, 857, 4784, 4994
859, 3902, 4195, 1598, 5197
860, 1833, 3381, 3390, 4268
861, 3491, 1748, 1757, 4267
862, 2074, 2077, 4198, 4762
863, 3809, 4200, 606, 5332
864, 4523, 4611, 4597, 4955
865, 3510, 3449, 3533, 4091
866, 4165, 4890, 4868, 5139
867, 573, 3924, 4331, 5145
868, 2206, 3923, 4332, 5144
869, 4230, 4386, 3777, 5476
870, 4231, 4385, 3776, 5477
871, 3794, 4327, 1655, 5238
872, 1161, 4197, 986, 4336
873, 3920, 4382, 4239, 5478
874, 1174, 3890, 4360, 4494
875, 837, 4061, 870, 4734
876, 3809, 606, 4835, 5332
877, 2791, 4308, 4392, 5237
878, 781, 3978, 4366, 4440
879, 2749, 4441, 4268, 5084
880, 1116, 4442, 4267, 5085
881, 640, 1373, 4149, 5103
882, 1868, 360, 1525, 4321
883, 3500, 1993, 3158, 4320
884, 2133, 2106, 4148, 5118
885, 4030, 4668, 4681, 4770
886, 1620, 4329, 3950, 4363
887, 3253, 4330, 3951, 4364
888, 2141, 3927, 3132, 5188
889, 508, 3928, 1499, 5187
890, 4145, 2682, 5167, 5339
891, 609, 3760, 4612, 5272
892, 2126, 4125, 4310, 4637
893, 1235, 4136, 4771, 4992
894, 2895, 4314, 3198, 5248
895, 1565, 1262, 4315, 5249
896, 3124, 4310, 4125, 4796
897, 3767, 4192, 948, 5180
898, 532, 5006, 4433, 5103
899, 4244, 4779, 2286, 4995
900, 3939, 4299, 1295, 5296
901, 753, 4926, 4175, 5041
902, 2386, 4925, 4174, 5040
903, 3794, 3114, 4191, 4375
904, 3295, 4490, 4010, 5019
905, 3803, 4155, 2128, 5355
906, 495, 3804, 4156, 5354
907, 1109, 4093, 1149, 4367
908, 2782, 2742, 4094, 4368
909, 3295, 4010, 3292, 5019
910, 3918, 4198, 2077, 4889
911, 3927, 4470, 4230, 5015
912, 3928, 4469, 4231, 5016
913, 2642, 4384, 3960, 5524
914, 1520, 3898, 4198, 5088
915, 2054, 4134, 3092, 4540
916, 757, 4927, 4428, 5079
917, 1259, 4098, 903, 4957
918, 3929, 4595, 4793, 4898
919, 3794, 1655, 4399, 5238
920, 1006, 3813, 1002, 4730
921, 3264, 5092, 3764, 5335
922, 1919, 1840, 4016, 5060
923, 3484, 4015, 3553, 5059
924, 3501, 3755, 356, 4684
925, 1055, 4343, 4086, 5456
926, 4085, 2688, 4344, 5457
927, 2892, 4090, 2536, 4948
928, 950, 4130, 4770, 4786
929, 846, 4957, 4138, 5512
930, 2114, 3880, 4134, 5295
931, 2994, 4207, 3961, 4795
932, 1738, 1093, 4665, 4857
933, 2644, 4207, 4795, 4838
934, 1919, 1883, 1840, 5060
935, 3515, 3484, 3553, 5059
936, 884, 3821, 1435, 4445
937, 1983, 4139, 3597, 4401
938, 3903, 4383, 4218, 5295
939, 1525, 1765, 1122, 4321
940, 2755, 3158, 3398, 4320
941, 2773, 4130, 4079, 4964
942, 4243, 5031, 2883, 5071
943, 3814, 4150, 1639, 4881
944, 3765, 2898, 4414, 5144
945, 3766, 1265, 4413, 5145
946, 4630, 4642, 4629, 4971
947, 2438, 4660, 2316, 5070
948, 2317, 2316, 4660, 5070
949, 2235, 4382, 3811, 4511
950, 1109, 1563, 1149, 4093
951, 2782, 2742, 3196, 4094
952, 2595, 3212, 4202, 4844
953, 1579, 4201, 962, 4845
954, 1765, 1525, 360, 4321
955, 1993, 3398, 3158, 4320
956, 904, 1553, 4096, 4366
957, 1313, 5039, 4215, 5179
958, 3020, 3791, 4211, 4430
959, 4631, 4641, 4628, 4974
960, 2658, 3333, 3826, 4436
961, 749, 3763, 4137, 5231
962, 2126, 2125, 2131, 4125
963, 2382, 3762, 4138, 5232
964, 2131, 2125, 3124, 4125
965, 1520, 438, 4198, 4337
966, 4715, 4975, 2679, 5258
967, 3814, 3272, 4880, 5364
968, 2275, 4188, 3796, 4302
969, 3034, 4193, 3903, 4383
970, 3341, 2936, 4265, 4384
971, 640, 4149, 1373, 5353
972, 1112, 4068, 4674, 5267
973, 2745, 4066, 4673, 5266
974, 3886, 4870, 2878, 5259
975, 992, 3846, 4322, 5224
976, 1468, 4110, 1869, 4709
977, 2634, 3810, 2636, 4978
978, 2335, 4283, 4408, 5048
979, 560, 4350, 4148, 5091
980, 406, 3884, 4407, 5158
981, 2039, 3885, 4406, 5159
982, 2620, 3840, 5274, 5423
983, 2054, 4134, 4540, 5295
984, 3098, 2664, 4272, 4912
985, 1465, 1031, 4273, 4911
986, 3889, 4117, 2027, 4347
987, 3888, 4116, 394, 4346
988, 4313, 4437, 2458, 4458
989, 4616, 4790, 4634, 4826
990, 1595, 3902, 1598, 5197
991, 2133, 4148, 2106, 5508
992, 2734, 2675, 4215, 4677
993, 3354, 5035, 4139, 5183
994, 4130, 4964, 2773, 5414
995, 1149, 4093, 1563, 4413
996, 2782, 4094, 3196, 4414
997, 749, 5076, 748, 5307
998, 4030, 4681, 4130, 4770
999, 480, 3879, 481, 5174
1000, 4175, 4714, 673, 5041
1001, 1470, 4326, 3904, 4926
1002, 3103, 4325, 3905, 4925
1003, 1003, 4583, 4691, 5114
1004, 1756, 4142, 359, 4939
1005, 1992, 3389, 4141, 4937
1006, 2040, 4590, 4749, 4880
1007, 407, 4591, 4748, 4881
1008, 3007, 4359, 4026, 4403
1009, 2244, 2246, 2245, 4635
1010, 837, 845, 870, 4061
1011, 3007, 4359, 4403, 4958
1012, 3810, 4257, 4334, 4978
1013, 1520, 438, 1282, 4198
1014, 1161, 1249, 986, 4197
1015, 609, 1481, 4289, 5272
1016, 2361, 4359, 3989, 4620
1017, 4412, 4605, 4307, 5047
1018, 2430, 4530, 4291, 4936
1019, 797, 4529, 4292, 4935
1020, 1441, 4218, 927, 4431
1021, 497, 3877, 1291, 5311
1022, 3321, 2728, 3781, 5310
1023, 752, 3912, 674, 5312
1024, 781, 3978, 716, 4366
1025, 2899, 4180, 2557, 4332
1026, 1266, 4179, 924, 4331
1027, 3877, 4163, 1291, 5311
1028, 2728, 4168, 3781, 5310
1029, 752, 4174, 3912, 5312
1030, 2771, 4085, 4418, 5457
1031, 1138, 4086, 4417, 5456
1032, 2725, 3292, 4010, 5019
1033, 2639, 2567, 2810, 4210
1034, 2118, 3793, 4303, 5366
1035, 4312, 4413, 1265, 5145
1036, 4311, 4414, 2898, 5144
1037, 849, 964, 4470, 5015
1038, 2482, 2597, 4469, 5016
1039, 1063, 4069, 4140, 5265
1040, 1345, 4429, 4144, 4818
1041, 2302, 2490, 4379, 5201
1042, 3264, 3764, 3315, 5335
1043, 3110, 3935, 4294, 4825
1044, 4408, 4449, 3789, 4985
1045, 4409, 4450, 3790, 4984
1046, 2651, 4595, 4664, 5153
1047, 2193, 4351, 4147, 4921
1048, 869, 4389, 4063, 4443
1049, 2502, 4390, 4062, 4444
1050, 2336, 2337, 4161, 4696
1051, 2050, 2051, 2048, 4184
1052, 3702, 1978, 2871, 4480
1053, 2644, 3326, 2994, 4207
1054, 878, 857, 926, 4994
1055, 1474, 1251, 1378, 4770
1056, 1166, 4063, 4426, 4780
1057, 4062, 4427, 2799, 4781
1058, 3279, 4123, 2817, 4314
1059, 536, 1292, 4883, 4894
1060, 396, 4116, 394, 4287
1061, 2027, 2029, 4117, 4288
1062, 673, 4175, 753, 4926
1063, 2306, 4174, 2386, 4925
1064, 4120, 4335, 991, 4428
1065, 3689, 1963, 2867, 4395
1066, 604, 664, 602, 4167
1067, 1756, 359, 3753, 4939
1068, 1992, 3754, 3389, 4937
1069, 498, 3794, 493, 4399
1070, 3480, 3125, 3441, 4937
1071, 1808, 1851, 1492, 4939
1072, 1084, 4207, 1693, 4956
1073, 2074, 2077, 3918, 4198
1074, 3673, 1705, 4265, 4369
1075, 864, 4457, 4445, 5344
1076, 4445, 4457, 4044, 5344
1077, 864, 4044, 4457, 5344
1078, 3526, 1992, 3130, 4937
1079, 359, 1497, 1892, 4939
1080, 3707, 4395, 4970, 5292
1081, 1690, 1303, 1708, 4266
1082, 321, 3471, 1514, 4091
1083, 3118, 2284, 3032, 4775
1084, 1073, 1222, 4750, 4903
1085, 1041, 991, 4335, 4428
1086, 1313, 4676, 4215, 5039
1087, 2595, 3212, 2887, 4202
1088, 962, 1579, 1254, 4201
1089, 3689, 2867, 3683, 4395
1090, 419, 420, 4184, 5469
1091, 3091, 4211, 4134, 5191
1092, 1291, 3877, 1617, 4163
1093, 3250, 2924, 3876, 4164
1094, 3319, 3781, 2728, 4168
1095, 4046, 4210, 2810, 5420
1096, 751, 3912, 752, 4174
1097, 603, 3809, 606, 4835
1098, 3983, 4428, 4927, 5079
1099, 2557, 4332, 4180, 4416
1100, 924, 4331, 4179, 4415
1101, 2872, 2871, 1978, 4480
1102, 1046, 1729, 4105, 4805
1103, 3964, 4252, 3241, 5368
1104, 979, 4012, 1045, 4178
1105, 2224, 4199, 3968, 4333
1106, 2087, 2841, 4469, 5159
1107, 1208, 4470, 454, 5158
1108, 4282, 4444, 2501, 5210
1109, 868, 4281, 4443, 5209
1110, 2251, 3935, 2248, 4349
1111, 3354, 4497, 4139, 5035
1112, 3391, 4183, 4083, 5526
1113, 1253, 4201, 3828, 5082
1114, 1578, 3916, 1250, 4326
1115, 3211, 3915, 2883, 4325
1116, 1668, 3813, 1006, 4327
1117, 805, 992, 3846, 4322
1118, 808, 3911, 1482, 4323
1119, 1655, 3794, 679, 4327
1120, 2183, 3905, 3169, 4325
1121, 1536, 3904, 1470, 4326
1122, 3103, 3169, 3905, 4325
1123, 808, 893, 3911, 4328
1124, 2224, 3968, 2226, 4333
1125, 1016, 1706, 3958, 4328
1126, 683, 805, 3846, 4322
1127, 683, 3846, 806, 4323
1128, 1513, 3813, 1668, 4327
1129, 1088, 3950, 1620, 4329
1130, 2721, 3951, 3253, 4330
1131, 1251, 4642, 1378, 4770
1132, 1525, 1122, 4042, 4321
1133, 2755, 4041, 3158, 4320
1134, 4135, 4395, 3707, 5292
1135, 4726, 5079, 996, 5117
1136, 3978, 4200, 3812, 4503
1137, 2228, 3891, 2227, 4333
1138, 4460, 4919, 4365, 4954
1139, 3050, 3214, 4285, 4984
1140, 1581, 4286, 1417, 4985
1141, 2825, 3289, 3878, 4334
1142, 2134, 2108, 4204, 4512
1143, 3227, 2045, 3769, 5096
1144, 3875, 4185, 3890, 4494
1145, 3427, 4128, 3448, 4752
1146, 1550, 4482, 4136, 4992
1147, 1385, 659, 4667, 5024
1148, 3018, 2292, 4666, 5023
1149, 3707, 4970, 1711, 5292
1150, 312, 4036, 1447, 4432
1151, 3118, 4620, 2284, 4775
1152, 2824, 4450, 3259, 4914
1153, 1191, 4449, 1626, 4913
1154, 4062, 4652, 1389, 5059
1155, 4063, 4651, 3022, 5060
1156, 2660, 4136, 2698, 4729
1157, 3092, 4134, 3791, 4540
1158, 1794, 4129, 1815, 4753
1159, 2330, 3924, 2328, 5328
1160, 697, 3923, 695, 5329
1161, 2117, 4303, 3087, 4988
1162, 2857, 4086, 4114, 5359
1163, 4085, 4113, 1224, 5360
1164, 3919, 4890, 4165, 5139
1165, 4306, 4950, 3861, 5185
1166, 1239, 1684, 4102, 4754
1167, 3978, 4503, 3812, 4552
1168, 2054, 3092, 4134, 5295
1169, 2534, 2978, 4058, 4140
1170, 2221, 3969, 2341, 5111
1171, 2987, 4091, 4144, 4684
1172, 3507, 3081, 1946, 4079
1173, 4313, 4437, 4002, 5022
1174, 929, 860, 4361, 4466
1175, 2562, 2493, 4362, 4467
1176, 480, 482, 3879, 4258
1177, 846, 4138, 3756, 4505
1178, 2479, 4137, 3757, 4506
1179, 1295, 4299, 1296, 5296
1180, 4284, 4394, 2824, 4450
1181, 2817, 4314, 4123, 4483
1182, 2454, 2642, 4838, 5524
1183, 4085, 4113, 4039, 5299
1184, 4086, 4114, 4040, 5298
1185, 3886, 4462, 2880, 5138
1186, 4041, 4189, 2755, 5094
1187, 4042, 4190, 1122, 5093
1188, 2051, 4184, 2050, 5053
1189, 3309, 3312, 3875, 4185
1190, 2497, 2275, 3105, 4394
1191, 2306, 4174, 4478, 5257
1192, 2134, 4512, 4204, 4840
1193, 3789, 4749, 4590, 4880
1194, 3790, 4748, 4591, 4881
1195, 2530, 3964, 3241, 5368
1196, 2675, 4215, 4677, 4843
1197, 3480, 3754, 3125, 4937
1198, 1851, 3753, 1492, 4939
1199, 2102, 3117, 2437, 4810
1200, 804, 469, 1484, 4809
1201, 4348, 5047, 4196, 5320
1202, 1272, 4563, 631, 4941
1203, 2905, 4562, 2264, 4942
1204, 2429, 4582, 2145, 4945
1205, 796, 4581, 512, 4946
1206, 557, 559, 4148, 5063
1207, 2190, 2192, 4147, 5064
1208, 2246, 4073, 2245, 4635
1209, 3581, 2938, 4271, 4393
1210, 2497, 4188, 2275, 4394
1211, 1385, 718, 843, 4780
1212, 3018, 2351, 2476, 4781
1213, 2899, 3294, 2557, 4180
1214, 1266, 1661, 924, 4179
1215, 380, 4686, 378, 4951
1216, 2109, 2108, 3887, 4204
1217, 476, 475, 3886, 4203
1218, 2191, 4172, 3871, 4464
1219, 3364, 4143, 2671, 4879
1220, 1063, 4140, 4069, 4391
1221, 3303, 5086, 4484, 5182
1222, 2879, 3886, 2880, 5138
1223, 1520, 4198, 1282, 5088
1224, 2224, 2967, 3968, 4199
1225, 1711, 4135, 3707, 5292
1226, 3025, 2322, 4611, 4955
1227, 3586, 4215, 1948, 5080
1228, 4390, 4397, 4062, 4444
1229, 4389, 4396, 4063, 4443
1230, 2454, 4838, 4663, 5524
1231, 2563, 4841, 4197, 4989
1232, 2083, 4545, 3179, 4848
1233, 2913, 2910, 4586, 4849
1234, 1188, 3814, 1650, 4510
1235, 3789, 4590, 4514, 4880
1236, 3790, 4591, 4513, 4881
1237, 2335, 3293, 4283, 5048
1238, 3789, 4514, 4749, 4880
1239, 3790, 4513, 4748, 4881
1240, 3960, 4384, 4236, 5524
1241, 4428, 4975, 4715, 5258
1242, 2734, 4215, 4031, 4677
1243, 807, 3846, 4161, 4700
1244, 2223, 5175, 3972, 5392
1245, 2424, 3764, 3264, 4512
1246, 2017, 2898, 3765, 5144
1247, 1265, 3766, 384, 5145
1248, 1135, 4275, 4101, 4454
1249, 4813, 4906, 4624, 5030
1250, 4388, 4431, 3901, 4988
1251, 3615, 4104, 2942, 4393
1252, 1075, 4299, 4122, 5055
1253, 1311, 1735, 4139, 4680
1254, 1135, 4402, 4101, 5218
1255, 904, 4096, 1105, 4220
1256, 2578, 4813, 4624, 5030
1257, 3110, 2248, 3935, 4635
1258, 557, 559, 560, 4148
1259, 2193, 2190, 2192, 4147
1260, 3020, 3791, 2714, 4211
1261, 4433, 5006, 4290, 5103
1262, 1679, 4239, 3968, 4782
1263, 2074, 4198, 3918, 4412
1264, 4191, 5264, 534, 5287
1265, 4265, 4384, 3958, 5242
1266, 1385, 843, 4639, 4780
1267, 3018, 2476, 4640, 4781
1268, 3092, 2714, 3791, 4211
1269, 2708, 4300, 4121, 5057
1270, 2024, 2023, 4118, 4347
1271, 3671, 4103, 1703, 4369
1272, 4402, 4403, 4359, 4958
1273, 1430, 4741, 1549, 4911
1274, 3063, 4742, 3182, 4912
1275, 1421, 3884, 406, 5158
1276, 3054, 3885, 2039, 5159
1277, 2553, 4026, 2705, 4403
1278, 2078, 2074, 3918, 4412
1279, 3769, 3263, 4345, 5364
1280, 959, 4182, 1230, 4222
1281, 3485, 3555, 4070, 5294
1282, 4101, 4402, 4275, 5218
1283, 3485, 3457, 3555, 5294
1284, 335, 1758, 4079, 4182
1285, 4091, 4731, 4209, 5038
1286, 2223, 2205, 3972, 5175
1287, 2863, 2592, 4183, 4221
1288, 4098, 4206, 2834, 5121
1289, 2083, 3179, 2600, 4848
1290, 2913, 2915, 2910, 4849
1291, 1769, 321, 4091, 5038
1292, 3039, 4197, 3945, 5449
1293, 1729, 4271, 4105, 4805
1294, 1569, 4200, 3978, 4440
1295, 2586, 3059, 4013, 4214
1296, 2586, 4013, 2884, 4214
1297, 4152, 5274, 3840, 5423
1298, 2067, 3945, 4405, 5371
1299, 4684, 4818, 4144, 4910
1300, 406, 3884, 404, 4407
1301, 2039, 3885, 2037, 4406
1302, 2015, 3765, 2898, 4414
1303, 382, 3766, 1265, 4413
1304, 4233, 4404, 3952, 4784
1305, 3038, 4841, 2563, 4989
1306, 4071, 4847, 4255, 5386
1307, 1379, 4768, 4050, 4922
1308, 3012, 4769, 4051, 4923
1309, 4268, 4417, 4086, 5456
1310, 4267, 4418, 4085, 5457
1311, 396, 1154, 394, 4116
1312, 2027, 2029, 2787, 4117
1313, 2495, 2404, 3862, 5320
1314, 3279, 2819, 2817, 4123
1315, 359, 1892, 1808, 4939
1316, 3526, 3441, 1992, 4937
1317, 2058, 2057, 3926, 5378
1318, 2057, 4430, 3926, 5378
1319, 2593, 2972, 4790, 4826
1320, 3134, 4077, 3439, 4710
1321, 1501, 4076, 1806, 4711
1322, 2223, 3972, 2204, 5392
1323, 412, 4504, 4934, 5095
1324, 781, 1572, 3978, 4440
1325, 2285, 3989, 2411, 4439
1326, 2896, 2895, 3198, 5248
1327, 1565, 1263, 1262, 5249
1328, 2798, 2800, 4062, 4390
1329, 1165, 1167, 4063, 4389
1330, 3839, 4306, 4115, 5185
1331, 2596, 2597, 5016, 5477
1332, 963, 964, 5015, 5476
1333, 2090, 3066, 4999, 5470
1334, 3814, 4880, 4151, 5364
1335, 2647, 3318, 4103, 4519
1336, 2821, 3814, 3283, 4972
1337, 558, 4171, 3870, 5488
1338, 3875, 4494, 3890, 4601
1339, 2501, 4444, 3963, 5210
1340, 868, 4443, 3962, 5209
1341, 1039, 1733, 4104, 4736
1342, 2191, 3200, 4172, 4464
1343, 1224, 4113, 4085, 5062
1344, 2857, 4114, 4086, 5061
1345, 3870, 4160, 2199, 5118
1346, 3871, 4159, 566, 5119
1347, 4107, 4403, 4036, 4438
1348, 4221, 4806, 4639, 5424
1349, 3059, 4013, 4214, 4974
1350, 2354, 2397, 3977, 4281
1351, 721, 764, 3976, 4282
1352, 485, 3792, 483, 4304
1353, 3699, 4102, 3334, 4274
1354, 2067, 4405, 3945, 5204
1355, 1360, 1359, 4265, 4400
1356, 1360, 4265, 3960, 4400
1357, 2059, 3926, 2057, 4430
1358, 4662, 4999, 3066, 5470
1359, 4359, 4402, 4026, 4403
1360, 1135, 4101, 4275, 5218
1361, 4107, 4387, 4026, 4403
1362, 2071, 2067, 3945, 5204
1363, 431, 4146, 1683, 4372
1364, 2352, 2501, 3963, 5210
1365, 868, 3962, 719, 5209
1366, 3890, 4185, 3875, 4890
1367, 1670, 3813, 1513, 4374
1368, 936, 3887, 4360, 4361
1369, 990, 3880, 1157, 4218
1370, 2707, 4036, 4403, 4438
1371, 1710, 1360, 4265, 5242
1372, 2959, 2458, 4002, 4437
1373, 2221, 2341, 3969, 5278
1374, 1157, 3880, 927, 4218
1375, 4079, 4130, 2773, 4681
1376, 2880, 3886, 2570, 4462
1377, 2948, 3769, 3263, 4345
1378, 2458, 4458, 2359, 5022
1379, 749, 1418, 3763, 5231
1380, 2382, 3051, 3762, 5232
1381, 628, 4642, 717, 4971
1382, 3109, 3168, 3956, 4392
1383, 1655, 679, 3794, 4399
1384, 2570, 3886, 2569, 4362
1385, 937, 3887, 936, 4361
1386, 936, 3887, 1245, 4360
1387, 782, 3962, 868, 4443
1388, 2501, 2415, 3963, 4444
1389, 4659, 4678, 3995, 4679
1390, 2115, 3880, 2113, 4388
1391, 2049, 3769, 2045, 4434
1392, 2306, 2383, 3912, 5257
1393, 3241, 2530, 3265, 3964
1394, 2918, 4105, 3610, 4271
1395, 1569, 3978, 661, 4440
1396, 2637, 3861, 2451, 5086
1397, 2354, 2397, 2396, 3977
1398, 763, 721, 764, 3976
1399, 2141, 2136, 3132, 3927
1400, 508, 503, 1499, 3928
1401, 483, 485, 1618, 3792
1402, 948, 880, 1598, 3767
1403, 2513, 3231, 2581, 3768
1404, 3312, 2985, 3309, 3875
1405, 1267, 1435, 884, 3821
1406, 482, 481, 480, 3879
1407, 2113, 2115, 2114, 3880
1408, 497, 1617, 1291, 3877
1409, 3250, 2924, 2130, 3876
1410, 3228, 3034, 3231, 3903
1411, 1595, 1401, 1598, 3902
1412, 1639, 1650, 1188, 3814
1413, 3283, 2821, 3272, 3814
1414, 2049, 3263, 2948, 3769
1415, 2049, 3227, 2045, 3769
1416, 2183, 2182, 3169, 3905
1417, 1536, 671, 1470, 3904
1418, 3169, 2304, 3103, 3905
1419, 2570, 2878, 2569, 3886
1420, 1245, 936, 937, 3887
1421, 1578, 974, 1250, 3916
1422, 3211, 2607, 2883, 3915
1423, 2953, 2227, 2228, 3891
1424, 3223, 2071, 2067, 3945
1425, 2449, 2451, 2637, 3861
1426, 2633, 2636, 2634, 3810
1427, 2108, 2107, 2109, 3887
1428, 474, 476, 475, 3886
1429, 1668, 1002, 1006, 3813
1430, 807, 805, 992, 3846
1431, 808, 893, 1482, 3911
1432, 2825, 3289, 2626, 3878
1433, 2226, 2224, 2967, 3968
1434, 2793, 3109, 3168, 3956
1435, 1456, 428, 431, 3948
1436, 2658, 3333, 2660, 3826
1437, 1710, 1016, 1706, 3958
1438, 697, 1518, 695, 3923
1439, 3151, 2328, 2330, 3924
1440, 2251, 3110, 2248, 3935
1441, 3315, 3264, 2424, 3764
1442, 1253, 1347, 527, 3828
1443, 683, 805, 806, 3846
1444, 3092, 2714, 3020, 3791
1445, 2728, 3319, 3321, 3781
1446, 2223, 2205, 2204, 3972
1447, 1668, 1513, 1670, 3813
1448, 2074, 2077, 2078, 3918
1449, 674, 752, 751, 3912
1450, 2057, 2059, 2058, 3926
1451, 406, 1421, 404, 3884
1452, 2037, 2039, 3054, 3885
1453, 2880, 2879, 2570, 3886
1454, 927, 1157, 990, 3880
1455, 493, 498, 499, 3794
1456, 781, 1572, 716, 3978
1457, 2285, 2361, 2411, 3989
1458, 1620, 1088, 1380, 3950
1459, 2721, 3013, 3253, 3951
1460, 868, 782, 719, 3962
1461, 2352, 2501, 2415, 3963
1462, 2394, 2395, 2348, 3763
1463, 558, 3870, 4465, 5488
1464, 2015, 2017, 2898, 3765
1465, 382, 384, 1265, 3766
1466, 4295, 4297, 3897, 4810
1467, 4296, 4298, 3896, 4809
1468, 4232, 4691, 4583, 5114
1469, 2586, 3059, 2884, 4013
1470, 3001, 2959, 2458, 4002
1471, 713, 749, 1418, 3763
1472, 2382, 3051, 2346, 3762
1473, 3848, 4793, 4720, 4898
1474, 4071, 4699, 3455, 5386
1475, 4662, 4848, 2600, 5001
1476, 2644, 3326, 4207, 4838
1477, 4237, 4664, 4595, 5153
1478, 2422, 2580, 4467, 4473
1479, 789, 947, 4466, 4474
1480, 547, 3815, 1582, 4433
1481, 2221, 4727, 4171, 5111
1482, 3132, 4996, 2128, 5355
1483, 495, 1499, 4997, 5354
1484, 593, 595, 4494, 5284
1485, 3295, 2725, 3292, 4010
1486, 1477, 4293, 4125, 4608
1487, 1045, 979, 1044, 4012
1488, 3995, 4678, 4655, 4679
1489, 3026, 4308, 2791, 5237
1490, 532, 547, 1582, 4433
1491, 458, 3866, 456, 4223
1492, 453, 3855, 450, 4225
1493, 2252, 3783, 3145, 4241
1494, 1010, 3851, 1394, 4227
1495, 1018, 1482, 3911, 4226
1496, 894, 3929, 891, 4228
1497, 822, 3932, 1011, 4236
1498, 462, 3865, 459, 4223
1499, 1433, 1281, 3854, 4225
1500, 742, 743, 3847, 4227
1501, 1552, 699, 3850, 4226
1502, 744, 890, 3899, 4228
1503, 1604, 3832, 698, 4244
1504, 1009, 1708, 3961, 4238
1505, 2715, 3935, 2251, 4241
1506, 1676, 3968, 1679, 4239
1507, 2353, 3962, 2354, 4245
1508, 720, 3963, 721, 4246
1509, 2271, 3816, 2339, 4245
1510, 638, 3817, 706, 4246
1511, 1464, 4125, 1477, 4293
1512, 2261, 4641, 2350, 4974
1513, 2343, 4172, 2722, 4487
1514, 678, 4850, 4667, 5017
1515, 2311, 4851, 4666, 5018
1516, 2034, 4408, 3894, 5521
1517, 401, 4409, 3895, 5522
1518, 2475, 2705, 2553, 4026
1519, 1075, 4122, 866, 5055
1520, 1589, 4735, 1409, 4846
1521, 2771, 2688, 4085, 5457
1522, 1138, 1055, 4086, 5456
1523, 4290, 4433, 3815, 5006
1524, 3702, 2871, 3679, 4480
1525, 4140, 5265, 4069, 5396
1526, 3768, 4150, 408, 5367
1527, 1174, 4360, 1176, 4494
1528, 2090, 4999, 4661, 5470
1529, 3422, 4673, 4077, 5165
1530, 1789, 4674, 4076, 5166
1531, 2021, 4201, 4509, 4776
1532, 2069, 3898, 2072, 5489
1533, 2252, 3145, 2263, 4241
1534, 457, 458, 456, 4223
1535, 453, 450, 967, 4225
1536, 819, 1010, 1394, 4227
1537, 894, 891, 745, 4228
1538, 1018, 1596, 1482, 4226
1539, 822, 1011, 1644, 4236
1540, 2353, 2354, 2340, 4245
1541, 720, 721, 707, 4246
1542, 1552, 1596, 699, 4226
1543, 457, 462, 459, 4223
1544, 2263, 2715, 2251, 4241
1545, 742, 819, 743, 4227
1546, 1433, 967, 1281, 4225
1547, 744, 745, 890, 4228
1548, 1604, 698, 1190, 4244
1549, 1676, 1679, 1352, 4239
1550, 1009, 1690, 1708, 4238
1551, 4663, 4838, 4236, 5524
1552, 707, 638, 706, 4246
1553, 2340, 2271, 2339, 4245
1554, 4144, 4429, 3761, 4910
1555, 4108, 4182, 1229, 4222
1556, 2898, 2206, 2792, 4332
1557, 1265, 573, 1159, 4331
1558, 1837, 3428, 1977, 4129
1559, 1795, 344, 3470, 4128
1560, 3141, 4091, 3510, 4731
1561, 4171, 4476, 2221, 5278
1562, 2708, 4121, 2499, 5057
1563, 1735, 4139, 4680, 4857
1564, 4109, 4183, 2862, 4221
1565, 994, 3838, 4236, 5256
1566, 3983, 4428, 4120, 4927
1567, 4805, 5098, 4178, 5193
1568, 1340, 916, 1339, 4919
1569, 2474, 4026, 3007, 4359
1570, 4407, 4908, 406, 5158
1571, 2039, 4406, 4907, 5159
1572, 923, 1084, 1693, 4956
1573, 1073, 1455, 4903, 4906
1574, 4735, 4738, 1409, 4846
1575, 3364, 4143, 4879, 5131
1576, 2439, 4986, 3115, 5487
1577, 614, 4612, 1399, 4902
1578, 2735, 2543, 4059, 4871
1579, 1553, 1105, 904, 4096
1580, 3989, 4061, 4359, 4439
1581, 2401, 4212, 3997, 4617
1582, 768, 4213, 3996, 4618
1583, 4077, 4673, 3422, 4710
1584, 4076, 4674, 1789, 4711
1585, 2698, 4136, 3985, 4729
1586, 3333, 2698, 2660, 4136
1587, 1030, 4177, 1031, 5226
1588, 994, 4236, 1644, 5256
1589, 728, 778, 652, 4786
1590, 2798, 2800, 2799, 4062
1591, 1166, 1165, 1167, 4063
1592, 1572, 1569, 661, 4440
1593, 4313, 4429, 4082, 4437
1594, 3803, 4370, 4155, 5355
1595, 3804, 4371, 4156, 5354
1596, 4153, 4370, 3927, 5355
1597, 4154, 4371, 3928, 5354
1598, 4654, 4657, 4011, 4665
1599, 1174, 936, 4360, 4593
1600, 929, 4361, 936, 4593
1601, 2562, 4362, 2569, 4592
1602, 2593, 2972, 2412, 4790
1603, 916, 4313, 1339, 4919
1604, 2553, 3007, 4026, 4403
1605, 2381, 2456, 2382, 4138
1606, 2439, 4660, 4986, 5487
1607, 1572, 661, 3978, 4440
1608, 959, 1229, 4182, 4222
1609, 664, 4167, 604, 4352
1610, 4120, 4428, 757, 4927
1611, 1340, 4429, 4082, 4919
1612, 3812, 4200, 3978, 5025
1613, 2692, 4083, 2709, 4214
1614, 1256, 903, 4098, 5333
1615, 671, 673, 4175, 4714
1616, 2667, 2666, 4085, 4272
1617, 1033, 4086, 1034, 4273
1618, 3931, 4628, 4631, 4641
1619, 3930, 4629, 4630, 4642
1620, 2592, 2862, 4183, 4221
1621, 2069, 2072, 2070, 5489
1622, 4619, 4642, 3980, 4668
1623, 3887, 4204, 2108, 4512
1624, 501, 4203, 4084, 5177
1625, 990, 3880, 4218, 4744
1626, 4001, 4632, 4614, 4686
1627, 4484, 5086, 4115, 5182
1628, 2118, 4303, 2119, 5366
1629, 1311, 4139, 4031, 4680
1630, 3079, 3486, 3469, 4699
1631, 4291, 4530, 4407, 4936
1632, 4292, 4529, 4406, 4935
1633, 4543, 4560, 3853, 4563
1634, 4544, 4559, 3852, 4562
1635, 3875, 4598, 4576, 4601
1636, 3894, 4581, 4529, 4606
1637, 3895, 4582, 4530, 4607
1638, 3812, 4576, 4552, 4598
1639, 3766, 4597, 4523, 4611
1640, 3981, 4621, 4612, 4626
1641, 3986, 4620, 4615, 4625
1642, 3988, 4621, 4619, 4638
1643, 3931, 4631, 4623, 4641
1644, 2794, 4412, 2882, 5047
1645, 312, 4036, 4432, 5155
1646, 976, 1250, 974, 4878
1647, 3115, 4986, 4664, 5487
1648, 2033, 2034, 3894, 5521
1649, 400, 401, 3895, 5522
1650, 2620, 5274, 3240, 5423
1651, 771, 4352, 3861, 5160
1652, 2722, 4487, 4172, 4991
1653, 501, 475, 4203, 5177
1654, 778, 4619, 652, 4786
1655, 2958, 4082, 2962, 4437
1656, 2857, 4114, 5149, 5359
1657, 4113, 5148, 1224, 5360
1658, 3294, 2557, 4180, 4416
1659, 1661, 924, 4179, 4415
1660, 2553, 3007, 2474, 4026
1661, 2593, 2412, 4616, 4790
1662, 2734, 2675, 3353, 4215
1663, 3196, 4414, 4094, 5345
1664, 1563, 4413, 4093, 5346
1665, 2442, 4165, 2638, 4868
1666, 2536, 4090, 2889, 5334
1667, 1461, 4908, 4500, 5156
1668, 3094, 4907, 4501, 5157
1669, 1112, 4068, 1772, 4674
1670, 2745, 4066, 3405, 4673
1671, 3210, 2199, 4160, 5118
1672, 1577, 566, 4159, 5119
1673, 3312, 2641, 2985, 4890
1674, 536, 551, 1292, 4894
1675, 614, 1399, 651, 4902
1676, 2228, 2231, 2953, 4891
1677, 1073, 1455, 1222, 4903
1678, 3620, 2979, 3597, 4401
1679, 2979, 1983, 3597, 4401
1680, 1504, 3903, 4218, 4500
1681, 4030, 4130, 2477, 5243
1682, 4200, 4973, 1569, 5025
1683, 4178, 4805, 4012, 5098
1684, 543, 4917, 4147, 4929
1685, 4307, 4412, 3949, 4605
1686, 2306, 2307, 2383, 5257
1687, 994, 1644, 1641, 5256
1688, 539, 4147, 4477, 5119
1689, 2172, 4148, 4476, 5118
1690, 2490, 3109, 2793, 4915
1691, 2568, 2824, 3259, 4914
1692, 1191, 1626, 935, 4913
1693, 543, 4929, 4147, 5411
1694, 2411, 4359, 4061, 4439
1695, 3019, 4255, 4145, 4813
1696, 2109, 2134, 2108, 4204
1697, 476, 501, 475, 4203
1698, 1475, 4684, 3755, 4818
1699, 841, 4020, 842, 4255
1700, 4003, 4250, 2538, 4353
1701, 3483, 4076, 1501, 4711
1702, 1829, 4077, 3134, 4710
1703, 475, 3886, 4203, 5177
1704, 1430, 4911, 1549, 5093
1705, 3063, 4912, 3182, 5094
1706, 2343, 3970, 4172, 4487
1707, 1659, 996, 5079, 5117
1708, 4251, 5079, 4726, 5117
1709, 4204, 4360, 936, 4593
1710, 936, 4361, 4204, 4593
1711, 2569, 4362, 4203, 4592
1712, 3755, 4082, 4429, 4910
1713, 4661, 4999, 4223, 5470
1714, 3846, 4381, 4323, 4706
1715, 1655, 493, 679, 4399
1716, 4223, 4999, 4662, 5470
1717, 4193, 4934, 4504, 5095
1718, 4140, 4391, 4058, 5305
1719, 3955, 4912, 4272, 5511
1720, 3456, 3517, 1946, 4182
1721, 2490, 3109, 4229, 5201
1722, 1430, 4094, 4741, 5093
1723, 3063, 4093, 4742, 5094
1724, 1070, 4064, 4209, 5297
1725, 1075, 938, 4299, 5055
1726, 3972, 4421, 2204, 5392
1727, 2433, 3771, 4936, 5068
1728, 800, 3770, 4935, 5067
1729, 1504, 4218, 1441, 4500
1730, 493, 3794, 679, 4399
1731, 2475, 4387, 4026, 4620
1732, 3148, 4167, 3809, 4503
1733, 694, 4741, 4311, 5003
1734, 2327, 4742, 4312, 5004
1735, 2032, 4408, 2034, 5521
1736, 399, 4409, 401, 5522
1737, 4087, 1099, 4187, 5104
1738, 2466, 4836, 4617, 5266
1739, 833, 4837, 4618, 5267
1740, 4088, 2732, 4186, 5105
1741, 3558, 4418, 4113, 5062
1742, 1904, 4417, 4114, 5061
1743, 1250, 4326, 4242, 5208
1744, 2883, 4325, 4243, 5207
1745, 1947, 4207, 3675, 4920
1746, 2477, 4668, 2468, 4681
1747, 2705, 4387, 4107, 4403
1748, 3997, 4212, 2401, 5370
1749, 768, 3996, 4213, 5369
1750, 2620, 4605, 3840, 5423
1751, 2887, 4202, 3786, 4611
1752, 1254, 4201, 3785, 4610
1753, 3835, 4467, 4157, 4473
1754, 3836, 4466, 4158, 4474
1755, 3341, 4384, 4265, 4968
1756, 4123, 4270, 572, 5452
1757, 3558, 4113, 3520, 5062
1758, 1886, 1904, 4114, 5061
1759, 3924, 4312, 2328, 5328
1760, 3923, 4311, 695, 5329
1761, 1635, 1041, 991, 4335
1762, 2859, 3403, 4097, 4952
1763, 1003, 1195, 4583, 5114
1764, 3957, 4238, 1303, 5391
1765, 3871, 4172, 2191, 5064
1766, 3870, 4171, 558, 5063
1767, 1683, 4372, 4146, 5464
1768, 1299, 4053, 3595, 4340
1769, 4151, 4935, 989, 5180
1770, 2932, 4054, 3594, 4341
1771, 1770, 4089, 1226, 4961
1772, 3223, 3945, 4446, 5449
1773, 2255, 4324, 4376, 4471
1774, 683, 4380, 4323, 4468
1775, 4322, 4380, 683, 4468
1776, 2255, 4376, 4324, 4478
1777, 2859, 4097, 3403, 4650
1778, 408, 4934, 3768, 5367
1779, 4265, 4384, 2936, 4979
1780, 3020, 4211, 2714, 4783
1781, 4291, 4908, 4407, 5158
1782, 4292, 4907, 4406, 5159
1783, 2671, 4879, 4143, 4975
1784, 1259, 4761, 4098, 4957
1785, 3079, 4699, 1945, 5386
1786, 1075, 866, 938, 5055
1787, 1226, 4089, 1770, 4517
1788, 2571, 4300, 2708, 5057
1789, 609, 612, 1481, 5272
1790, 2072, 3898, 4198, 5489
1791, 4391, 4862, 4058, 5305
1792, 3700, 4317, 1971, 5075
1793, 1045, 4178, 4012, 4932
1794, 1879, 1846, 1907, 4111
1795, 2958, 2962, 4082, 4772
1796, 4323, 4380, 3846, 4706
1797, 4152, 4730, 3813, 4740
1798, 4185, 4494, 3875, 5284
1799, 3524, 2850, 3452, 4187
1800, 1658, 4165, 5160, 5340
1801, 2534, 4058, 2978, 4862
1802, 2244, 3974, 4191, 4615
1803, 3948, 4133, 428, 5087
1804, 4664, 4986, 4228, 5487
1805, 2725, 4242, 3286, 5019
1806, 3586, 4420, 4215, 5080
1807, 2892, 4765, 4090, 4948
1808, 4190, 4368, 4094, 4441
1809, 4189, 4367, 4093, 4442
1810, 2451, 2492, 4875, 5185
1811, 920, 841, 842, 4255
1812, 4225, 4848, 4662, 5001
1813, 3728, 4126, 3692, 4316
1814, 3727, 4127, 3700, 4317
1815, 2252, 3783, 4241, 4349
1816, 2251, 4241, 3935, 4349
1817, 3444, 1541, 3520, 4113
1818, 1843, 3174, 1886, 4114
1819, 986, 4197, 1249, 5412
1820, 2604, 3910, 4194, 4291
1821, 3909, 4195, 971, 4292
1822, 3968, 4199, 2967, 4309
1823, 2152, 3888, 2983, 5246
1824, 1350, 519, 3889, 5247
1825, 2393, 3198, 3859, 5248
1826, 760, 1565, 3860, 5249
1827, 1968, 3010, 1928, 4083
1828, 849, 4470, 3927, 5015
1829, 2482, 4469, 3928, 5016
1830, 1057, 1430, 1549, 5093
1831, 3063, 3182, 2690, 5094
1832, 4178, 5098, 4490, 5193
1833, 666, 3795, 1481, 5272
1834, 4212, 4617, 2401, 5373
1835, 768, 4213, 4618, 5374
1836, 2118, 2124, 3793, 5366
1837, 591, 4270, 4185, 4494
1838, 2343, 4172, 3970, 4977
1839, 4228, 4986, 4660, 5487
1840, 3389, 1992, 3125, 3754
1841, 1492, 1756, 359, 3753
1842, 2571, 2708, 2499, 5057
1843, 4172, 4487, 3983, 4991
1844, 1236, 1239, 1684, 4102
1845, 1057, 1549, 4911, 5093
1846, 3182, 4912, 2690, 5094
1847, 3099, 4016, 1840, 5060
1848, 1466, 4015, 3484, 5059
1849, 2033, 2032, 2034, 5521
1850, 400, 399, 401, 5522
1851, 1948, 4215, 4843, 5080
1852, 4080, 4142, 2997, 5266
1853, 1364, 4081, 4141, 5267
1854, 4074, 4735, 1589, 4846
1855, 2647, 3318, 2917, 4103
1856, 2984, 2442, 2638, 4868
1857, 568, 3939, 1295, 5296
1858, 3965, 4219, 4138, 5046
1859, 4667, 4850, 4245, 5017
1860, 4666, 4851, 4246, 5018
1861, 2942, 4104, 3615, 4269
1862, 772, 4115, 771, 4352
1863, 2172, 4476, 2171, 5118
1864, 539, 4477, 538, 5119
1865, 2413, 4250, 4075, 4353
1866, 3911, 4226, 1482, 4323
1867, 3850, 1552, 4226, 4323
1868, 3832, 698, 4244, 5313
1869, 2335, 4283, 3293, 4408
1870, 1342, 4919, 4460, 4954
1871, 2577, 4394, 3805, 4450
1872, 4244, 2286, 4779, 5523
1873, 2647, 4103, 2917, 4277
1874, 2072, 4198, 3898, 4762
1875, 2668, 4057, 4272, 4344
1876, 1035, 4056, 4273, 4343
1877, 4088, 4186, 2732, 5199
1878, 4087, 4187, 1099, 5198
1879, 4025, 5098, 4805, 5193
1880, 3319, 3781, 4168, 4522
1881, 3250, 4164, 3876, 4577
1882, 3877, 1617, 4163, 4578
1883, 3880, 927, 4218, 4431
1884, 1121, 4639, 4806, 5424
1885, 751, 3912, 4174, 4658
1886, 2384, 3912, 4175, 4659
1887, 971, 4195, 3909, 5097
1888, 1230, 4035, 4182, 5337
1889, 2675, 3353, 4215, 4843
1890, 2538, 4250, 2414, 4353
1891, 3125, 3754, 1992, 4937
1892, 1492, 3753, 359, 4939
1893, 2384, 4175, 3912, 5257
1894, 4013, 2884, 4214, 5122
1895, 3794, 4191, 4073, 5264
1896, 1464, 663, 1477, 4125
1897, 1883, 1986, 1840, 5060
1898, 3515, 353, 3484, 5059
1899, 3125, 1992, 3441, 4937
1900, 1492, 359, 1808, 4939
1901, 4500, 4908, 4194, 5156
1902, 4501, 4907, 4195, 5157
1903, 4313, 4437, 4082, 4919
1904, 2114, 4134, 3880, 5191
1905, 2040, 4749, 3284, 4880
1906, 407, 4748, 1651, 4881
1907, 3884, 4407, 4291, 4530
1908, 3885, 4406, 4292, 4529
1909, 1683, 4146, 431, 5464
1910, 2152, 4965, 3888, 5246
1911, 519, 4966, 3889, 5247
1912, 2430, 4291, 2435, 4936
1913, 797, 4292, 802, 4935
1914, 3558, 3520, 4418, 5062
1915, 1886, 4417, 1904, 5061
1916, 1989, 3393, 3080, 4036
1917, 2604, 4194, 3910, 5135
1918, 3859, 4314, 4299, 5248
1919, 3860, 4315, 4300, 5249
1920, 4015, 4652, 4062, 5059
1921, 4016, 4651, 4063, 5060
1922, 2843, 4387, 4003, 4438
1923, 4308, 4435, 4392, 5237
1924, 1869, 4110, 1468, 4276
1925, 4151, 4279, 989, 5067
1926, 343, 1884, 4114, 5302
1927, 3474, 4113, 1976, 5303
1928, 644, 4707, 4121, 4864
1929, 3079, 3469, 1945, 4699
1930, 1311, 1735, 1310, 4139
1931, 1728, 1046, 4105, 4261
1932, 1359, 3674, 4265, 4400
1933, 4184, 4794, 4743, 5053
1934, 4041, 4442, 4189, 5094
1935, 4042, 4441, 4190, 5093
1936, 3692, 4316, 338, 4970
1937, 1513, 4375, 4327, 4498
1938, 4112, 4731, 4209, 5176
1939, 4063, 3022, 4808, 5060
1940, 4062, 1389, 4807, 5059
1941, 4317, 4492, 1971, 5075
1942, 4144, 4818, 4429, 4910
1943, 592, 3764, 4270, 4494
1944, 1713, 4099, 4187, 5104
1945, 3448, 4128, 3427, 5334
1946, 2621, 3034, 4383, 5096
1947, 1629, 4161, 3831, 4884
1948, 1189, 989, 4279, 5067
1949, 3346, 4100, 4186, 5105
1950, 2851, 4087, 3349, 4752
1951, 1716, 1218, 4088, 4753
1952, 2471, 4144, 4816, 4910
1953, 2221, 2342, 4727, 5111
1954, 1380, 1667, 4363, 4768
1955, 3300, 4364, 3013, 4769
1956, 1149, 3991, 4367, 4413
1957, 2782, 3990, 4368, 4414
1958, 4097, 4650, 2859, 4952
1959, 902, 1345, 3761, 4447
1960, 2433, 4513, 3771, 5068
1961, 800, 4514, 3770, 5067
1962, 4055, 2683, 4675, 5181
1963, 2244, 4191, 2243, 4615
1964, 1859, 1916, 1845, 4432
1965, 757, 4120, 991, 4428
1966, 3548, 4460, 3755, 4772
1967, 2159, 3824, 2161, 4256
1968, 681, 3878, 680, 4257
1969, 1159, 4331, 3991, 4413
1970, 2792, 4332, 3990, 4414
1971, 4089, 4517, 1226, 4961
1972, 924, 4004, 4331, 4415
1973, 2557, 4005, 4332, 4416
1974, 2554, 4141, 2702, 4455
1975, 1069, 921, 4142, 4456
1976, 2833, 4055, 2683, 4675
1977, 1525, 331, 1856, 4042
1978, 1964, 3490, 3158, 4041
1979, 4043, 4183, 2863, 5372
1980, 4042, 4343, 4268, 4441
1981, 4041, 4344, 4267, 4442
1982, 3309, 4185, 3875, 4755
1983, 3341, 3960, 4384, 4968
1984, 3711, 3344, 4136, 5075
1985, 4058, 4140, 2978, 5410
1986, 644, 4121, 645, 4864
1987, 1347, 4118, 1348, 4863
1988, 1772, 4068, 1301, 4674
1989, 3405, 4066, 2934, 4673
1990, 3364, 3363, 2671, 4143
1991, 3941, 4720, 4595, 4898
1992, 808, 4381, 4323, 4700
1993, 808, 4328, 4381, 4700
1994, 789, 4466, 3836, 4474
1995, 2422, 4467, 3835, 4473
1996, 2757, 3393, 4111, 4403
1997, 2651, 2652, 4595, 5153
1998, 1728, 1046, 1729, 4105
1999, 3665, 3692, 3728, 4126
2000, 3700, 3727, 3664, 4127
2001, 4490, 5098, 4025, 5193
2002, 2027, 4347, 4117, 5349
2003, 394, 4346, 4116, 5350
2004, 3671, 1703, 4103, 4264
2005, 3594, 4054, 2932, 4319
2006, 3309, 2522, 4185, 4755
2007, 3764, 4185, 2990, 5335
2008, 3673, 4369, 4265, 4979
2009, 592, 4270, 591, 4494
2010, 1680, 4199, 1185, 5380
2011, 1879, 1989, 1846, 4111
2012, 3387, 3755, 4684, 4910
2013, 2199, 4160, 3870, 5036
2014, 566, 4159, 3871, 5037
2015, 2309, 4167, 3148, 4503
2016, 3092, 3091, 2714, 4211
2017, 2995, 4115, 2451, 4875
2018, 3031, 4388, 2283, 5042
2019, 3821, 4445, 4188, 4495
2020, 1300, 4741, 694, 5003
2021, 2327, 2933, 4742, 5004
2022, 3921, 4886, 4422, 5034
2023, 3922, 4887, 4423, 5033
2024, 1815, 4129, 1794, 5333
2025, 1130, 4040, 1033, 5298
2026, 2763, 4039, 2666, 5299
2027, 1947, 2994, 4207, 4920
2028, 1377, 3454, 335, 4079
2029, 4003, 4387, 4107, 4438
2030, 2408, 4516, 4188, 4832
2031, 3114, 4375, 2241, 5081
2032, 3504, 3427, 3448, 4752
2033, 1868, 1812, 1922, 4321
2034, 3475, 3542, 3500, 4320
2035, 3020, 2714, 2509, 4783
2036, 1634, 4161, 4884, 5256
2037, 4188, 4516, 4044, 4832
2038, 2795, 4093, 2691, 4189
2039, 1162, 4094, 1058, 4190
2040, 4154, 4371, 3909, 5159
2041, 4153, 4370, 3910, 5158
2042, 3909, 4371, 4156, 5157
2043, 3910, 4370, 4155, 5156
2044, 2833, 4055, 4675, 5069
2045, 983, 4370, 4155, 5228
2046, 2616, 4371, 4156, 5227
2047, 3391, 4083, 1968, 5526
2048, 4082, 4437, 4429, 4910
2049, 2408, 4044, 4516, 4832
2050, 1374, 4786, 4255, 4959
2051, 1217, 4186, 1889, 4355
2052, 3524, 2850, 4187, 4354
2053, 3767, 4151, 2041, 4434
2054, 1039, 1733, 1732, 4104
2055, 1870, 1794, 1815, 4753
2056, 3755, 2962, 4772, 4910
2057, 4052, 4185, 2522, 4755
2058, 3961, 4207, 2994, 4920
2059, 4678, 4679, 4032, 4736
2060, 4617, 4836, 3946, 5266
2061, 4618, 4837, 3947, 5267
2062, 3905, 4704, 4325, 4718
2063, 3795, 4310, 4289, 5272
2064, 2006, 4177, 3998, 4928
2065, 3890, 4840, 4185, 4890
2066, 4117, 4216, 1613, 5033
2067, 4116, 4217, 3246, 5034
2068, 3862, 4348, 4196, 5320
2069, 3958, 2936, 4384, 4979
2070, 1859, 4036, 1916, 4432
2071, 727, 4558, 4733, 4909
2072, 4265, 4384, 3960, 4968
2073, 3995, 4175, 2387, 5044
2074, 3994, 4174, 754, 5045
2075, 1501, 4076, 3483, 4320
2076, 3134, 4077, 1829, 4321
2077, 317, 1896, 4038, 4709
2078, 1185, 4199, 4339, 5380
2079, 627, 1295, 1296, 5296
2080, 3766, 4413, 4312, 5145
2081, 3765, 4414, 4311, 5144
2082, 2112, 4134, 3092, 5295
2083, 4392, 4435, 4047, 5237
2084, 3567, 3497, 5038, 5120
2085, 2722, 3983, 4487, 4991
2086, 480, 479, 4047, 5174
2087, 1236, 4102, 1684, 4771
2088, 2702, 3754, 2797, 4390
2089, 1069, 3753, 1164, 4389
2090, 1374, 841, 4255, 4786
2091, 1613, 4216, 4117, 5107
2092, 3246, 4217, 4116, 5108
2093, 3811, 4373, 4106, 4511
2094, 3124, 4125, 2125, 4796
2095, 3890, 4360, 4204, 4593
2096, 4204, 4361, 3836, 4593
2097, 4203, 4362, 3835, 4592
2098, 1013, 1697, 4812, 4898
2099, 1436, 4151, 989, 5067
2100, 2622, 3069, 4150, 5068
2101, 2336, 4696, 4161, 5169
2102, 4030, 4770, 4130, 4786
2103, 1745, 1218, 1216, 4186
2104, 3378, 2851, 2849, 4187
2105, 2586, 2709, 3059, 4214
2106, 2791, 4308, 3026, 4392
2107, 4428, 4019, 4975, 5258
2108, 4316, 4491, 338, 4970
2109, 3135, 4252, 3241, 5291
2110, 4118, 4201, 3772, 5301
2111, 3511, 1514, 4091, 4684
2112, 2221, 2222, 2341, 5278
2113, 1039, 4104, 1732, 4318
2114, 4209, 4731, 4091, 5223
2115, 2202, 4870, 4746, 5175
2116, 1711, 3666, 3707, 4135
2117, 1070, 4209, 4064, 4819
2118, 4762, 4889, 4198, 5088
2119, 4118, 4201, 1347, 5269
2120, 1259, 1256, 903, 4098
2121, 2536, 2892, 2889, 4090
2122, 3391, 1968, 4183, 5526
2123, 1662, 5079, 4665, 5117
2124, 3087, 4303, 2117, 4388
2125, 2538, 4003, 4353, 4438
2126, 3008, 4111, 3413, 4958
2127, 4041, 2755, 4344, 5094
2128, 4042, 1122, 4343, 5093
2129, 1355, 4280, 4146, 5087
2130, 3141, 3449, 3510, 4091
2131, 2054, 2112, 3092, 5295
2132, 3666, 1711, 327, 4135
2133, 1229, 4108, 1758, 4182
2134, 1313, 4215, 1720, 5179
2135, 2578, 2506, 4813, 5030
2136, 944, 3806, 4449, 4457
2137, 3050, 4285, 3214, 4450
2138, 1417, 4286, 1581, 4449
2139, 1343, 4429, 3755, 4460
2140, 5076, 5245, 711, 5307
2141, 3024, 4324, 4701, 4702
2142, 3615, 2942, 1955, 4393
2143, 2862, 4109, 3391, 4183
2144, 3983, 4927, 757, 5079
2145, 568, 5056, 3939, 5296
2146, 1946, 4079, 3081, 5137
2147, 1216, 4100, 4186, 4355
2148, 4099, 4187, 2849, 4354
2149, 2826, 2577, 3805, 4450
2150, 1193, 944, 3806, 4449
2151, 4746, 4870, 3972, 5175
2152, 2603, 2683, 2833, 4055
2153, 2125, 4125, 2126, 4637
2154, 601, 1569, 4973, 5025
2155, 317, 4038, 4459, 4709
2156, 2735, 2736, 2543, 4871
2157, 1884, 343, 4114, 4417
2158, 1976, 4113, 3474, 4418
2159, 3397, 4035, 3100, 4803
2160, 4245, 4281, 3977, 5209
2161, 3962, 4281, 4245, 5209
2162, 3963, 4282, 4246, 5210
2163, 4246, 4282, 3976, 5210
2164, 4229, 4304, 3792, 5201
2165, 3879, 4304, 4229, 5201
2166, 3787, 4293, 4240, 5203
2167, 3788, 4294, 4241, 5202
2168, 4240, 4293, 3934, 5203
2169, 4241, 4294, 3935, 5202
2170, 3935, 4073, 4739, 4825
2171, 1634, 4161, 1629, 4884
2172, 3566, 3567, 3497, 5038
2173, 4161, 4569, 3838, 4713
2174, 918, 4026, 4402, 4874
2175, 639, 4297, 553, 4350
2176, 2186, 2272, 4298, 4351
2177, 1468, 1328, 4110, 4709
2178, 1764, 4043, 1467, 4806
2179, 2059, 3926, 4430, 5109
2180, 1249, 4197, 1161, 4502
2181, 1735, 1310, 4139, 4857
2182, 4015, 2803, 4427, 5132
2183, 1713, 4187, 1099, 5104
2184, 2243, 4615, 4191, 5081
2185, 3958, 4384, 4265, 4979
2186, 2794, 3949, 4412, 4605
2187, 4074, 4738, 4735, 4846
2188, 3346, 4186, 2732, 5105
2189, 3319, 4168, 3314, 4522
2190, 1279, 4157, 1275, 4587
2191, 2912, 4158, 2908, 4586
2192, 1697, 1498, 4170, 4600
2193, 3250, 3269, 4164, 4577
2194, 1636, 4163, 1617, 4578
2195, 1170, 4426, 4016, 5136
2196, 2147, 4886, 2148, 5034
2197, 515, 514, 4887, 5033
2198, 2406, 3947, 4923, 5282
2199, 773, 3946, 4922, 5283
2200, 2502, 2796, 4390, 4444
2201, 1163, 4389, 869, 4443
2202, 2477, 5243, 4130, 5414
2203, 1658, 4165, 5139, 5160
2204, 1135, 4454, 4101, 5252
2205, 4204, 4512, 4360, 4840
2206, 4212, 4363, 1667, 4768
2207, 3300, 4213, 4364, 4769
2208, 2404, 4106, 2298, 4953
2209, 1161, 4197, 4336, 4502
2210, 2200, 4338, 4200, 4503
2211, 2899, 4180, 4332, 4509
2212, 4179, 4331, 1266, 4508
2213, 3764, 4270, 4123, 5452
2214, 3939, 4314, 4299, 5296
2215, 2456, 4138, 3965, 5276
2216, 4291, 4407, 3884, 5158
2217, 4292, 4406, 3885, 5159
2218, 1340, 4313, 1339, 4429
2219, 3615, 1955, 3621, 4393
2220, 4145, 5339, 4220, 5504
2221, 2833, 3220, 4055, 5069
2222, 2252, 4241, 2263, 4349
2223, 2263, 4241, 2251, 4349
2224, 2603, 2682, 4220, 5167
2225, 2899, 3294, 4180, 4509
2226, 1661, 4179, 1266, 4508
2227, 2850, 3415, 3452, 4187
2228, 2665, 3098, 2664, 4272
2229, 1032, 1465, 1031, 4273
2230, 1697, 4170, 3848, 4600
2231, 1980, 3341, 2936, 4265
2232, 3373, 4105, 2918, 4271
2233, 998, 5013, 4410, 5054
2234, 751, 4174, 754, 4658
2235, 2387, 2384, 4175, 4659
2236, 4377, 4701, 4324, 4702
2237, 3846, 4700, 4381, 4713
2238, 3904, 4702, 4377, 4714
2239, 2413, 2414, 4250, 4353
2240, 3031, 2113, 2283, 4388
2241, 3958, 4384, 4328, 5242
2242, 4469, 4606, 3885, 4946
2243, 4470, 4607, 3884, 4945
2244, 4085, 4113, 2763, 4418
2245, 4086, 4114, 1130, 4417
2246, 3838, 4884, 4161, 5256
2247, 1190, 4244, 698, 5313
2248, 3010, 1928, 4083, 5356
2249, 4031, 4215, 2734, 5509
2250, 2024, 4118, 2023, 5301
2251, 2752, 4145, 4070, 5339
2252, 2556, 2454, 2642, 4838
2253, 2387, 4175, 3995, 4659
2254, 754, 4174, 3994, 4658
2255, 1475, 3501, 356, 4684
2256, 3468, 3501, 1475, 4684
2257, 3190, 3280, 4120, 4715
2258, 3366, 3354, 4139, 5183
2259, 391, 4346, 4119, 5052
2260, 2024, 4347, 4118, 5051
2261, 2577, 2824, 4394, 4450
2262, 3581, 4393, 4271, 5078
2263, 553, 555, 4350, 5497
2264, 2186, 2188, 4351, 5496
2265, 880, 971, 4195, 4292
2266, 2604, 4194, 2513, 4291
2267, 2288, 2967, 4199, 4309
2268, 1498, 4170, 4600, 4951
2269, 1275, 4587, 4157, 4941
2270, 2908, 4586, 4158, 4942
2271, 2069, 4405, 3898, 5489
2272, 989, 4279, 4151, 5180
2273, 526, 3810, 529, 5170
2274, 3398, 4189, 4076, 5279
2275, 1765, 4190, 4077, 5280
2276, 3334, 4102, 3335, 4274
2277, 3903, 4194, 3228, 5042
2278, 2159, 2161, 2158, 4256
2279, 3932, 4795, 4207, 4838
2280, 3173, 2160, 2158, 4256
2281, 681, 680, 533, 4257
2282, 3780, 4794, 4184, 5053
2283, 3297, 4412, 3873, 5047
2284, 3485, 334, 3457, 5294
2285, 1348, 4118, 1347, 5269
2286, 393, 4346, 391, 5052
2287, 2024, 2026, 4347, 5051
2288, 4122, 4712, 2278, 5248
2289, 1215, 4100, 3576, 4800
2290, 2848, 4099, 3575, 4801
2291, 2495, 5047, 4196, 5274
2292, 951, 4130, 950, 5379
2293, 3978, 4552, 3812, 5025
2294, 2152, 2983, 2150, 5246
2295, 1350, 517, 519, 5247
2296, 2393, 2896, 3198, 5248
2297, 760, 1263, 1565, 5249
2298, 3822, 4552, 4576, 4755
2299, 1876, 1906, 4095, 5265
2300, 4086, 4343, 4268, 5456
2301, 4085, 4344, 4267, 5457
2302, 1573, 4370, 983, 5228
2303, 2616, 3206, 4371, 5227
2304, 3883, 4160, 4350, 4810
2305, 3882, 4159, 4351, 4809
2306, 3500, 1993, 4076, 5123
2307, 1868, 360, 4077, 5124
2308, 434, 4280, 3940, 4337
2309, 3555, 3457, 4342, 5294
2310, 4598, 4601, 3919, 4716
2311, 4576, 4598, 3812, 4716
2312, 2296, 4073, 3110, 4825
2313, 3439, 3422, 4077, 5165
2314, 1806, 1789, 4076, 5166
2315, 842, 4255, 4020, 4906
2316, 2556, 4663, 2454, 4838
2317, 3363, 2671, 4143, 4975
2318, 2408, 2275, 4188, 4516
2319, 1189, 1436, 989, 5067
2320, 2622, 2822, 3069, 5068
2321, 3703, 4264, 3702, 4480
2322, 3555, 4342, 4070, 5294
2323, 1202, 925, 4358, 4784
2324, 3647, 4105, 3591, 4271
2325, 2600, 4848, 3067, 5001
2326, 1509, 4850, 678, 5017
2327, 3142, 4851, 2311, 5018
2328, 2277, 2278, 4712, 5248
2329, 1669, 4410, 3800, 5054
2330, 2079, 2046, 3902, 5322
2331, 413, 3903, 446, 5321
2332, 3583, 348, 1309, 4139
2333, 344, 3470, 4128, 5198
2334, 1837, 4129, 1977, 5199
2335, 4817, 4993, 4078, 5324
2336, 612, 666, 1481, 5272
2337, 1576, 1589, 1409, 4846
2338, 4091, 4731, 3141, 5223
2339, 3814, 4510, 4048, 4881
2340, 4422, 5286, 1153, 5350
2341, 2786, 4423, 5285, 5349
2342, 4164, 4883, 3876, 4894
2343, 2567, 4210, 2639, 4875
2344, 903, 1255, 3756, 5333
2345, 3811, 4382, 4373, 4511
2346, 4283, 4449, 4408, 5048
2347, 434, 4280, 4337, 5074
2348, 4168, 4698, 4334, 4947
2349, 2048, 4184, 2051, 4518
2350, 1355, 4146, 431, 5087
2351, 3695, 1703, 323, 4369
2352, 1475, 356, 3755, 4684
2353, 2395, 4252, 4137, 5368
2354, 2118, 2123, 2124, 5366
2355, 4147, 4917, 3938, 4929
2356, 683, 4323, 1552, 4468
2357, 681, 4322, 683, 4468
2358, 2255, 3071, 4324, 4471
2359, 2255, 4324, 2514, 4478
2360, 2495, 2496, 5047, 5274
2361, 3885, 4469, 4154, 5159
2362, 3884, 4470, 4153, 5158
2363, 3240, 5274, 4152, 5423
2364, 3413, 1989, 1879, 4111
2365, 4063, 4389, 4016, 5060
2366, 4062, 4390, 4015, 5059
2367, 1520, 4378, 3898, 5088
2368, 2594, 4211, 3052, 4404
2369, 3671, 1703, 3695, 4369
2370, 771, 664, 4352, 5160
2371, 1355, 432, 4280, 5087
2372, 1581, 3789, 4449, 4985
2373, 3214, 3790, 4450, 4984
2374, 3878, 4334, 4168, 4698
2375, 4071, 4255, 4145, 5386
2376, 1596, 1482, 4226, 4323
2377, 1596, 4226, 1552, 4323
2378, 3241, 4252, 2395, 5368
2379, 3810, 4257, 529, 5170
2380, 3924, 4179, 3151, 4844
2381, 1518, 3923, 4180, 4845
2382, 4064, 4447, 4144, 5297
2383, 2887, 4589, 4202, 5385
2384, 4120, 4487, 3190, 4715
2385, 3313, 2990, 4185, 5335
2386, 3871, 538, 4477, 5119
2387, 3870, 2171, 4476, 5118
2388, 3135, 4131, 4252, 5291
2389, 4136, 4436, 3333, 5513
2390, 627, 568, 1295, 5296
2391, 1230, 4222, 4035, 5219
2392, 2863, 4221, 4043, 5220
2393, 878, 3872, 4233, 4994
2394, 2438, 2314, 4885, 5070
2395, 592, 3764, 572, 4270
2396, 4093, 4367, 3991, 4413
2397, 4094, 4368, 3990, 4414
2398, 2702, 2796, 4081, 4390
2399, 1163, 4080, 1069, 4389
2400, 408, 1432, 4934, 5367
2401, 1303, 4238, 1690, 5391
2402, 2050, 3807, 4383, 5053
2403, 716, 4366, 3978, 4627
2404, 1479, 4257, 3844, 4322
2405, 681, 3878, 4257, 4322
2406, 2315, 2317, 4572, 5070
2407, 1070, 4209, 4819, 5445
2408, 1867, 1934, 4916, 5130
2409, 3148, 3809, 4167, 5182
2410, 2193, 3242, 4351, 4921
2411, 558, 4465, 1567, 5488
2412, 3764, 572, 4270, 5452
2413, 862, 4306, 4115, 5281
2414, 4624, 4903, 3981, 4906
2415, 1155, 1153, 5286, 5350
2416, 2786, 5285, 2788, 5349
2417, 2668, 4057, 3098, 4272
2418, 1465, 1035, 4056, 4273
2419, 4273, 4911, 3954, 4980
2420, 4272, 4912, 3955, 4981
2421, 2763, 2667, 2666, 4085
2422, 1033, 1130, 1034, 4086
2423, 3314, 4522, 4168, 4947
2424, 3875, 4576, 4598, 4755
2425, 3871, 4477, 4147, 5119
2426, 3870, 4476, 4148, 5118
2427, 1867, 1864, 1934, 5130
2428, 4255, 4786, 4092, 4959
2429, 2536, 2888, 3757, 5334
2430, 2404, 2297, 4106, 4511
2431, 2758, 3019, 4847, 5386
2432, 4365, 4460, 4082, 4919
2433, 461, 4287, 3921, 4422
2434, 3922, 2094, 4288, 4423
2435, 3868, 1437, 4299, 4424
2436, 3070, 4300, 3867, 4425
2437, 3671, 3735, 4103, 4369
2438, 3992, 4624, 4813, 4906
2439, 3376, 3156, 3369, 4843
2440, 899, 757, 4428, 5079
2441, 4084, 4203, 501, 5451
2442, 3809, 603, 4200, 4973
2443, 2267, 4896, 4290, 4978
2444, 1345, 1338, 902, 3761
2445, 1338, 3761, 1345, 4429
2446, 4206, 5121, 3756, 5232
2447, 3756, 4206, 4098, 5121
2448, 4017, 4679, 4655, 4736
2449, 3905, 4163, 4704, 4718
2450, 1116, 1117, 1118, 4267
2451, 2751, 2749, 2750, 4268
2452, 3989, 4671, 4061, 4734
2453, 2021, 4201, 4776, 5301
2454, 4868, 4890, 3890, 5139
2455, 3376, 4659, 3156, 4843
2456, 3366, 4139, 3354, 4497
2457, 3610, 4105, 2918, 5143
2458, 3883, 4350, 4297, 4810
2459, 3882, 4351, 4298, 4809
2460, 839, 4733, 3967, 4909
2461, 3757, 4090, 5125, 5231
2462, 2594, 4046, 4211, 4404
2463, 2538, 2843, 4003, 4438
2464, 2235, 4106, 2297, 4511
2465, 1991, 4071, 3455, 5386
2466, 602, 4167, 4716, 4973
2467, 2886, 4589, 2887, 5385
2468, 1795, 4128, 3505, 4481
2469, 3428, 4129, 1874, 4496
2470, 3796, 4188, 2275, 4516
2471, 3832, 5014, 698, 5313
2472, 4137, 4252, 3763, 5076
2473, 1121, 1654, 4639, 5424
2474, 3393, 2707, 4036, 4403
2475, 3808, 4484, 4115, 5182
2476, 3349, 2851, 3378, 4087
2477, 1716, 1218, 1745, 4088
2478, 2970, 4826, 4309, 4862
2479, 2912, 4158, 4586, 4989
2480, 1279, 4157, 4587, 4990
2481, 4293, 4303, 3793, 5366
2482, 818, 4196, 4348, 4730
2483, 1947, 3036, 3693, 4207
2484, 918, 4107, 919, 4507
2485, 3279, 4123, 4314, 5092
2486, 4144, 4447, 4064, 4799
2487, 3985, 4136, 2698, 5075
2488, 4214, 5122, 2884, 5416
2489, 1936, 1889, 4186, 4355
2490, 3524, 4187, 3569, 4354
2491, 1670, 3813, 4374, 4730
2492, 1112, 1772, 1301, 4674
2493, 2745, 3405, 2934, 4673
2494, 862, 4115, 772, 5281
2495, 1575, 711, 5245, 5307
2496, 4310, 4612, 3760, 5272
2497, 3757, 4208, 4090, 5231
2498, 1566, 4477, 4172, 5037
2499, 3199, 4476, 4171, 5036
2500, 1475, 4091, 4684, 4818
2501, 3444, 3520, 3558, 4113
2502, 1904, 1843, 1886, 4114
2503, 3263, 2822, 4345, 5364
2504, 900, 4665, 1662, 5079
2505, 2277, 5248, 4712, 5278
2506, 3884, 4291, 2430, 4530
2507, 3885, 4292, 797, 4529
2508, 1477, 3934, 4293, 4608
2509, 4125, 4293, 1464, 4853
2510, 3522, 3573, 4259, 5363
2511, 1888, 1939, 4260, 5362
2512, 454, 4607, 3884, 5158
2513, 2087, 4606, 3885, 5159
2514, 4120, 4715, 3280, 5258
2515, 1552, 4323, 3850, 4468
2516, 681, 3878, 4322, 4468
2517, 3892, 4324, 3071, 4471
2518, 2514, 4324, 3908, 4478
2519, 2076, 2077, 4762, 4889
2520, 1313, 1720, 4215, 4676
2521, 4447, 4787, 4064, 4799
2522, 2817, 4007, 4314, 4483
2523, 333, 4275, 1135, 4454
2524, 2843, 2854, 4003, 4387
2525, 2246, 3110, 2296, 4073
2526, 4154, 4469, 3885, 4946
2527, 4153, 4470, 3884, 4945
2528, 4009, 4677, 4215, 4843
2529, 2819, 4123, 3279, 5092
2530, 2682, 4145, 2752, 5339
2531, 3110, 4073, 2246, 4635
2532, 2948, 4345, 4193, 5096
2533, 677, 1203, 1202, 4372
2534, 3303, 3304, 5086, 5182
2535, 2471, 4144, 4799, 4816
2536, 2126, 4310, 3795, 4637
2537, 4166, 4473, 2808, 4592
2538, 4173, 4479, 615, 4608
2539, 3321, 3781, 4900, 5310
2540, 497, 4892, 3877, 5311
2541, 4148, 5091, 4821, 5508
2542, 428, 4133, 3948, 5099
2543, 3786, 4202, 2887, 4589
2544, 4096, 4342, 3420, 4365
2545, 3485, 4070, 334, 5294
2546, 4631, 4641, 4013, 4751
2547, 792, 4495, 886, 5010
2548, 4124, 4916, 1934, 5130
2549, 1541, 3520, 4113, 5062
2550, 1886, 4114, 3174, 5061
2551, 4284, 4394, 3821, 4914
2552, 2703, 4820, 4448, 5396
2553, 2310, 4873, 4515, 5109
2554, 3970, 5164, 4477, 5490
2555, 3969, 5245, 5076, 5307
2556, 4164, 4577, 3269, 5100
2557, 1636, 4163, 4578, 5101
2558, 3124, 3979, 4310, 4796
2559, 4333, 4782, 4239, 5451
2560, 762, 4138, 846, 4505
2561, 2395, 4137, 2479, 4506
2562, 3973, 4191, 4615, 5081
2563, 4407, 4530, 3771, 4936
2564, 4406, 4529, 3770, 4935
2565, 2678, 3280, 4715, 5258
2566, 2022, 2023, 2021, 5301
2567, 2667, 4085, 2688, 4344
2568, 1034, 4086, 1055, 4343
2569, 3761, 4816, 4144, 4910
2570, 3897, 4821, 4148, 5091
2571, 881, 4376, 3908, 4982
2572, 881, 3908, 4377, 4982
2573, 572, 4270, 4123, 5083
2574, 2184, 4718, 4895, 5514
2575, 3005, 4724, 4889, 5516
2576, 1372, 4725, 4888, 5515
2577, 3245, 4899, 4720, 5518
2578, 2958, 4082, 2961, 4772
2579, 404, 4407, 3884, 5012
2580, 2037, 4406, 3885, 5011
2581, 1252, 685, 4168, 4468
2582, 2221, 4171, 3199, 4476
2583, 1208, 4153, 1583, 4470
2584, 2841, 4154, 3216, 4469
2585, 3703, 3702, 3679, 4480
2586, 4207, 4672, 3675, 4920
2587, 3257, 4197, 3039, 5449
2588, 3971, 4641, 4623, 4751
2589, 1070, 4209, 1126, 5297
2590, 1861, 4038, 1860, 5410
2591, 3470, 3549, 3505, 4128
2592, 2513, 4194, 3768, 4291
2593, 880, 4195, 3767, 4292
2594, 2288, 4199, 3967, 4309
2595, 2707, 4403, 4107, 4438
2596, 1758, 4108, 1076, 4854
2597, 2819, 2817, 4123, 4483
2598, 560, 1609, 4350, 5091
2599, 4374, 4375, 1513, 4498
2600, 4211, 4430, 4358, 4783
2601, 4448, 4820, 4069, 5396
2602, 644, 4121, 4707, 5164
2603, 1932, 4038, 1896, 4709
2604, 3280, 3190, 4120, 4487
2605, 1203, 4046, 1202, 4372
2606, 571, 572, 4123, 5083
2607, 1837, 1917, 1874, 4129
2608, 999, 4410, 998, 5013
2609, 3950, 4363, 4212, 4768
2610, 3951, 4364, 4213, 4769
2611, 930, 4983, 4307, 4990
2612, 2451, 4115, 2995, 5086
2613, 4087, 3349, 4752, 5194
2614, 1716, 4753, 4088, 5195
2615, 4018, 4680, 4139, 4857
2616, 2749, 4268, 2751, 5084
2617, 1116, 4267, 1118, 5085
2618, 4010, 4649, 4242, 5019
2619, 1468, 1776, 1328, 4709
2620, 4031, 4139, 1311, 5458
2621, 901, 4447, 848, 5297
2622, 2808, 4473, 4166, 5461
2623, 3496, 4731, 4112, 5293
2624, 3558, 4113, 3474, 5303
2625, 1904, 4114, 1884, 5302
2626, 4085, 4344, 4272, 5085
2627, 4086, 4343, 4273, 5084
2628, 2816, 5176, 4521, 5222
2629, 3597, 4139, 1983, 4497
2630, 3052, 4211, 3952, 4404
2631, 3597, 4139, 3650, 4401
2632, 3524, 3452, 3569, 4187
2633, 1936, 1889, 1819, 4186
2634, 3992, 4750, 4624, 4906
2635, 4235, 4586, 3917, 4841
2636, 936, 4360, 4204, 4361
2637, 615, 4479, 4173, 5481
2638, 1252, 4468, 4168, 4698
2639, 1737, 4654, 1093, 4857
2640, 3276, 4205, 3801, 5051
2641, 1738, 1737, 1093, 4857
2642, 4172, 4477, 1566, 5490
2643, 3789, 1626, 4449, 4913
2644, 3790, 3259, 4450, 4914
2645, 3846, 4161, 4700, 4713
2646, 3904, 4175, 4702, 4714
2647, 1583, 4153, 4370, 4470
2648, 3216, 4154, 4371, 4469
2649, 4097, 5130, 1813, 5216
2650, 758, 996, 4726, 5079
2651, 2438, 2316, 2314, 5070
2652, 2317, 2315, 2316, 5070
2653, 2552, 4813, 4145, 5167
2654, 4648, 4728, 4177, 4928
2655, 1566, 4172, 4726, 5037
2656, 3199, 4171, 4727, 5036
2657, 2109, 4822, 4204, 4859
2658, 476, 4823, 4203, 4858
2659, 2522, 4185, 4052, 4756
2660, 2104, 3897, 2129, 4810
2661, 471, 3896, 496, 4809
2662, 4074, 4349, 2248, 4635
2663, 1148, 4057, 4442, 5085
2664, 4056, 4441, 2781, 5084
2665, 4445, 4495, 1435, 5344
2666, 2235, 2237, 4106, 5058
2667, 3950, 1613, 4216, 5033
2668, 3951, 3246, 4217, 5034
2669, 1927, 4939, 1892, 4940
2670, 3526, 3564, 4937, 4938
2671, 4515, 4873, 3926, 5109
2672, 899, 757, 991, 4428
2673, 3522, 4259, 5303, 5363
2674, 1888, 4260, 5302, 5362
2675, 3841, 5002, 4472, 5480
2676, 3065, 2041, 4151, 4434
2677, 2012, 2286, 4779, 4995
2678, 2698, 4136, 3344, 5075
2679, 4188, 4495, 4445, 5344
2680, 1946, 4182, 3517, 5137
2681, 4479, 5029, 3980, 5481
2682, 338, 4126, 1696, 4491
2683, 1971, 4127, 3329, 4492
2684, 1514, 1769, 321, 4091
2685, 2738, 4078, 4353, 4683
2686, 1550, 1235, 4136, 4482
2687, 2602, 4145, 2682, 5167
2688, 2537, 4353, 4075, 4683
2689, 749, 713, 748, 5076
2690, 3144, 4212, 2401, 5373
2691, 768, 1511, 4213, 5374
2692, 2770, 4130, 2773, 5414
2693, 2816, 2544, 4521, 5176
2694, 1963, 4135, 3689, 4480
2695, 3144, 2401, 4212, 5370
2696, 768, 4213, 1511, 5369
2697, 4017, 4318, 1039, 4878
2698, 4309, 4733, 4558, 4909
2699, 959, 1229, 1230, 4182
2700, 3861, 4352, 4115, 5086
2701, 3506, 3437, 4493, 5334
2702, 3612, 3647, 3591, 4271
2703, 3258, 3864, 4298, 4462
2704, 408, 4150, 3768, 4407
2705, 2041, 4151, 3767, 4406
2706, 3764, 2990, 4185, 4840
2707, 1422, 3936, 4133, 5419
2708, 3755, 4429, 4082, 4460
2709, 3789, 4449, 4283, 4913
2710, 3790, 4450, 4284, 4914
2711, 2863, 2592, 2862, 4183
2712, 3653, 4104, 3615, 4393
2713, 663, 4125, 1464, 4853
2714, 3929, 4595, 4237, 4664
2715, 3851, 4227, 4572, 4660
2716, 4225, 4545, 3854, 4662
2717, 1869, 1468, 1818, 4276
2718, 757, 991, 4120, 4927
2719, 846, 4138, 762, 5512
2720, 2744, 4094, 4368, 4441
2721, 1111, 4093, 4367, 4442
2722, 821, 3845, 4234, 4472
2723, 1512, 3784, 4240, 4479
2724, 1562, 4234, 3837, 4472
2725, 1082, 4240, 3934, 4479
2726, 944, 4449, 1191, 4457
2727, 3881, 4791, 4232, 5114
2728, 3970, 4977, 4477, 5164
2729, 1155, 5286, 3951, 5350
2730, 3950, 2788, 5285, 5349
2731, 2155, 3888, 4485, 5268
2732, 522, 3889, 4486, 5269
2733, 644, 645, 4121, 5164
2734, 1729, 346, 4271, 4805
2735, 3841, 4472, 4162, 5480
2736, 4173, 4479, 3980, 5481
2737, 3935, 4349, 4074, 4635
2738, 3491, 4041, 1757, 4320
2739, 1833, 4042, 3390, 4321
2740, 2451, 4950, 2449, 5185
2741, 1693, 4207, 1084, 4672
2742, 1631, 4929, 5177, 5380
2743, 4665, 5079, 4251, 5117
2744, 1497, 4066, 1848, 4940
2745, 3130, 4068, 3479, 4938
2746, 900, 5079, 1662, 5117
2747, 915, 951, 950, 5379
2748, 3586, 3352, 1948, 4215
2749, 4063, 4808, 4389, 5060
2750, 4062, 4807, 4390, 5059
2751, 4477, 4977, 3970, 5490
2752, 4164, 4883, 4701, 4893
2753, 2118, 2119, 2123, 5366
2754, 4172, 4977, 4477, 5490
2755, 2297, 2235, 2237, 4106
2756, 2404, 2297, 2298, 4106
2757, 3216, 3278, 4371, 5159
2758, 1583, 1645, 4370, 5158
2759, 4172, 3970, 4977, 5490
2760, 2024, 2025, 2023, 4347
2761, 393, 392, 391, 4346
2762, 2025, 2024, 2026, 4347
2763, 2703, 4069, 4820, 5396
2764, 4046, 4210, 3937, 5217
2765, 1672, 5065, 4373, 5315
2766, 2155, 5108, 3888, 5268
2767, 522, 5107, 3889, 5269
2768, 1680, 1185, 4199, 4909
2769, 1026, 4244, 1024, 5161
2770, 3516, 3532, 3443, 5457
2771, 1881, 1902, 1810, 5456
2772, 3620, 3597, 3650, 4401
2773, 3878, 4168, 2626, 5310
2774, 4112, 5038, 3497, 5120
2775, 3693, 3675, 1947, 4207
2776, 3100, 3456, 1946, 4182
2777, 1229, 1228, 4108, 4222
2778, 1162, 4190, 1123, 5330
2779, 2795, 4189, 2756, 5331
2780, 3463, 3544, 3754, 5059
2781, 1913, 3753, 1830, 5060
2782, 3608, 3613, 1979, 4143
2783, 2074, 2076, 2077, 4762
2784, 2861, 4109, 2862, 4221
2785, 3709, 1705, 352, 4265
2786, 4002, 4437, 4313, 4919
2787, 3439, 3086, 3422, 5165
2788, 1806, 1453, 1789, 5166
2789, 4046, 4210, 1086, 4994
2790, 2413, 2537, 2414, 4353
2791, 758, 1659, 996, 5079
2792, 3951, 5286, 4422, 5350
2793, 3950, 5285, 4423, 5349
2794, 3674, 352, 1359, 4265
2795, 3634, 4104, 3653, 5221
2796, 3827, 4691, 4232, 4791
2797, 4145, 4737, 4220, 5167
2798, 3673, 1705, 3709, 4265
2799, 2471, 4816, 3761, 4910
2800, 4211, 4358, 925, 4784
2801, 2124, 4637, 3793, 5366
2802, 3239, 2267, 4290, 4978
2803, 2828, 2636, 4334, 4978
2804, 841, 4020, 4255, 4786
2805, 2495, 2515, 2404, 5320
2806, 3975, 4616, 4247, 5116
2807, 438, 1282, 4198, 4983
2808, 1426, 4770, 4854, 4971
2809, 3554, 3477, 3487, 5132
2810, 1135, 4275, 333, 5218
2811, 2826, 2824, 2577, 4450
2812, 1193, 1191, 944, 4449
2813, 3875, 4601, 595, 5284
2814, 3098, 4272, 4057, 4912
2815, 1465, 4273, 4056, 4911
2816, 2538, 2843, 2854, 4003
2817, 4089, 5120, 3446, 5215
2818, 3932, 4207, 3961, 4602
2819, 4486, 4524, 524, 4863
2820, 3939, 5056, 562, 5091
2821, 3542, 4076, 3500, 4320
2822, 1868, 1922, 4077, 4321
2823, 3706, 3699, 3334, 4274
2824, 3706, 3334, 1984, 4274
2825, 559, 4689, 4148, 5063
2826, 2192, 4688, 4147, 5064
2827, 1401, 4192, 3902, 4842
2828, 3945, 4197, 3039, 4841
2829, 664, 602, 4167, 4716
2830, 4016, 4426, 4063, 4651
2831, 2221, 3199, 4171, 4727
2832, 1841, 1873, 1923, 5136
2833, 1328, 4459, 4110, 4709
2834, 4015, 4427, 4062, 4652
2835, 1147, 3958, 1710, 4369
2836, 842, 4255, 4906, 5484
2837, 4106, 4196, 3862, 5065
2838, 3291, 4473, 2808, 5461
2839, 1996, 3449, 3141, 4091
2840, 2581, 4193, 2948, 4345
2841, 3961, 4207, 3932, 4795
2842, 1292, 3876, 4883, 4894
2843, 3967, 4199, 2288, 5392
2844, 1324, 5150, 4459, 5447
2845, 3979, 4626, 4612, 4902
2846, 1615, 1613, 4117, 5107
2847, 3246, 4116, 3248, 5108
2848, 3069, 2433, 4936, 5068
2849, 1436, 800, 4935, 5067
2850, 3543, 3448, 3506, 5334
2851, 1355, 431, 432, 5087
2852, 1979, 2955, 3608, 4143
2853, 1146, 4103, 1703, 4264
2854, 4521, 5176, 4819, 5222
2855, 1971, 3327, 3329, 4127
2856, 338, 1694, 1696, 4126
2857, 3709, 352, 3674, 4265
2858, 4014, 4854, 4770, 4971
2859, 2938, 1982, 3617, 4271
2860, 3581, 2938, 3617, 4271
2861, 3794, 4191, 3114, 5453
2862, 4145, 4070, 5339, 5504
2863, 3972, 5175, 4199, 5392
2864, 2625, 4162, 2440, 4885
2865, 4191, 4498, 4375, 5081
2866, 4163, 4895, 4718, 5514
2867, 4720, 4899, 4170, 5518
2868, 4157, 4889, 4724, 5516
2869, 4158, 4888, 4725, 5515
2870, 3506, 4493, 4481, 5334
2871, 2609, 2883, 5031, 5071
2872, 2738, 4353, 2537, 4683
2873, 4193, 3769, 4934, 5095
2874, 3634, 4104, 5221, 5233
2875, 2310, 4515, 3926, 5109
2876, 420, 418, 4743, 4794
2877, 2970, 3834, 4309, 4826
2878, 3216, 4371, 4154, 5159
2879, 1583, 4370, 4153, 5158
2880, 3109, 4392, 4229, 5201
2881, 837, 4061, 4734, 4751
2882, 4207, 4602, 3932, 4956
2883, 674, 3912, 4714, 5312
2884, 2128, 4155, 3803, 4643
2885, 495, 4156, 3804, 4644
2886, 1836, 1861, 1860, 5410
2887, 3294, 4416, 4180, 5493
2888, 1661, 4415, 4179, 5494
2889, 3135, 3241, 3265, 5291
2890, 3824, 4583, 4232, 4691
2891, 572, 571, 4123, 5452
2892, 3129, 3836, 4158, 4829
2893, 3835, 4157, 1496, 4828
2894, 1566, 4726, 4172, 5490
2895, 679, 1513, 4327, 4498
2896, 2413, 4075, 2537, 4353
2897, 1634, 1471, 4161, 5256
2898, 2384, 2385, 4175, 5257
2899, 4389, 4396, 4080, 4808
2900, 4390, 4397, 4081, 4807
2901, 4455, 4618, 3947, 5267
2902, 4456, 4617, 3946, 5266
2903, 364, 4113, 3444, 4259
2904, 1997, 4114, 1843, 4260
2905, 1945, 4070, 3469, 4342
2906, 1030, 4177, 5226, 5402
2907, 4198, 4889, 3918, 5088
2908, 3764, 4512, 4072, 5092
2909, 3601, 1299, 3595, 4340
2910, 3601, 1298, 1299, 4340
2911, 2932, 3599, 2931, 4341
2912, 2581, 3236, 2948, 4193
2913, 2604, 2614, 2513, 4194
2914, 880, 971, 981, 4195
2915, 2224, 2288, 2967, 4199
2916, 2932, 3594, 3599, 4341
2917, 3794, 4399, 4379, 5238
2918, 1620, 1380, 1667, 4363
2919, 3300, 3253, 3013, 4364
2920, 4155, 4722, 983, 5228
2921, 4156, 4723, 2616, 5227
2922, 4014, 4668, 4642, 4770
2923, 3833, 4600, 4170, 4951
2924, 4472, 5002, 3841, 5403
2925, 4168, 4522, 3785, 4947
2926, 3829, 4158, 4586, 4942
2927, 3830, 4157, 4587, 4941
2928, 2234, 2233, 2294, 5290
2929, 3617, 1982, 3610, 4271
2930, 3980, 5029, 4479, 5404
2931, 428, 429, 4133, 5099
2932, 3834, 4616, 4634, 4826
2933, 1869, 1898, 4110, 4276
2934, 4016, 4757, 1919, 5060
2935, 3553, 4015, 4758, 5059
2936, 4162, 4472, 3841, 5403
2937, 3980, 4479, 4173, 5404
2938, 3078, 4822, 2109, 4859
2939, 1445, 4823, 476, 4858
2940, 1185, 4339, 4199, 4909
2941, 2586, 4214, 2884, 5416
2942, 1267, 4284, 1007, 4495
2943, 1982, 2918, 3610, 4271
2944, 3129, 4158, 3836, 4822
2945, 3835, 1496, 4157, 4823
2946, 3297, 2882, 4412, 5047
2947, 3935, 4735, 4074, 4738
2948, 1026, 3825, 4244, 5161
2949, 3050, 4285, 3189, 4984
2950, 1556, 1417, 4286, 4985
2951, 3711, 4136, 4482, 5075
2952, 4047, 4258, 3879, 5327
2953, 4311, 4741, 4414, 5003
2954, 4312, 4742, 4413, 5004
2955, 4174, 4478, 3905, 4925
2956, 3180, 4379, 2511, 4697
2957, 3180, 3217, 4375, 4697
2958, 2242, 2243, 2244, 4191
2959, 986, 3839, 987, 4336
2960, 1590, 3949, 1406, 4337
2961, 547, 5006, 532, 5103
2962, 2978, 4708, 4058, 5410
2963, 2257, 3204, 3987, 4338
2964, 3401, 4091, 3141, 5223
2965, 4048, 3814, 4881, 5068
2966, 1726, 4053, 1299, 4340
2967, 3359, 4054, 2932, 4341
2968, 1521, 3967, 1062, 4339
2969, 4164, 3876, 4883, 4893
2970, 1703, 4103, 1704, 4369
2971, 1576, 4074, 1589, 4846
2972, 4296, 4462, 3886, 5138
2973, 560, 4148, 559, 4689
2974, 2193, 4147, 2192, 4688
2975, 1979, 4143, 3613, 4419
2976, 3522, 3432, 3573, 5363
2977, 1888, 1799, 1939, 5362
2978, 2117, 2120, 4303, 4988
2979, 930, 4307, 1490, 4990
2980, 4227, 4660, 3847, 4885
2981, 3050, 3189, 3214, 4984
2982, 1556, 1581, 1417, 4985
2983, 4619, 4668, 4030, 4770
2984, 3352, 4215, 3605, 5509
2985, 2486, 4836, 2466, 5266
2986, 833, 853, 4837, 5267
2987, 4046, 4358, 4211, 4784
2988, 691, 694, 4311, 5003
2989, 2327, 4312, 2324, 5004
2990, 991, 4335, 4120, 5398
2991, 1936, 1889, 4355, 5151
2992, 3524, 4354, 3569, 5152
2993, 3444, 364, 1541, 4113
2994, 1843, 1997, 3174, 4114
2995, 2576, 2008, 2006, 4928
2996, 4239, 4333, 3968, 4782
2997, 1755, 1475, 356, 4818
2998, 4374, 4730, 4196, 5065
2999, 591, 592, 572, 4270
3000, 2828, 4334, 4257, 4978
3001, 4042, 4190, 2748, 4321
3002, 1115, 4041, 4189, 4320
3003, 2156, 4485, 4256, 5385
3004, 982, 983, 4722, 5228
3005, 2615, 2616, 4723, 5227
3006, 1122, 1753, 4042, 4343
3007, 3386, 4041, 2755, 4344
3008, 3989, 4620, 4625, 4775
3009, 3974, 4625, 4615, 4775
3010, 1208, 1583, 4153, 5158
3011, 3216, 4154, 2841, 5159
3012, 444, 4235, 3917, 4502
3013, 3001, 2458, 2359, 5022
3014, 3162, 4252, 3135, 5111
3015, 1669, 998, 4410, 5054
3016, 2268, 2217, 2269, 5169
3017, 1638, 4178, 1045, 4932
3018, 1426, 4014, 4770, 4971
3019, 361, 3567, 5038, 5120
3020, 4866, 5066, 3797, 5353
3021, 2012, 2010, 2286, 4995
3022, 4132, 5177, 4929, 5380
3023, 1105, 4220, 4096, 5294
3024, 2058, 3926, 4308, 5378
3025, 3132, 2136, 2128, 4996
3026, 503, 495, 1499, 4997
3027, 3066, 2095, 2090, 4999
3028, 2914, 2600, 3067, 5001
3029, 3115, 2441, 4664, 4986
3030, 3142, 2311, 2290, 5018
3031, 1509, 678, 657, 5017
3032, 887, 792, 886, 5010
3033, 2596, 2597, 2482, 5016
3034, 849, 963, 964, 5015
3035, 2576, 4648, 2008, 4928
3036, 691, 1300, 694, 5003
3037, 2327, 2324, 2933, 5004
3038, 4136, 4482, 3985, 4992
3039, 601, 661, 1569, 5025
3040, 438, 4198, 4337, 4983
3041, 1255, 5195, 3756, 5333
3042, 2578, 3121, 2506, 5030
3043, 2095, 4661, 2090, 4999
3044, 2914, 4662, 2600, 5001
3045, 1385, 4639, 723, 5024
3046, 659, 1385, 723, 5024
3047, 3513, 3558, 3474, 5303
3048, 1811, 1904, 1884, 5302
3049, 2292, 3018, 2356, 5023
3050, 2356, 3018, 4640, 5023
3051, 2578, 4624, 3121, 5030
3052, 3973, 4615, 2243, 5081
3053, 1059, 4764, 4130, 5379
3054, 818, 4348, 4196, 5065
3055, 3415, 3452, 4187, 4752
3056, 1819, 4186, 1782, 4753
3057, 3783, 3145, 4241, 5008
3058, 1512, 4240, 3784, 5009
3059, 1281, 3854, 4225, 5000
3060, 3865, 4223, 462, 4998
3061, 1235, 4771, 943, 4992
3062, 678, 4667, 657, 5017
3063, 2311, 4666, 2290, 5018
3064, 1769, 4209, 4091, 5297
3065, 1206, 4248, 3986, 5361
3066, 997, 3805, 4410, 4495
3067, 3099, 1840, 1986, 5060
3068, 1466, 3484, 353, 5059
3069, 2607, 2609, 2883, 5031
3070, 3309, 2522, 3312, 4185
3071, 3058, 3799, 4953, 5058
3072, 4019, 1041, 4335, 4428
3073, 1352, 1679, 1008, 5451
3074, 4455, 3947, 4837, 5267
3075, 4456, 3946, 4836, 5266
3076, 1030, 5226, 1028, 5402
3077, 4193, 4504, 4383, 5096
3078, 859, 858, 3840, 4348
3079, 3791, 4358, 4211, 4430
3080, 617, 4479, 615, 5481
3081, 2942, 4104, 2940, 4393
3082, 2739, 4673, 3422, 5165
3083, 1106, 4674, 1789, 5166
3084, 2748, 4190, 4042, 4441
3085, 1115, 4189, 4041, 4442
3086, 666, 4853, 3795, 5272
3087, 3794, 4379, 4327, 5238
3088, 3543, 3506, 4481, 5334
3089, 3583, 4139, 1309, 5388
3090, 3938, 4921, 4147, 4929
3091, 636, 4472, 5002, 5480
3092, 412, 4934, 1594, 5095
3093, 429, 4763, 4133, 5099
3094, 2395, 2394, 2479, 4948
3095, 1900, 4083, 1928, 5356
3096, 1980, 4265, 2936, 4979
3097, 2200, 4200, 4338, 5069
3098, 857, 3952, 4233, 5077
3099, 1297, 4929, 543, 5411
3100, 2678, 4715, 2679, 5258
3101, 928, 1441, 4431, 4500
3102, 1504, 4218, 3903, 5043
3103, 2847, 4097, 3403, 4952
3104, 2948, 3769, 4345, 5096
3105, 1872, 1804, 4451, 5333
3106, 617, 5029, 4479, 5481
3107, 636, 5002, 584, 5480
3108, 1521, 3967, 4339, 4909
3109, 3753, 4389, 4080, 4808
3110, 3754, 4390, 4081, 4807
3111, 558, 1567, 4171, 5488
3112, 2828, 4257, 4334, 4773
3113, 3791, 4305, 425, 4358
3114, 2987, 4144, 4091, 5223
3115, 2117, 3087, 2120, 4988
3116, 3123, 3038, 2563, 4989
3117, 3115, 2439, 2441, 4986
3118, 2648, 3322, 3958, 4277
3119, 2524, 2523, 3911, 4277
3120, 1700, 5161, 4135, 5292
3121, 1980, 3341, 4265, 4968
3122, 1235, 943, 1550, 4992
3123, 4056, 4911, 4094, 5093
3124, 4057, 4912, 4093, 5094
3125, 4094, 4911, 4056, 5345
3126, 4093, 4912, 4057, 5346
3127, 929, 860, 936, 4361
3128, 2562, 2493, 2569, 4362
3129, 1174, 936, 1176, 4360
3130, 999, 5013, 998, 5054
3131, 636, 4472, 584, 5002
3132, 3991, 4331, 4312, 4413
3133, 3990, 4332, 4311, 4414
3134, 3794, 4375, 4191, 4498
3135, 3439, 4077, 3422, 4710
3136, 1789, 1806, 4076, 4711
3137, 4425, 4933, 2345, 5260
3138, 679, 4327, 3794, 4498
3139, 3840, 859, 4348, 4730
3140, 1355, 4146, 4280, 5464
3141, 4477, 5164, 589, 5490
3142, 2723, 4262, 3820, 5393
3143, 3889, 5107, 1350, 5247
3144, 2983, 3888, 5108, 5246
3145, 1374, 4092, 4786, 4959
3146, 3949, 1406, 4337, 4983
3147, 1770, 1214, 4089, 4961
3148, 2278, 4712, 4122, 4865
3149, 1140, 5184, 5133, 5252
3150, 4159, 4943, 1290, 5101
3151, 4160, 4944, 2923, 5100
3152, 1419, 4229, 3956, 5174
3153, 924, 4004, 1548, 4331
3154, 2557, 4005, 3181, 4332
3155, 4215, 4676, 4031, 5039
3156, 3972, 4132, 4084, 4870
3157, 750, 673, 4714, 5041
3158, 3987, 2257, 4338, 5069
3159, 1007, 3805, 997, 4495
3160, 1600, 4159, 1290, 5101
3161, 3233, 4160, 2923, 5100
3162, 4149, 3797, 5066, 5353
3163, 2581, 3768, 4193, 4345
3164, 3586, 3605, 3352, 4215
3165, 3821, 4394, 4284, 4495
3166, 3162, 3969, 4252, 5111
3167, 3549, 3448, 4128, 4752
3168, 3902, 4501, 2079, 5322
3169, 446, 3903, 4500, 5321
3170, 413, 4504, 3903, 5321
3171, 2046, 4499, 3902, 5322
3172, 617, 620, 5029, 5481
3173, 2888, 5194, 3757, 5334
3174, 2665, 2668, 3098, 4272
3175, 1465, 1032, 1035, 4273
3176, 991, 1635, 4335, 5398
3177, 2752, 4070, 4145, 5386
3178, 588, 4477, 589, 5490
3179, 3087, 4388, 3901, 4988
3180, 1475, 3755, 356, 4818
3181, 3859, 4489, 2393, 5248
3182, 3860, 4488, 760, 5249
3183, 1272, 631, 1273, 4941
3184, 2905, 2264, 2906, 4942
3185, 2429, 2145, 2209, 4945
3186, 576, 796, 512, 4946
3187, 1294, 4105, 3591, 4872
3188, 2720, 3913, 2147, 5034
3189, 1087, 3914, 514, 5033
3190, 588, 1566, 4477, 5490
3191, 792, 3796, 4495, 5010
3192, 4410, 5013, 4301, 5054
3193, 781, 4366, 4055, 4440
3194, 617, 620, 4479, 5029
3195, 631, 4560, 1273, 4941
3196, 2264, 4559, 2906, 4942
3197, 2429, 2209, 4530, 4945
3198, 576, 4529, 796, 4946
3199, 3135, 4252, 4131, 5111
3200, 2958, 2961, 2962, 4772
3201, 2677, 2679, 4715, 4975
3202, 2255, 4471, 4376, 4478
3203, 2267, 3815, 4290, 4896
3204, 1815, 4129, 1917, 4753
3205, 2383, 2386, 2306, 5040
3206, 750, 753, 673, 5041
3207, 380, 378, 379, 4951
3208, 1989, 2757, 3393, 4111
3209, 4144, 4684, 4091, 4818
3210, 1165, 4063, 869, 4389
3211, 2798, 4062, 2502, 4390
3212, 380, 379, 4632, 4951
3213, 1028, 5226, 4728, 5402
3214, 3576, 4100, 3639, 4800
3215, 3058, 3799, 4375, 4953
3216, 3575, 4099, 3638, 4801
3217, 2713, 4173, 3191, 5027
3218, 1669, 3800, 4410, 4897
3219, 1061, 1063, 4069, 4391
3220, 4196, 5047, 3840, 5274
3221, 4055, 4366, 3978, 4440
3222, 3006, 3798, 4301, 5309
3223, 4132, 4929, 3972, 5380
3224, 3888, 4965, 4287, 5246
3225, 3889, 4966, 4288, 5247
3226, 4451, 4496, 1872, 5333
3227, 938, 3859, 4299, 5055
3228, 1547, 4233, 3795, 4853
3229, 3793, 4233, 669, 4853
3230, 1600, 1642, 1290, 4159
3231, 3233, 3275, 2923, 4160
3232, 1279, 1427, 1275, 4157
3233, 2912, 3060, 2908, 4158
3234, 1634, 1471, 1629, 4161
3235, 3314, 3319, 2728, 4168
3236, 2218, 2722, 2343, 4172
3237, 754, 751, 752, 4174
3238, 2387, 2384, 2385, 4175
3239, 653, 1697, 1498, 4170
3240, 3104, 2440, 2625, 4162
3241, 3250, 3269, 2924, 4164
3242, 1636, 1291, 1617, 4163
3243, 1638, 979, 1045, 4178
3244, 1477, 4125, 663, 4608
3245, 2713, 3209, 3191, 4173
3246, 419, 420, 418, 4743
3247, 1049, 4817, 4078, 5324
3248, 3025, 2320, 2322, 4955
3249, 1876, 1816, 1906, 5265
3250, 2571, 3860, 4300, 5057
3251, 3857, 4889, 4762, 5088
3252, 2320, 4597, 2322, 4955
3253, 4130, 4764, 1059, 4854
3254, 4257, 4773, 2828, 4978
3255, 3875, 4601, 3890, 4890
3256, 2942, 2940, 1955, 4393
3257, 784, 4733, 839, 4909
3258, 2389, 2387, 2388, 5044
3259, 756, 754, 755, 5045
3260, 930, 1490, 4983, 4990
3261, 1313, 1720, 5039, 5179
3262, 1936, 4355, 4186, 5151
3263, 3569, 4354, 4187, 5152
3264, 3697, 5196, 2916, 5304
3265, 3944, 4230, 2144, 5188
3266, 511, 3943, 4231, 5187
3267, 4621, 4626, 3988, 4902
3268, 2683, 2603, 2682, 4220
3269, 4728, 5226, 4177, 5402
3270, 4154, 3909, 4371, 5354
3271, 4153, 3910, 4370, 5355
3272, 4156, 4371, 3909, 5354
3273, 4155, 4370, 3910, 5355
3274, 1050, 4993, 4817, 5324
3275, 1441, 1157, 927, 4218
3276, 3455, 4071, 1991, 4278
3277, 3969, 4131, 5245, 5307
3278, 4097, 4451, 1929, 5306
3279, 2808, 4166, 4592, 4891
3280, 4173, 4608, 615, 4902
3281, 4197, 4841, 3917, 4989
3282, 1343, 1341, 3755, 4429
3283, 2268, 4569, 2217, 5169
3284, 4083, 5133, 5184, 5252
3285, 4290, 4896, 4433, 4978
3286, 2959, 4437, 4002, 4867
3287, 1639, 4150, 3814, 5367
3288, 3603, 1215, 3576, 4800
3289, 3611, 2848, 3575, 4801
3290, 4029, 4879, 4143, 5131
3291, 2432, 4530, 2430, 4936
3292, 799, 4529, 797, 4935
3293, 685, 1252, 4168, 5082
3294, 557, 560, 1609, 4350
3295, 2190, 2193, 3242, 4351
3296, 2496, 3840, 5047, 5274
3297, 1230, 1395, 4222, 5219
3298, 2408, 4188, 2409, 4832
3299, 2863, 3028, 4221, 5220
3300, 3891, 1351, 4239, 5173
3301, 443, 4235, 3858, 4888
3302, 459, 4224, 3865, 4892
3303, 425, 4358, 4305, 5099
3304, 323, 1703, 1704, 4369
3305, 562, 4689, 3939, 5091
3306, 3946, 4617, 2466, 4836
3307, 833, 3947, 4618, 4837
3308, 1202, 925, 677, 4358
3309, 4115, 4352, 772, 5050
3310, 4463, 4815, 3146, 5417
3311, 3463, 3515, 3544, 5059
3312, 1913, 1830, 1883, 5060
3313, 3298, 4283, 3293, 5048
3314, 1629, 3831, 4161, 5224
3315, 1992, 3389, 2991, 4141
3316, 1756, 1358, 359, 4142
3317, 4175, 4926, 4695, 5044
3318, 4174, 4925, 4694, 5045
3319, 1766, 1806, 1501, 4076
3320, 3134, 3399, 3439, 4077
3321, 2004, 3998, 4316, 4395
3322, 636, 5230, 4472, 5480
3323, 3938, 4746, 4921, 4929
3324, 1718, 4811, 4800, 5390
3325, 1932, 1896, 1817, 4709
3326, 4050, 3946, 4922, 5373
3327, 4051, 3947, 4923, 5374
3328, 984, 772, 4352, 5050
3329, 3974, 4191, 3973, 4905
3330, 2591, 2861, 4221, 4974
3331, 3391, 2709, 2692, 4083
3332, 727, 4733, 784, 4909
3333, 1254, 4201, 1253, 5082
3334, 1315, 3769, 416, 4279
3335, 1639, 3814, 1189, 4279
3336, 434, 432, 3940, 4280
3337, 3814, 4345, 5364, 5367
3338, 434, 435, 4280, 5074
3339, 498, 534, 4498, 5264
3340, 3918, 4587, 4157, 4990
3341, 3917, 4586, 4158, 4989
3342, 4196, 4374, 3813, 4730
3343, 3681, 1974, 3714, 4316
3344, 4083, 4183, 4109, 5133
3345, 1313, 1720, 1743, 5039
3346, 3130, 3404, 1957, 4068
3347, 324, 1497, 1771, 4066
3348, 4100, 4186, 4088, 5126
3349, 4020, 4621, 4638, 4786
3350, 1145, 4135, 1700, 5161
3351, 4030, 4638, 4619, 4786
3352, 4139, 4497, 4031, 5035
3353, 4099, 4187, 4087, 5127
3354, 2413, 4075, 4250, 4790
3355, 3335, 4274, 4102, 5254
3356, 1228, 4222, 958, 4971
3357, 2974, 4708, 4038, 4709
3358, 3634, 5221, 1346, 5233
3359, 339, 1215, 3603, 4800
3360, 1972, 2848, 3611, 4801
3361, 1447, 4036, 312, 5155
3362, 1720, 1743, 5039, 5179
3363, 3975, 4634, 4616, 4790
3364, 1175, 4474, 4593, 5139
3365, 2778, 3333, 4436, 5513
3366, 1608, 4219, 5381, 5398
3367, 3911, 1018, 4226, 5089
3368, 905, 4220, 4055, 4366
3369, 2773, 4130, 2770, 4681
3370, 3297, 3873, 4412, 4724
3371, 3456, 3550, 3517, 4182
3372, 3157, 5035, 3354, 5183
3373, 3233, 3883, 4160, 5100
3374, 1600, 3882, 4159, 5101
3375, 4265, 4400, 3674, 4968
3376, 3936, 4745, 4609, 5087
3377, 2223, 4199, 5175, 5392
3378, 2625, 4162, 4885, 5403
3379, 644, 645, 714, 4864
3380, 1347, 1348, 527, 4863
3381, 4166, 4891, 2808, 5461
3382, 4373, 5065, 3862, 5315
3383, 3839, 4875, 2492, 5185
3384, 2899, 4332, 3273, 4509
3385, 1640, 1266, 4331, 4508
3386, 1245, 4360, 4774, 5452
3387, 1056, 4343, 1122, 5093
3388, 2689, 4344, 2755, 5094
3389, 4173, 4902, 615, 5481
3390, 3903, 4383, 4193, 4504
3391, 1912, 1815, 1872, 5333
3392, 3671, 3695, 3735, 4369
3393, 2591, 4974, 4221, 5505
3394, 1907, 4111, 1846, 5129
3395, 896, 762, 846, 4505
3396, 4177, 4273, 3954, 4980
3397, 946, 5005, 5082, 5517
3398, 2395, 2479, 2529, 4506
3399, 1767, 3518, 3476, 4182
3400, 4125, 4310, 3979, 4796
3401, 424, 425, 4305, 5099
3402, 1085, 4994, 4210, 5050
3403, 958, 4971, 4222, 5506
3404, 3233, 4160, 3883, 4810
3405, 1600, 4159, 3882, 4809
3406, 4006, 4143, 4879, 4975
3407, 374, 907, 372, 5360
3408, 2007, 2540, 2005, 5359
3409, 3575, 4099, 2848, 4354
3410, 3576, 4100, 1215, 4355
3411, 2389, 2388, 4695, 5044
3412, 756, 755, 4694, 5045
3413, 3767, 4935, 4151, 5180
3414, 2218, 4172, 2343, 4977
3415, 437, 4235, 4502, 5074
3416, 4050, 4768, 4212, 4922
3417, 4051, 4769, 4213, 4923
3418, 533, 4257, 1479, 4322
3419, 533, 681, 4257, 4322
3420, 4145, 4813, 3992, 5167
3421, 4084, 4870, 4132, 5177
3422, 1422, 4609, 433, 5087
3423, 4039, 4272, 2666, 5401
3424, 4040, 4273, 1033, 5402
3425, 364, 4113, 4259, 5148
3426, 4114, 4260, 1997, 5149
3427, 1705, 1147, 1710, 4369
3428, 2408, 2275, 2409, 4188
3429, 1475, 4091, 1514, 4684
3430, 3815, 4433, 4290, 4896
3431, 4147, 4929, 4921, 5411
3432, 1639, 3814, 4279, 5367
3433, 2027, 4117, 2787, 5349
3434, 394, 4116, 1154, 5350
3435, 3801, 4205, 3276, 5128
3436, 3073, 3285, 3789, 4283
3437, 1652, 3790, 1440, 4284
3438, 3298, 3806, 2640, 4283
3439, 2178, 3774, 2151, 4285
3440, 545, 3775, 518, 4286
3441, 3189, 3136, 3895, 4285
3442, 1556, 1503, 3894, 4286
3443, 398, 3921, 461, 4287
3444, 2031, 3922, 2094, 4288
3445, 394, 3888, 395, 4287
3446, 2028, 2027, 3889, 4288
3447, 2102, 3863, 2101, 4295
3448, 468, 469, 3864, 4296
3449, 1517, 1609, 3897, 4297
3450, 3242, 3896, 3150, 4298
3451, 667, 795, 3793, 4293
3452, 938, 3859, 1296, 4299
3453, 2571, 3860, 2929, 4300
3454, 2132, 3795, 2126, 4310
3455, 2273, 2275, 3796, 4302
3456, 3035, 2267, 3815, 4290
3457, 3006, 3798, 2164, 4301
3458, 2116, 3880, 2115, 4303
3459, 423, 425, 3791, 4305
3460, 1269, 3883, 553, 4297
3461, 2902, 3882, 2186, 4298
3462, 2120, 3787, 2119, 4303
3463, 487, 3788, 486, 4304
3464, 2827, 3805, 2577, 4302
3465, 1268, 3868, 1437, 4299
3466, 2901, 3867, 3070, 4300
3467, 1490, 817, 3873, 4307
3468, 863, 3839, 986, 4306
3469, 1477, 3934, 1082, 4293
3470, 2715, 3110, 3935, 4294
3471, 3127, 3780, 2056, 4308
3472, 2558, 3956, 3168, 4308
3473, 2970, 3834, 2968, 4309
3474, 3124, 3979, 2177, 4310
3475, 810, 4828, 4166, 4869
3476, 2443, 4829, 4165, 4868
3477, 725, 3990, 696, 4311
3478, 2358, 3991, 2329, 4312
3479, 2326, 3766, 2324, 4312
3480, 693, 3765, 691, 4311
3481, 1337, 3761, 1338, 4313
3482, 2941, 4271, 4025, 5098
3483, 2144, 4230, 3944, 4886
3484, 511, 4231, 3943, 4887
3485, 1562, 3837, 4234, 4884
3486, 345, 4754, 4274, 4969
3487, 3986, 4248, 1206, 4905
3488, 1749, 3463, 3754, 5059
3489, 1830, 3753, 3382, 5060
3490, 2817, 4007, 2545, 4314
3491, 1184, 4008, 912, 4315
3492, 1262, 3938, 1678, 4315
3493, 2895, 3939, 3311, 4314
3494, 477, 3893, 4224, 4982
3495, 1601, 4224, 3892, 4982
3496, 3793, 669, 4233, 5077
3497, 644, 714, 4707, 4864
3498, 526, 529, 528, 5170
3499, 1254, 1347, 1253, 4201
3500, 821, 4234, 747, 4472
3501, 1512, 4240, 630, 4479
3502, 630, 4240, 1082, 4479
3503, 747, 4234, 1562, 4472
3504, 1011, 4236, 3932, 4956
3505, 2568, 3821, 4394, 4914
3506, 1436, 989, 4151, 4935
3507, 2622, 4150, 3069, 4936
3508, 3879, 4229, 483, 5174
3509, 3936, 4133, 4745, 5087
3510, 3610, 3644, 4105, 5143
3511, 928, 4431, 3901, 4500
3512, 3881, 4232, 2885, 5070
3513, 2195, 4688, 4746, 4921
3514, 2513, 4291, 3768, 4936
3515, 880, 4292, 3767, 4935
3516, 2604, 2614, 4194, 5135
3517, 3894, 5021, 2033, 5521
3518, 3895, 5020, 400, 5522
3519, 4179, 4331, 4004, 4415
3520, 4180, 4332, 4005, 4416
3521, 444, 3917, 4235, 4888
3522, 3892, 4224, 1601, 4892
3523, 3894, 4408, 2034, 4590
3524, 3895, 4409, 401, 4591
3525, 590, 4270, 572, 5083
3526, 916, 4002, 4313, 4919
3527, 3812, 4973, 4200, 5025
3528, 4109, 4221, 2861, 4974
3529, 3956, 4229, 1419, 4814
3530, 1228, 4108, 4222, 4971
3531, 1069, 1756, 1164, 3753
3532, 3389, 2797, 2702, 3754
3533, 1245, 4774, 770, 5452
3534, 653, 4170, 1498, 4951
3535, 1642, 1290, 4159, 4943
3536, 3275, 2923, 4160, 4944
3537, 1427, 1275, 4157, 4941
3538, 3060, 2908, 4158, 4942
3539, 2015, 3765, 4414, 4633
3540, 382, 3766, 4413, 4632
3541, 2335, 3298, 3293, 5048
3542, 2833, 4675, 3224, 5069
3543, 875, 989, 4935, 5180
3544, 571, 5056, 4123, 5452
3545, 744, 4228, 3899, 4719
3546, 571, 590, 572, 5083
3547, 1542, 5230, 636, 5480
3548, 3276, 4205, 5051, 5253
3549, 1908, 1869, 4110, 4709
3550, 3937, 4210, 4046, 5420
3551, 2134, 4204, 2373, 4840
3552, 591, 4185, 4270, 5284
3553, 3286, 4242, 3758, 5019
3554, 605, 3809, 603, 4835
3555, 1663, 4306, 986, 5412
3556, 2430, 4291, 3884, 5342
3557, 797, 4292, 3885, 5343
3558, 2362, 2345, 4933, 5260
3559, 4141, 4455, 2554, 5317
3560, 4142, 4456, 921, 5316
3561, 2724, 4262, 4049, 4749
3562, 2508, 2513, 3768, 4936
3563, 880, 3767, 875, 4935
3564, 3810, 4205, 4334, 5170
3565, 2115, 4303, 3880, 4388
3566, 2349, 4250, 3975, 4790
3567, 1547, 3795, 4233, 4588
3568, 456, 4223, 3866, 4555
3569, 3855, 450, 4225, 4546
3570, 477, 4224, 3893, 4571
3571, 3929, 4228, 894, 4573
3572, 3845, 821, 4234, 4602
3573, 2885, 4232, 3881, 4589
3574, 3850, 4226, 699, 4580
3575, 3847, 742, 4227, 4579
3576, 1009, 4238, 3961, 4602
3577, 3968, 4239, 1676, 4558
3578, 1604, 3832, 4244, 4613
3579, 3817, 4246, 638, 4533
3580, 3816, 4245, 2271, 4534
3581, 3910, 4194, 4908, 5156
3582, 3909, 4195, 4907, 5157
3583, 1010, 3851, 4227, 4792
3584, 4178, 5098, 4012, 5525
3585, 3236, 2948, 4193, 5096
3586, 971, 981, 4195, 5097
3587, 3814, 4150, 4345, 5367
3588, 2242, 2243, 4191, 5081
3589, 1355, 431, 4146, 5464
3590, 916, 4002, 779, 4313
3591, 3366, 3157, 3354, 5183
3592, 4032, 4679, 4678, 4843
3593, 1403, 4207, 3694, 4400
3594, 3036, 4838, 2717, 4968
3595, 2995, 2451, 2492, 4875
3596, 3814, 5364, 4279, 5367
3597, 4138, 4219, 3762, 4933
3598, 812, 4243, 4654, 5348
3599, 2445, 4242, 4653, 5347
3600, 2373, 4840, 4204, 4868
3601, 3886, 4362, 2570, 4462
3602, 1371, 4629, 628, 4971
3603, 3973, 4191, 3974, 4615
3604, 1006, 4730, 934, 4740
3605, 4059, 4871, 2543, 4931
3606, 3915, 4654, 4243, 5348
3607, 3916, 4653, 4242, 5347
3608, 3761, 4313, 1337, 5251
3609, 812, 4654, 3915, 5348
3610, 2445, 4653, 3916, 5347
3611, 4821, 5091, 4072, 5508
3612, 846, 4505, 3756, 5195
3613, 2806, 2501, 4364, 4444
3614, 1173, 868, 4363, 4443
3615, 4098, 4761, 4206, 4957
3616, 2479, 4506, 3757, 5194
3617, 356, 1343, 3755, 4460
3618, 1371, 628, 717, 4971
3619, 1608, 5381, 897, 5398
3620, 1024, 5161, 4244, 5313
3621, 4683, 4824, 4790, 5409
3622, 3594, 2932, 3600, 4319
3623, 3865, 4224, 4223, 4661
3624, 4223, 4225, 3854, 4662
3625, 4228, 4237, 3899, 4664
3626, 4227, 4228, 3847, 4660
3627, 3851, 4228, 4227, 4660
3628, 3932, 4236, 4234, 4663
3629, 4234, 4236, 3838, 4663
3630, 4223, 4224, 3866, 4661
3631, 3929, 4237, 4228, 4664
3632, 3855, 4225, 4223, 4662
3633, 4103, 4519, 3318, 5304
3634, 4060, 4877, 910, 4930
3635, 543, 3938, 4917, 4929
3636, 1025, 5161, 1700, 5292
3637, 3861, 4306, 771, 5340
3638, 3653, 3615, 3621, 4393
3639, 3981, 4624, 4906, 5030
3640, 2065, 4745, 5255, 5371
3641, 712, 4424, 5076, 5271
3642, 4279, 5364, 4345, 5367
3643, 3541, 4089, 3446, 5215
3644, 3314, 3785, 4522, 4947
3645, 4221, 4974, 3993, 5505
3646, 4490, 5098, 4178, 5525
3647, 667, 4293, 3793, 4853
3648, 2843, 4107, 4387, 4438
3649, 3022, 3003, 3408, 5060
3650, 1775, 1389, 1370, 5059
3651, 1110, 1115, 4189, 4320
3652, 2748, 4190, 2743, 4321
3653, 3616, 3615, 4104, 4269
3654, 2707, 2844, 4036, 4438
3655, 4222, 4971, 3999, 5506
3656, 667, 1464, 4293, 4853
3657, 2659, 2658, 3826, 4436
3658, 4289, 4815, 4463, 5417
3659, 1960, 3600, 2932, 4319
3660, 1161, 4336, 1286, 4502
3661, 2207, 4338, 2200, 4503
3662, 1546, 4225, 3858, 4378
3663, 3858, 4235, 443, 4378
3664, 3857, 4225, 1434, 4378
3665, 439, 4235, 3898, 4378
3666, 2396, 4245, 3977, 4385
3667, 763, 4246, 3976, 4386
3668, 3128, 3776, 4245, 4385
3669, 3777, 4246, 1495, 4386
3670, 4030, 4130, 4092, 4786
3671, 918, 1386, 4107, 4874
3672, 3004, 4628, 2261, 4974
3673, 3795, 4310, 4125, 4637
3674, 3081, 4079, 3507, 4964
3675, 3824, 4256, 2159, 4301
3676, 4197, 4989, 3917, 5412
3677, 1991, 3455, 3079, 5386
3678, 3339, 5200, 2525, 5485
3679, 317, 4038, 1896, 4398
3680, 1498, 4600, 3833, 4951
3681, 2561, 3074, 4411, 4501
3682, 3829, 4586, 2908, 4942
3683, 3830, 4587, 1275, 4941
3684, 3513, 3474, 1976, 5303
3685, 2346, 2381, 2382, 4933
3686, 4365, 4919, 4096, 4954
3687, 3834, 4309, 4826, 4862
3688, 4227, 4885, 3856, 5070
3689, 2820, 4048, 4262, 4914
3690, 3348, 1890, 1875, 4186
3691, 1529, 3970, 4219, 4927
3692, 4092, 4130, 4030, 5243
3693, 3606, 315, 4215, 4420
3694, 4125, 4293, 3934, 4608
3695, 3960, 4265, 1360, 5242
3696, 808, 4323, 806, 4700
3697, 3024, 4324, 3030, 4701
3698, 808, 892, 4328, 4700
3699, 3024, 2514, 4324, 4702
3700, 416, 4279, 3769, 5367
3701, 313, 5133, 4183, 5526
3702, 1832, 1467, 4183, 5526
3703, 3589, 3634, 3653, 5221
3704, 3004, 2261, 2350, 4974
3705, 411, 413, 446, 5321
3706, 2079, 2044, 2046, 5322
3707, 2610, 4879, 4251, 5071
3708, 2306, 3103, 4478, 4925
3709, 2697, 4217, 3246, 5108
3710, 1064, 4216, 1613, 5107
3711, 1992, 2991, 3130, 4141
3712, 1497, 359, 1358, 4142
3713, 1452, 4908, 1461, 5156
3714, 3085, 4907, 3094, 5157
3715, 2530, 3241, 2395, 5368
3716, 2120, 3787, 4303, 4988
3717, 3873, 1490, 4307, 4990
3718, 2707, 2844, 3393, 4036
3719, 1950, 3755, 3450, 4684
3720, 3416, 2803, 3477, 5132
3721, 3759, 4251, 4726, 5117
3722, 1990, 1860, 4038, 5410
3723, 1252, 4698, 4168, 5082
3724, 792, 3796, 775, 4495
3725, 3391, 3010, 1968, 4083
3726, 2932, 4054, 3360, 4319
3727, 1615, 4117, 1613, 5033
3728, 3248, 4116, 3246, 5034
3729, 2525, 5200, 4646, 5485
3730, 839, 4391, 3967, 4733
3731, 3610, 4105, 3647, 4271
3732, 554, 4465, 4160, 5497
3733, 2187, 4464, 4159, 5496
3734, 4193, 4345, 3769, 5096
3735, 2006, 3998, 4177, 5162
3736, 4472, 5230, 4162, 5480
3737, 4096, 4366, 1553, 4919
3738, 3189, 4285, 3895, 4984
3739, 1556, 4286, 3894, 4985
3740, 2622, 4345, 4150, 4936
3741, 4010, 4490, 4178, 5019
3742, 3913, 4886, 2147, 5034
3743, 3914, 4887, 514, 5033
3744, 1713, 4187, 4099, 5235
3745, 3346, 4186, 4100, 5236
3746, 3274, 4646, 4162, 4830
3747, 3161, 4230, 3777, 4532
3748, 1528, 4231, 3776, 4531
3749, 3827, 4232, 3173, 4589
3750, 888, 4239, 3818, 4558
3751, 1546, 3858, 4225, 4546
3752, 453, 3855, 4223, 4555
3753, 3866, 4224, 458, 4571
3754, 1394, 4228, 3851, 4573
3755, 822, 3932, 4234, 4602
3756, 878, 4233, 3872, 4588
3757, 3128, 4245, 3776, 4534
3758, 1495, 4246, 3777, 4533
3759, 1175, 1658, 4474, 5139
3760, 2796, 4444, 2805, 5325
3761, 1172, 1163, 4443, 5326
3762, 3191, 5027, 4173, 5404
3763, 3530, 3455, 4071, 4699
3764, 1758, 1377, 335, 4079
3765, 4215, 4677, 4009, 5039
3766, 3766, 2324, 4312, 5004
3767, 691, 4311, 3765, 5003
3768, 4092, 4030, 4786, 5243
3769, 2549, 4683, 4790, 5409
3770, 3921, 5034, 4422, 5246
3771, 3922, 5033, 4423, 5247
3772, 2638, 3919, 4165, 5314
3773, 4201, 4845, 1071, 5269
3774, 4202, 4844, 2704, 5268
3775, 918, 1386, 919, 4107
3776, 4461, 4562, 3863, 4859
3777, 4462, 4563, 3864, 4858
3778, 2278, 2347, 4712, 4865
3779, 1624, 3949, 4307, 4983
3780, 3761, 1338, 4313, 4429
3781, 4031, 4677, 4215, 5039
3782, 1389, 4652, 1370, 5059
3783, 3711, 4482, 3732, 5075
3784, 3022, 4651, 3003, 5060
3785, 1324, 4459, 1329, 5447
3786, 1025, 3825, 5161, 5292
3787, 1403, 3694, 314, 4400
3788, 4090, 4765, 4208, 4948
3789, 3940, 5255, 4745, 5371
3790, 3938, 1678, 4315, 5341
3791, 1861, 4398, 4038, 5410
3792, 987, 4336, 3839, 5217
3793, 356, 3472, 1777, 4460
3794, 1912, 1872, 4496, 5333
3795, 3298, 3806, 4283, 5048
3796, 4044, 4457, 4445, 4832
3797, 4278, 4847, 2768, 5414
3798, 3373, 4105, 4271, 5098
3799, 842, 920, 4255, 5484
3800, 2430, 3047, 4291, 5342
3801, 1414, 4292, 797, 5343
3802, 3477, 2803, 3487, 5132
3803, 1515, 4106, 1672, 5065
3804, 1449, 3457, 334, 5294
3805, 3168, 4308, 3956, 4392
3806, 2725, 4242, 4010, 4653
3807, 4327, 4697, 3813, 4740
3808, 1030, 4273, 4177, 5402
3809, 2400, 3997, 2399, 4281
3810, 767, 3996, 766, 4282
3811, 3610, 2918, 3579, 5143
3812, 1632, 3965, 1043, 4335
3813, 480, 4258, 4047, 4876
3814, 4173, 4796, 3042, 4827
3815, 3772, 4845, 4201, 5269
3816, 3773, 4844, 4202, 5268
3817, 3006, 4302, 3798, 5309
3818, 361, 5038, 4112, 5120
3819, 2295, 4616, 3975, 5116
3820, 993, 4227, 3881, 4792
3821, 749, 823, 4137, 5307
3822, 4167, 4503, 2309, 5225
3823, 2376, 2378, 4381, 4706
3824, 1640, 573, 3924, 4331
3825, 2206, 3923, 3273, 4332
3826, 3104, 4162, 2625, 5403
3827, 1145, 5134, 4135, 5161
3828, 3209, 3191, 4173, 5404
3829, 1640, 4331, 3924, 4508
3830, 3923, 3273, 4332, 4509
3831, 3549, 3504, 3448, 4752
3832, 2942, 4104, 4269, 5500
3833, 3671, 4103, 3722, 4264
3834, 3334, 4102, 3699, 5513
3835, 2997, 2999, 2998, 4142
3836, 1364, 1366, 1365, 4141
3837, 4521, 4819, 4007, 5222
3838, 4191, 4905, 3974, 5264
3839, 1085, 5050, 4210, 5281
3840, 2918, 1962, 3579, 5143
3841, 3834, 4826, 4733, 4862
3842, 3400, 1842, 1863, 4183
3843, 2524, 4277, 3911, 5205
3844, 4095, 4767, 1182, 5265
3845, 3774, 4285, 2178, 4450
3846, 545, 3775, 4286, 4449
3847, 863, 3839, 4306, 5281
3848, 1715, 3525, 4187, 5152
3849, 3348, 1890, 4186, 5151
3850, 1432, 408, 4150, 5367
3851, 2795, 2691, 2756, 4189
3852, 1123, 1162, 1058, 4190
3853, 818, 4348, 859, 4730
3854, 4008, 4315, 1184, 5341
3855, 706, 4254, 3817, 4629
3856, 2339, 4253, 3816, 4628
3857, 950, 4770, 4030, 4786
3858, 680, 4257, 3878, 4698
3859, 4251, 4879, 4011, 5071
3860, 3810, 4334, 4257, 5170
3861, 1870, 1815, 1917, 4753
3862, 4075, 4790, 4683, 4824
3863, 3964, 4261, 829, 5507
3864, 3858, 4586, 4235, 4849
3865, 3474, 4113, 3558, 4418
3866, 1904, 1884, 4114, 4417
3867, 3857, 4545, 4225, 4848
3868, 1758, 1229, 1076, 4108
3869, 2610, 4011, 4879, 5071
3870, 2577, 4302, 3805, 4394
3871, 2107, 3078, 2109, 4859
3872, 1445, 476, 474, 4858
3873, 2862, 2709, 3391, 4109
3874, 3935, 4739, 4294, 4825
3875, 1515, 1672, 4106, 4373
3876, 1069, 1358, 1756, 4142
3877, 3389, 2702, 2991, 4141
3878, 3838, 4161, 3831, 4569
3879, 1224, 1541, 4113, 5062
3880, 2857, 3174, 4114, 5061
3881, 2413, 4250, 2349, 4790
3882, 3872, 4404, 4233, 4994
3883, 4297, 4577, 3883, 4810
3884, 4298, 4578, 3882, 4809
3885, 725, 3990, 4311, 4741
3886, 3991, 4312, 2358, 4742
3887, 3831, 4161, 3838, 4884
3888, 4431, 5077, 855, 5408
3889, 3127, 3780, 4308, 5237
3890, 2265, 4503, 2266, 4552
3891, 3073, 4283, 3789, 4408
3892, 1440, 4284, 3790, 4409
3893, 4488, 4761, 949, 4864
3894, 2156, 4256, 2160, 5385
3895, 776, 864, 4445, 5344
3896, 3414, 3513, 1976, 5303
3897, 3939, 3311, 4314, 5092
3898, 1609, 3897, 4297, 4350
3899, 3242, 3896, 4298, 4351
3900, 806, 4323, 3846, 4700
3901, 3030, 4324, 3893, 4701
3902, 3869, 4328, 892, 4700
3903, 3908, 4324, 2514, 4702
3904, 3539, 4041, 3491, 4320
3905, 1833, 1909, 4042, 4321
3906, 3653, 4104, 3634, 5233
3907, 345, 4274, 3701, 4969
3908, 2677, 2679, 2678, 4715
3909, 3816, 4253, 4245, 4667
3910, 3817, 4254, 4246, 4666
3911, 1390, 3905, 4694, 5312
3912, 3517, 3550, 3538, 4182
3913, 3190, 2678, 3280, 4715
3914, 4040, 4114, 4086, 5359
3915, 4039, 4113, 4085, 5360
3916, 1514, 4091, 1475, 4818
3917, 1052, 5190, 4452, 5316
3918, 2685, 5189, 4453, 5317
3919, 4092, 4847, 4278, 5414
3920, 4295, 4461, 3863, 4859
3921, 4296, 4462, 3864, 4858
3922, 4168, 5082, 5005, 5517
3923, 1741, 4019, 1041, 4335
3924, 4245, 4253, 3962, 4667
3925, 4246, 4254, 3963, 4666
3926, 2375, 4380, 4696, 4773
3927, 1773, 1929, 4451, 5306
3928, 934, 4730, 4152, 4740
3929, 480, 481, 479, 5174
3930, 1434, 4225, 1546, 4378
3931, 443, 4235, 439, 4378
3932, 1946, 3081, 3394, 5137
3933, 3128, 4245, 2396, 4385
3934, 1495, 4246, 763, 4386
3935, 1895, 4097, 1813, 5216
3936, 1787, 1468, 4110, 4276
3937, 605, 603, 606, 4835
3938, 4138, 4505, 762, 5381
3939, 4098, 4206, 3756, 4957
3940, 3129, 4158, 4822, 4942
3941, 4157, 4823, 1496, 4941
3942, 363, 1816, 1876, 5265
3943, 3938, 4746, 4688, 4921
3944, 3808, 4463, 4289, 4815
3945, 2939, 2941, 2938, 4393
3946, 3881, 1656, 4791, 5114
3947, 507, 4231, 4531, 5187
3948, 4230, 4532, 2140, 5188
3949, 3786, 4611, 4202, 4777
3950, 3785, 4610, 4201, 4776
3951, 4077, 4673, 4452, 5165
3952, 4076, 4674, 4453, 5166
3953, 437, 4502, 3945, 5074
3954, 2727, 3310, 4334, 5253
3955, 2432, 2430, 2435, 4936
3956, 799, 797, 802, 4935
3957, 4712, 5248, 4122, 5278
3958, 3640, 4054, 3594, 4319
3959, 2591, 3993, 4974, 5505
3960, 4090, 4208, 3757, 4948
3961, 4489, 4765, 2582, 4865
3962, 827, 749, 4137, 5231
3963, 3361, 4319, 4019, 4419
3964, 2278, 2347, 2277, 4712
3965, 2834, 4206, 4098, 4952
3966, 1735, 4680, 4018, 4857
3967, 1229, 959, 1228, 4222
3968, 3080, 1854, 4036, 4432
3969, 2592, 2861, 2862, 4221
3970, 1710, 1706, 1360, 5242
3971, 3303, 3304, 2995, 5086
3972, 4307, 4983, 4412, 4990
3973, 2382, 4138, 2460, 5232
3974, 2186, 2188, 2272, 4351
3975, 639, 553, 555, 4350
3976, 2440, 4885, 4162, 4986
3977, 1007, 4284, 3805, 4495
3978, 2207, 3809, 4338, 4503
3979, 3945, 1286, 4336, 4502
3980, 1838, 4804, 1954, 4916
3981, 604, 4352, 3809, 5365
3982, 958, 3999, 4971, 5506
3983, 2724, 2723, 4262, 4749
3984, 3834, 4733, 4309, 4862
3985, 4112, 4059, 5176, 5445
3986, 1520, 3898, 436, 4337
3987, 2207, 3809, 2181, 4338
3988, 649, 3945, 1286, 4336
3989, 4055, 4220, 905, 4737
3990, 1186, 3972, 1682, 4339
3991, 2561, 4411, 3900, 4501
3992, 3552, 3469, 3486, 4699
3993, 479, 4435, 4047, 5174
3994, 2723, 3820, 4262, 4749
3995, 4174, 4925, 3994, 5040
3996, 4175, 4926, 3995, 5041
3997, 3905, 1289, 4704, 5311
3998, 1728, 4261, 4105, 5507
3999, 3448, 2891, 3506, 5334
4000, 2773, 4964, 2769, 5414
4001, 740, 501, 4203, 5451
4002, 1624, 1406, 3949, 4983
4003, 3595, 4053, 3643, 4340
4004, 3496, 3347, 4731, 5293
4005, 2023, 2137, 3772, 4347
4006, 394, 393, 3888, 4346
4007, 2026, 3889, 2027, 4347
4008, 4040, 5149, 4114, 5359
4009, 4039, 5148, 4113, 5360
4010, 3642, 3594, 4054, 4341
4011, 3962, 4443, 4281, 5209
4012, 3963, 4444, 4282, 5210
4013, 3880, 4218, 4134, 5295
4014, 829, 4261, 3964, 5307
4015, 2659, 2657, 2658, 4436
4016, 820, 4227, 4579, 5114
4017, 4573, 3851, 4792, 5261
4018, 609, 4612, 611, 5272
4019, 2004, 4316, 2842, 4395
4020, 1883, 1919, 4757, 5060
4021, 3553, 4758, 3515, 5059
4022, 3863, 4297, 1625, 5503
4023, 1658, 5160, 1614, 5340
4024, 3835, 4166, 4828, 4869
4025, 3836, 4165, 4829, 4868
4026, 4600, 4792, 3782, 5261
4027, 1139, 4417, 1881, 5456
4028, 3516, 2772, 4418, 5457
4029, 1031, 1030, 1032, 4273
4030, 2859, 2847, 3403, 4952
4031, 3430, 3348, 1875, 4186
4032, 959, 1230, 1395, 4222
4033, 2592, 2863, 3028, 4221
4034, 3283, 4880, 4049, 4972
4035, 896, 762, 4505, 5381
4036, 3160, 1813, 5130, 5216
4037, 3027, 2376, 4380, 4706
4038, 3463, 1749, 3515, 5059
4039, 3382, 1883, 1830, 5060
4040, 3303, 4484, 3808, 5182
4041, 3884, 4407, 4530, 5012
4042, 3885, 4406, 4529, 5011
4043, 4272, 4981, 3955, 5511
4044, 3552, 4070, 3469, 4699
4045, 2735, 3423, 4112, 5176
4046, 3835, 4828, 810, 4869
4047, 3836, 4829, 2443, 4868
4048, 4107, 4403, 4026, 4874
4049, 1201, 4208, 4090, 4961
4050, 4743, 4794, 3942, 5053
4051, 1908, 1817, 1869, 4709
4052, 3924, 4331, 4312, 5328
4053, 3923, 4332, 4311, 5329
4054, 864, 865, 4445, 4457
4055, 1003, 4691, 1192, 5114
4056, 882, 771, 4306, 5340
4057, 364, 1786, 4113, 5148
4058, 3419, 4114, 1997, 5149
4059, 2306, 4478, 4174, 4925
4060, 1741, 4967, 4335, 5375
4061, 1254, 3785, 4201, 5082
4062, 3186, 2537, 4075, 4683
4063, 3675, 4672, 3741, 4920
4064, 4573, 4600, 3848, 5261
4065, 1770, 1226, 1214, 4961
4066, 3932, 4602, 3961, 4795
4067, 3506, 2891, 3437, 5334
4068, 3603, 3576, 3639, 4800
4069, 3611, 3575, 3638, 4801
4070, 1879, 4111, 1907, 5218
4071, 3339, 4682, 5200, 5485
4072, 3838, 4569, 3831, 4884
4073, 3973, 4615, 3974, 4905
4074, 3989, 4359, 4061, 4671
4075, 1004, 3862, 816, 4348
4076, 345, 3701, 4274, 5498
4077, 2277, 2276, 5248, 5278
4078, 1092, 4654, 4243, 5117
4079, 4035, 4222, 4182, 4803
4080, 2400, 3997, 4281, 4396
4081, 767, 3996, 4282, 4397
4082, 3479, 4068, 1957, 5123
4083, 1848, 4066, 324, 5124
4084, 3522, 5303, 3342, 5363
4085, 1888, 5302, 1709, 5362
4086, 1704, 5351, 4103, 5358
4087, 3460, 4259, 3573, 5363
4088, 1826, 4260, 1939, 5362
4089, 4112, 4731, 3347, 5293
4090, 2004, 3183, 3998, 4395
4091, 3606, 1719, 315, 4420
4092, 427, 4763, 429, 5099
4093, 2648, 4277, 3958, 5192
4094, 3911, 4277, 2523, 5192
4095, 4265, 4369, 3958, 4979
4096, 2551, 2758, 3019, 4847
4097, 1027, 3825, 1025, 5292
4098, 3428, 2774, 1977, 4129
4099, 344, 1795, 1141, 4128
4100, 345, 1685, 4754, 4969
4101, 983, 982, 1573, 5228
4102, 2615, 3206, 2616, 5227
4103, 2375, 2453, 4380, 4773
4104, 1030, 1031, 1028, 5226
4105, 3847, 4228, 743, 4719
4106, 3130, 1957, 3479, 4068
4107, 324, 1848, 1497, 4066
4108, 2581, 2508, 3768, 4345
4109, 727, 889, 4558, 4909
4110, 1529, 4219, 3970, 4707
4111, 2268, 3838, 4569, 4713
4112, 4074, 4349, 3935, 4738
4113, 1934, 1893, 4766, 5306
4114, 3345, 2477, 2468, 4681
4115, 1704, 1019, 5351, 5358
4116, 671, 4377, 672, 4714
4117, 2337, 4381, 3175, 4713
4118, 4800, 4811, 4341, 5390
4119, 712, 5076, 729, 5271
4120, 1583, 1645, 983, 4370
4121, 2616, 3216, 3278, 4371
4122, 3762, 4933, 4425, 5260
4123, 1718, 1100, 4811, 5390
4124, 2675, 4677, 4009, 4843
4125, 4146, 5255, 3940, 5371
4126, 4134, 4218, 3880, 4744
4127, 3969, 5076, 4252, 5307
4128, 4112, 3423, 4731, 5176
4129, 793, 1526, 4156, 5097
4130, 3455, 3495, 4071, 4278
4131, 1818, 1468, 355, 4276
4132, 1515, 4373, 4106, 4647
4133, 4106, 4374, 1515, 4647
4134, 1435, 776, 4445, 5344
4135, 2723, 3820, 2517, 5393
4136, 875, 4935, 3767, 5180
4137, 3863, 1625, 4461, 5503
4138, 1953, 2916, 3685, 5196
4139, 2132, 4815, 3795, 5417
4140, 3488, 3425, 3464, 4964
4141, 3634, 319, 1346, 5221
4142, 2696, 4799, 4144, 5223
4143, 4043, 4221, 4183, 4806
4144, 782, 3962, 4443, 4780
4145, 2415, 3963, 4444, 4781
4146, 4009, 4678, 4659, 4843
4147, 3799, 4374, 570, 4498
4148, 3097, 3110, 4294, 4825
4149, 2727, 4334, 4205, 5253
4150, 4236, 4956, 1707, 5242
4151, 4105, 5098, 3373, 5400
4152, 4071, 4255, 1124, 5519
4153, 408, 410, 3768, 4934
4154, 3496, 1958, 3447, 4731
4155, 857, 4233, 669, 5077
4156, 2644, 4795, 3932, 4838
4157, 3933, 4277, 2647, 5205
4158, 1934, 4766, 4124, 5306
4159, 444, 441, 4235, 4502
4160, 437, 4235, 441, 4502
4161, 1070, 1126, 4209, 5445
4162, 1836, 4398, 1861, 5410
4163, 1370, 4652, 4015, 5059
4164, 3003, 4651, 4016, 5060
4165, 594, 4494, 595, 4601
4166, 3387, 3755, 1950, 4684
4167, 3862, 4373, 4106, 5065
4168, 3310, 3828, 4334, 5253
4169, 343, 1130, 4114, 4417
4170, 1976, 2763, 4113, 4418
4171, 3972, 4339, 1186, 5341
4172, 3787, 4431, 4303, 4988
4173, 2899, 3273, 3294, 4509
4174, 1640, 1661, 1266, 4508
4175, 1918, 4077, 1829, 4710
4176, 3483, 3556, 4076, 4711
4177, 2833, 3224, 3220, 5069
4178, 2072, 4198, 2070, 5489
4179, 2477, 4130, 2770, 5414
4180, 1146, 4103, 4264, 5358
4181, 2849, 4187, 2850, 4354
4182, 1216, 4186, 1217, 4355
4183, 1638, 4178, 4932, 4960
4184, 3386, 4041, 4344, 5457
4185, 1753, 4042, 4343, 5456
4186, 4139, 4680, 4018, 5035
4187, 1515, 1672, 1671, 5065
4188, 3862, 5065, 1004, 5315
4189, 1988, 3420, 4342, 4365
4190, 3797, 4866, 4516, 5066
4191, 3487, 4015, 2803, 4758
4192, 1873, 4016, 1170, 4757
4193, 4031, 4680, 4139, 5035
4194, 4112, 5176, 4209, 5445
4195, 3317, 4169, 3332, 5110
4196, 4123, 4314, 4007, 4483
4197, 567, 5115, 4647, 5287
4198, 2235, 3120, 4382, 4511
4199, 470, 4296, 468, 4858
4200, 2101, 2103, 4295, 4859
4201, 3246, 3951, 4217, 4769
4202, 3950, 4216, 1613, 4768
4203, 2189, 4351, 2188, 4464
4204, 555, 556, 4350, 4465
4205, 2573, 4206, 4027, 5057
4206, 4029, 4665, 4657, 4857
4207, 556, 3870, 4350, 4465
4208, 2189, 3871, 4351, 4464
4209, 2277, 2276, 2278, 5248
4210, 3096, 4253, 4628, 5505
4211, 3366, 1983, 4139, 4497
4212, 4010, 4318, 975, 5193
4213, 4254, 4629, 1463, 5506
4214, 2970, 4309, 2969, 4862
4215, 1240, 4735, 5214, 5264
4216, 1527, 3446, 5120, 5215
4217, 3697, 3735, 3685, 5196
4218, 4452, 4673, 4077, 4710
4219, 4453, 4674, 4076, 4711
4220, 3775, 4408, 4449, 5048
4221, 1626, 1581, 3789, 4449
4222, 3214, 3790, 3259, 4450
4223, 3292, 2725, 3286, 5019
4224, 4063, 4651, 4426, 4780
4225, 1390, 4694, 4174, 5312
4226, 444, 4235, 443, 4888
4227, 459, 1601, 4224, 4892
4228, 4062, 4652, 4427, 4781
4229, 3634, 3589, 319, 5221
4230, 3457, 4954, 4342, 5294
4231, 556, 3870, 557, 4350
4232, 2189, 3871, 2190, 4351
4233, 1003, 1192, 1195, 5114
4234, 3755, 4818, 4684, 4910
4235, 903, 1256, 1255, 5333
4236, 1994, 4916, 4124, 5130
4237, 1768, 1182, 1063, 5265
4238, 3945, 4502, 4235, 5074
4239, 4079, 4681, 2773, 5137
4240, 839, 3967, 1521, 4909
4241, 3896, 4351, 3242, 4921
4242, 4119, 4346, 391, 5323
4243, 1621, 4693, 4213, 4856
4244, 3254, 4692, 4212, 4855
4245, 4302, 4495, 3796, 5010
4246, 3972, 1682, 4339, 5380
4247, 4092, 4786, 4130, 5379
4248, 3522, 3342, 3432, 5363
4249, 1888, 1709, 1799, 5362
4250, 1513, 570, 4374, 4498
4251, 2195, 4688, 3938, 4746
4252, 3483, 4076, 3542, 4320
4253, 1829, 4077, 1922, 4321
4254, 940, 4208, 4028, 5055
4255, 2066, 4446, 4146, 5106
4256, 2149, 4285, 2151, 5246
4257, 516, 4286, 518, 5247
4258, 3584, 2942, 3615, 4269
4259, 1360, 3960, 1361, 4400
4260, 2002, 3714, 4316, 5377
4261, 369, 3713, 4317, 5376
4262, 4210, 4994, 3872, 5050
4263, 4136, 4729, 3826, 4992
4264, 3460, 3573, 3750, 5363
4265, 1826, 1939, 3749, 5362
4266, 1182, 4767, 1063, 5265
4267, 3952, 4211, 3052, 5191
4268, 3108, 1836, 1860, 5410
4269, 1063, 917, 4140, 4391
4270, 1521, 4339, 1185, 4909
4271, 2622, 3263, 2822, 4345
4272, 3697, 3685, 2916, 5196
4273, 3483, 3556, 3542, 4076
4274, 1829, 1918, 1922, 4077
4275, 3927, 4532, 4230, 5188
4276, 3928, 4531, 4231, 5187
4277, 4102, 4436, 2778, 5254
4278, 3985, 4729, 4136, 4992
4279, 2437, 3883, 4577, 4810
4280, 804, 3882, 4578, 4809
4281, 4165, 4593, 4474, 5139
4282, 4018, 4657, 4654, 4857
4283, 1546, 4225, 450, 4546
4284, 453, 4223, 456, 4555
4285, 477, 458, 4224, 4571
4286, 822, 4234, 821, 4602
4287, 1394, 894, 4228, 4573
4288, 1547, 4233, 878, 4588
4289, 507, 4231, 1528, 4531
4290, 3161, 2140, 4230, 4532
4291, 1244, 699, 4226, 4580
4292, 820, 4227, 742, 4579
4293, 2885, 3173, 4232, 4589
4294, 1009, 1602, 4238, 4602
4295, 888, 1676, 4239, 4558
4296, 1232, 1604, 4244, 4613
4297, 3128, 2271, 4245, 4534
4298, 1495, 638, 4246, 4533
4299, 3497, 4112, 3496, 4731
4300, 1995, 3134, 3439, 4710
4301, 362, 1501, 1806, 4711
4302, 3969, 4252, 4131, 5307
4303, 2820, 4262, 4048, 4972
4304, 1155, 1570, 3951, 5286
4305, 2788, 3203, 3950, 5285
4306, 567, 4647, 548, 5287
4307, 4296, 4298, 3864, 4462
4308, 2691, 4189, 4093, 5094
4309, 1058, 4190, 4094, 5093
4310, 2040, 4590, 3789, 4749
4311, 407, 4591, 3790, 4748
4312, 2157, 4256, 3800, 4301
4313, 2508, 3768, 4345, 4936
4314, 900, 1662, 1659, 5117
4315, 3530, 3486, 3455, 4699
4316, 2820, 4262, 2956, 4914
4317, 3883, 4717, 4164, 4894
4318, 3882, 4718, 4163, 4895
4319, 4170, 4720, 3848, 4899
4320, 3918, 4724, 4157, 4889
4321, 3917, 4725, 4158, 4888
4322, 4307, 4412, 3873, 4990
4323, 1046, 4012, 4261, 4932
4324, 4107, 4874, 1386, 5155
4325, 526, 4524, 3810, 5170
4326, 528, 529, 4257, 5170
4327, 2533, 4490, 5019, 5525
4328, 2806, 4364, 3996, 4444
4329, 1173, 4363, 3997, 4443
4330, 2594, 4211, 4046, 4783
4331, 1632, 3965, 4335, 5398
4332, 4083, 4214, 2692, 5049
4333, 2157, 4301, 3800, 5309
4334, 2241, 3058, 3799, 4375
4335, 2230, 3818, 2233, 4382
4336, 1546, 3858, 443, 4378
4337, 2621, 2050, 3807, 4383
4338, 2523, 2378, 3911, 4381
4339, 3114, 3794, 3180, 4375
4340, 2302, 2300, 3792, 4379
4341, 3217, 3813, 2617, 4375
4342, 2234, 3811, 2235, 4382
4343, 2337, 3846, 2376, 4381
4344, 2376, 3846, 2375, 4380
4345, 2283, 3034, 3903, 4383
4346, 535, 3893, 1438, 4377
4347, 439, 3898, 1520, 4378
4348, 881, 3908, 672, 4377
4349, 1289, 3905, 1390, 4376
4350, 1280, 3857, 1434, 4378
4351, 2075, 3942, 2052, 4383
4352, 3120, 3920, 2231, 4382
4353, 2453, 3878, 2626, 4380
4354, 2490, 3925, 2511, 4379
4355, 2618, 3869, 3175, 4381
4356, 2618, 3235, 3869, 4384
4357, 2936, 2648, 3958, 4384
4358, 3341, 3960, 2642, 4384
4359, 3184, 2396, 3977, 4385
4360, 1551, 763, 3976, 4386
4361, 2596, 3776, 3128, 4385
4362, 963, 3777, 1495, 4386
4363, 2785, 3914, 2598, 4385
4364, 1152, 3913, 965, 4386
4365, 4286, 4408, 3894, 4985
4366, 4285, 4409, 3895, 4984
4367, 3424, 4275, 1935, 5356
4368, 1011, 1707, 4236, 4956
4369, 2117, 4303, 2115, 4388
4370, 4459, 5150, 4058, 5447
4371, 1148, 4442, 1242, 5085
4372, 2875, 2781, 4441, 5084
4373, 1279, 4587, 3918, 4990
4374, 2912, 4586, 3917, 4989
4375, 3881, 4572, 4227, 5070
4376, 1092, 812, 4243, 4654
4377, 2445, 4242, 2725, 4653
4378, 2298, 4953, 4106, 5058
4379, 1234, 4136, 1235, 4482
4380, 3335, 4102, 2778, 5254
4381, 3831, 4569, 4161, 5169
4382, 1299, 3595, 4053, 4872
4383, 2426, 3159, 4155, 5135
4384, 3801, 524, 4486, 4524
4385, 2020, 4776, 4947, 5301
4386, 1004, 3862, 4348, 5065
4387, 2125, 4637, 2124, 5366
4388, 4163, 4704, 1289, 5311
4389, 2651, 4664, 2650, 5153
4390, 3484, 4015, 1466, 4356
4391, 3850, 4323, 4380, 4468
4392, 3892, 4376, 4324, 4471
4393, 3878, 4380, 4322, 4468
4394, 4324, 4376, 3908, 4478
4395, 1840, 4016, 3099, 4357
4396, 4272, 4344, 4057, 5085
4397, 4273, 4343, 4056, 5084
4398, 1374, 841, 920, 4255
4399, 4253, 4639, 4023, 4780
4400, 3765, 4311, 4414, 5003
4401, 3766, 4312, 4413, 5004
4402, 4254, 4640, 4024, 4781
4403, 4070, 4342, 1945, 5339
4404, 4092, 4278, 4181, 5414
4405, 2632, 4290, 3810, 4978
4406, 975, 1039, 4318, 4878
4407, 932, 4768, 4216, 5146
4408, 2565, 4769, 4217, 5147
4409, 4220, 4737, 4145, 5504
4410, 997, 4410, 886, 4495
4411, 1829, 3134, 1995, 4710
4412, 362, 3483, 1501, 4711
4413, 438, 4337, 1406, 4983
4414, 3610, 3579, 3644, 5143
4415, 706, 1463, 4254, 4629
4416, 3096, 4253, 2339, 4628
4417, 900, 1659, 5079, 5117
4418, 823, 5275, 4137, 5307
4419, 1731, 4318, 4025, 5193
4420, 4063, 3022, 4396, 4808
4421, 4062, 1389, 4397, 4807
4422, 4115, 4352, 3808, 5182
4423, 3856, 4579, 4227, 5114
4424, 4197, 4502, 1249, 5412
4425, 1497, 1848, 1892, 4940
4426, 3130, 3479, 3526, 4938
4427, 2616, 4156, 4371, 5157
4428, 4155, 4370, 983, 5156
4429, 3763, 5076, 4424, 5271
4430, 3127, 4308, 3026, 5237
4431, 3687, 1691, 4266, 4672
4432, 5089, 5351, 1019, 5358
4433, 1420, 4814, 4229, 5238
4434, 1815, 1258, 1872, 5333
4435, 4079, 4130, 4764, 4964
4436, 3901, 4431, 4388, 4500
4437, 2810, 4046, 2594, 4404
4438, 393, 3888, 4346, 5052
4439, 2026, 3889, 4347, 5051
4440, 2012, 4779, 3832, 4995
4441, 4251, 4665, 4006, 5079
4442, 2125, 4125, 4637, 5366
4443, 2298, 4106, 2237, 5058
4444, 2978, 4058, 2535, 4862
4445, 315, 4215, 1720, 4676
4446, 1610, 3977, 4329, 4363
4447, 3243, 3976, 4330, 4364
4448, 3897, 4350, 1609, 5091
4449, 1420, 1419, 4229, 4814
4450, 3156, 4659, 3995, 4679
4451, 4152, 3813, 4697, 4740
4452, 4420, 4843, 4215, 5080
4453, 1837, 4753, 4129, 5199
4454, 3470, 4752, 4128, 5198
4455, 1122, 1056, 1753, 4343
4456, 3386, 2755, 2689, 4344
4457, 1010, 4227, 993, 4792
4458, 1422, 4133, 4763, 5419
4459, 2157, 3800, 3122, 5309
4460, 828, 4655, 3995, 4678
4461, 4303, 5077, 4431, 5408
4462, 4423, 5033, 3950, 5349
4463, 4422, 5034, 3951, 5350
4464, 1055, 1034, 1138, 4086
4465, 2688, 2667, 2771, 4085
4466, 3759, 4726, 996, 5117
4467, 1691, 347, 3687, 4266
4468, 2104, 2129, 3117, 4810
4469, 471, 496, 1484, 4809
4470, 1070, 4819, 1196, 5445
4471, 3584, 1981, 2942, 4269
4472, 4181, 4278, 2768, 5414
4473, 1250, 4242, 4649, 5208
4474, 426, 3948, 1456, 4358
4475, 4181, 4764, 4130, 4964
4476, 1093, 4654, 4011, 4665
4477, 4083, 5184, 4214, 5252
4478, 2552, 3992, 4813, 5167
4479, 3890, 4494, 4185, 4840
4480, 3771, 4530, 4407, 5012
4481, 3770, 4529, 4406, 5011
4482, 2261, 4628, 3931, 4641
4483, 628, 4629, 3930, 4642
4484, 1378, 3980, 4619, 4642
4485, 2200, 4338, 2257, 5069
4486, 2310, 3089, 4873, 5109
4487, 3853, 4560, 631, 4563
4488, 3852, 4559, 2264, 4562
4489, 3875, 4576, 597, 4601
4490, 2429, 4530, 3895, 4582
4491, 796, 4529, 3894, 4581
4492, 3848, 4573, 1692, 4600
4493, 2333, 3812, 4552, 4598
4494, 652, 4619, 3988, 4621
4495, 2322, 4597, 3766, 4611
4496, 1399, 4612, 3981, 4621
4497, 3118, 4615, 3986, 4620
4498, 380, 4632, 4001, 4686
4499, 1224, 4113, 1786, 5148
4500, 2857, 4114, 3419, 5149
4501, 1795, 1141, 4128, 4481
4502, 1473, 4623, 3931, 4631
4503, 4055, 5069, 3220, 5113
4504, 4624, 4750, 3987, 4903
4505, 3493, 3102, 3469, 4342
4506, 4271, 4393, 4025, 5078
4507, 1448, 4083, 1821, 4454
4508, 2651, 4595, 3929, 4664
4509, 3851, 4572, 2317, 4660
4510, 2083, 3854, 4545, 4662
4511, 3927, 2140, 4532, 5188
4512, 507, 4531, 3928, 5187
4513, 1108, 1149, 3991, 4367
4514, 2741, 2782, 3990, 4368
4515, 2691, 2755, 4189, 5094
4516, 1122, 4190, 1058, 5093
4517, 1319, 4097, 1803, 4451
4518, 3055, 4446, 2066, 5106
4519, 665, 984, 772, 4352
4520, 1550, 3985, 4482, 4992
4521, 1244, 4580, 4226, 5229
4522, 4238, 4602, 1602, 5230
4523, 1232, 4613, 4244, 5226
4524, 3542, 3556, 3500, 4076
4525, 1918, 1868, 1922, 4077
4526, 2774, 4129, 3428, 4496
4527, 4243, 4654, 4011, 5117
4528, 2713, 4173, 5027, 5407
4529, 984, 3808, 4352, 5365
4530, 4646, 5200, 4238, 5485
4531, 1206, 3986, 945, 5361
4532, 539, 4477, 4147, 4917
4533, 2172, 4476, 4148, 4918
4534, 1913, 4757, 3753, 5060
4535, 3544, 4758, 3754, 5059
4536, 1658, 5139, 1321, 5160
4537, 4264, 4480, 3953, 4519
4538, 2536, 2889, 2888, 5334
4539, 3883, 4577, 4164, 5100
4540, 3882, 4578, 4163, 5101
4541, 3876, 4577, 4164, 4894
4542, 3877, 4578, 4163, 4895
4543, 4170, 4600, 3833, 4899
4544, 3830, 4587, 4157, 4889
4545, 3829, 4586, 4158, 4888
4546, 1872, 1258, 1804, 5333
4547, 3533, 3529, 4731, 5038
4548, 2353, 3962, 4253, 4833
4549, 4178, 5019, 4490, 5525
4550, 3963, 4254, 720, 4834
4551, 2483, 3928, 3095, 4371
4552, 850, 3927, 1462, 4370
4553, 2987, 2696, 4144, 5223
4554, 4220, 5167, 2682, 5339
4555, 1927, 1808, 1892, 4939
4556, 3526, 3564, 3441, 4937
4557, 1680, 1185, 1682, 5380
4558, 4256, 4485, 4119, 5385
4559, 1583, 4370, 1462, 4470
4560, 3216, 4371, 3095, 4469
4561, 3934, 4796, 4173, 4827
4562, 3961, 4266, 1708, 4672
4563, 3848, 4600, 4170, 4899
4564, 4164, 4577, 3883, 4894
4565, 4163, 4578, 3882, 4895
4566, 4157, 4587, 3918, 4889
4567, 4158, 4586, 3917, 4888
4568, 1615, 1064, 1613, 5107
4569, 2697, 3246, 3248, 5108
4570, 4057, 1148, 4442, 5346
4571, 2781, 4441, 4056, 5345
4572, 3491, 1757, 3445, 4320
4573, 1833, 3390, 1853, 4321
4574, 969, 4107, 4817, 5361
4575, 1071, 1347, 4201, 5269
4576, 1490, 1405, 4983, 4990
4577, 1823, 1935, 3424, 4275
4578, 1403, 4207, 1693, 4672
4579, 4162, 4646, 3845, 4830
4580, 3127, 3026, 2791, 5237
4581, 3886, 4203, 4084, 5259
4582, 1161, 986, 987, 4336
4583, 1590, 1406, 438, 4337
4584, 2257, 2200, 3204, 4338
4585, 1175, 4474, 1330, 4593
4586, 2963, 2808, 4473, 4592
4587, 1150, 454, 4470, 4607
4588, 2783, 2087, 4469, 4606
4589, 618, 615, 4479, 4608
4590, 4238, 5200, 4682, 5485
4591, 3989, 870, 4671, 4734
4592, 1185, 1521, 1062, 4339
4593, 3962, 4667, 4253, 4780
4594, 3963, 4666, 4254, 4781
4595, 3152, 3976, 3243, 4364
4596, 1519, 3977, 1610, 4363
4597, 930, 1490, 1405, 4983
4598, 3879, 4258, 482, 5262
4599, 3261, 4251, 4991, 5071
4600, 2791, 4392, 4047, 5237
4601, 1131, 1130, 1033, 5298
4602, 2763, 2666, 2764, 5299
4603, 3880, 4431, 4303, 5077
4604, 4156, 5097, 1526, 5354
4605, 3470, 3549, 4128, 4752
4606, 1896, 4038, 1861, 4398
4607, 1621, 4213, 4693, 5369
4608, 4212, 4692, 3254, 5370
4609, 4165, 4474, 1658, 5139
4610, 3750, 3677, 3460, 5363
4611, 3749, 3676, 1826, 5362
4612, 1726, 1299, 1298, 4340
4613, 862, 863, 4306, 5281
4614, 2931, 3359, 2932, 4341
4615, 2682, 2602, 2752, 4145
4616, 564, 4477, 1566, 5037
4617, 2197, 4476, 3199, 5036
4618, 1608, 5381, 4219, 5512
4619, 2663, 2666, 4272, 5401
4620, 1030, 1033, 4273, 5402
4621, 1917, 4129, 1837, 4753
4622, 3993, 4628, 4253, 5505
4623, 1766, 4076, 1501, 4320
4624, 3399, 4077, 3134, 4321
4625, 373, 4176, 374, 5163
4626, 2006, 4177, 2007, 5162
4627, 1249, 1161, 1286, 4502
4628, 2265, 2208, 2266, 4503
4629, 2207, 2200, 2208, 4503
4630, 4087, 4187, 4099, 5104
4631, 3999, 4629, 4254, 5506
4632, 3815, 1582, 4433, 4541
4633, 4088, 4186, 4100, 5105
4634, 2157, 3800, 4256, 4485
4635, 3616, 4269, 4104, 5233
4636, 4132, 4921, 4929, 5411
4637, 1235, 4136, 1234, 5357
4638, 4274, 4754, 345, 5498
4639, 3554, 4015, 3484, 4356
4640, 4143, 4879, 4029, 5468
4641, 1923, 4016, 1840, 4357
4642, 2748, 2743, 4190, 4441
4643, 1110, 4189, 1115, 4442
4644, 4634, 4790, 4037, 4826
4645, 3322, 3958, 4277, 5196
4646, 965, 963, 4386, 5476
4647, 2598, 2596, 4385, 5477
4648, 2231, 2230, 4382, 5478
4649, 1085, 3872, 4994, 5050
4650, 3842, 4361, 1545, 4466
4651, 3843, 4362, 3178, 4467
4652, 3832, 4779, 4244, 4995
4653, 3764, 4123, 5092, 5452
4654, 4075, 4353, 4078, 4683
4655, 1163, 1165, 869, 4389
4656, 2798, 2502, 2796, 4390
4657, 777, 848, 4447, 4787
4658, 3928, 3095, 4371, 4469
4659, 3927, 1462, 4370, 4470
4660, 4174, 4694, 3905, 5312
4661, 3332, 5110, 4169, 5523
4662, 1728, 4105, 4872, 5507
4663, 3497, 3496, 3447, 4731
4664, 2166, 4232, 5007, 5070
4665, 999, 3798, 4410, 5013
4666, 701, 5026, 4247, 5073
4667, 3362, 3361, 4019, 4419
4668, 1688, 3782, 4600, 4792
4669, 4169, 4645, 3330, 4779
4670, 351, 1703, 3671, 4264
4671, 3537, 3558, 3520, 4418
4672, 1886, 1903, 1904, 4417
4673, 3929, 4595, 2653, 4793
4674, 1260, 4573, 3851, 4792
4675, 4028, 4208, 940, 4961
4676, 4201, 4947, 4776, 5301
4677, 558, 3870, 556, 4465
4678, 2191, 3871, 2189, 4464
4679, 648, 3842, 1545, 4466
4680, 2281, 3843, 3178, 4467
4681, 789, 929, 3836, 4466
4682, 2562, 3835, 2422, 4467
4683, 681, 682, 3878, 4468
4684, 684, 1552, 3850, 4468
4685, 2482, 3095, 3928, 4469
4686, 1462, 3927, 849, 4470
4687, 2304, 3905, 2182, 4471
4688, 821, 746, 3845, 4472
4689, 1330, 789, 3836, 4474
4690, 2422, 3835, 2963, 4473
4691, 564, 3871, 538, 4477
4692, 2197, 3870, 2171, 4476
4693, 3905, 4471, 2304, 4478
4694, 1512, 619, 3784, 4479
4695, 618, 1082, 3934, 4479
4696, 635, 1562, 3837, 4472
4697, 3071, 2168, 3892, 4471
4698, 2514, 3908, 2305, 4478
4699, 563, 562, 5056, 5091
4700, 1360, 1359, 352, 4265
4701, 352, 1705, 1710, 4265
4702, 4204, 4840, 3890, 4868
4703, 3886, 4084, 4870, 5259
4704, 1370, 4356, 4015, 4652
4705, 2518, 4262, 2723, 5393
4706, 3003, 4357, 4016, 4651
4707, 587, 4326, 1250, 5208
4708, 2883, 2220, 4325, 5207
4709, 2573, 4027, 4206, 4952
4710, 3411, 5061, 4086, 5084
4711, 1778, 5062, 4085, 5085
4712, 3825, 4728, 4648, 4928
4713, 3834, 4558, 4309, 4733
4714, 3762, 4219, 4138, 5512
4715, 3899, 4237, 890, 5391
4716, 1467, 4183, 313, 5133
4717, 3955, 4686, 4614, 4951
4718, 3829, 4559, 4544, 4942
4719, 3830, 4560, 4543, 4941
4720, 4544, 4562, 3842, 4942
4721, 4543, 4563, 3843, 4941
4722, 3884, 4607, 4530, 4945
4723, 3885, 4606, 4529, 4946
4724, 4582, 4607, 3944, 4945
4725, 4581, 4606, 3943, 4946
4726, 892, 4328, 3869, 5242
4727, 2910, 3917, 4586, 4841
4728, 3923, 962, 4610, 4845
4729, 2595, 4611, 3924, 4844
4730, 4614, 4632, 3833, 4951
4731, 820, 4579, 3856, 5114
4732, 2612, 4006, 4251, 4879
4733, 1869, 1818, 1898, 4276
4734, 504, 4346, 3773, 5323
4735, 3880, 855, 4431, 5077
4736, 3861, 5160, 4165, 5340
4737, 4512, 4774, 4360, 5452
4738, 994, 4234, 3838, 4884
4739, 1876, 4095, 1508, 5265
4740, 1624, 4307, 3949, 5172
4741, 2499, 4425, 2345, 5260
4742, 4180, 4509, 3294, 5493
4743, 4179, 4508, 1661, 5494
4744, 2917, 4103, 3318, 5304
4745, 4176, 4981, 374, 5360
4746, 4177, 4980, 2007, 5359
4747, 3100, 4182, 1946, 5137
4748, 722, 5073, 4993, 5186
4749, 3086, 2739, 3422, 5165
4750, 1453, 1106, 1789, 5166
4751, 3887, 4361, 937, 5503
4752, 4206, 4761, 4488, 4864
4753, 2202, 3143, 4870, 5175
4754, 3518, 3538, 3550, 4182
4755, 3449, 4091, 1996, 4684
4756, 4073, 4191, 3794, 5453
4757, 1683, 3937, 1627, 4372
4758, 2344, 4933, 4487, 5046
4759, 4204, 4360, 3887, 4361
4760, 2040, 3083, 4590, 4880
4761, 1450, 4591, 407, 4881
4762, 3334, 3335, 1984, 4274
4763, 4452, 4673, 4021, 5165
4764, 4453, 4674, 4022, 5166
4765, 3981, 4903, 1455, 4906
4766, 667, 663, 1464, 4853
4767, 4015, 4427, 4356, 5132
4768, 4523, 4597, 3782, 4955
4769, 3786, 4611, 4523, 4955
4770, 1547, 668, 4233, 4853
4771, 669, 4233, 668, 4853
4772, 4170, 4436, 3826, 4812
4773, 1003, 4583, 3824, 4691
4774, 1002, 3813, 1670, 4730
4775, 3677, 4259, 3460, 5363
4776, 3676, 4260, 1826, 5362
4777, 772, 771, 665, 4352
4778, 3763, 4424, 4122, 5271
4779, 4137, 4861, 827, 5231
4780, 1456, 4358, 3948, 4372
4781, 3989, 4620, 4359, 4671
4782, 872, 918, 4026, 4402
4783, 3762, 4425, 4121, 5260
4784, 4138, 4860, 2460, 5232
4785, 1050, 4817, 1049, 5324
4786, 4027, 4488, 4206, 4761
4787, 866, 4424, 712, 5271
4788, 2450, 3874, 3123, 5185
4789, 744, 743, 4228, 4719
4790, 1343, 4082, 4429, 4460
4791, 4177, 4648, 2009, 4980
4792, 4016, 4426, 4357, 5136
4793, 3274, 3845, 4646, 4830
4794, 4185, 4270, 3764, 4494
4795, 3764, 5092, 4072, 5452
4796, 1185, 4339, 1682, 5380
4797, 499, 498, 534, 4498
4798, 1879, 1905, 4275, 5218
4799, 2386, 3994, 4925, 5040
4800, 753, 3995, 4926, 5041
4801, 1160, 4784, 4744, 5102
4802, 1728, 1729, 1294, 4105
4803, 650, 4258, 4876, 5197
4804, 2918, 3373, 3374, 4105
4805, 2938, 2941, 1982, 4271
4806, 919, 4107, 969, 5361
4807, 1954, 4804, 4095, 4916
4808, 3430, 4186, 1875, 5199
4809, 1797, 4187, 3509, 5198
4810, 2794, 2619, 4605, 5047
4811, 2554, 2991, 2702, 4141
4812, 1358, 1069, 921, 4142
4813, 2927, 4319, 3361, 4419
4814, 3296, 3297, 3873, 5047
4815, 347, 3745, 3687, 4266
4816, 2639, 3299, 3872, 4404
4817, 3052, 3952, 3053, 4404
4818, 3274, 2444, 4162, 4646
4819, 489, 4156, 495, 4644
4820, 2122, 4155, 2128, 4643
4821, 2646, 3330, 4169, 4645
4822, 2008, 2009, 4177, 4648
4823, 4282, 4364, 3976, 5210
4824, 4281, 4363, 3977, 5209
4825, 1741, 4019, 4335, 4967
4826, 1206, 1205, 4248, 5361
4827, 2631, 4687, 5128, 5413
4828, 2651, 2650, 2652, 5153
4829, 3721, 1701, 4264, 5134
4830, 2827, 3805, 4302, 5309
4831, 4102, 4436, 3941, 4812
4832, 1271, 1099, 4187, 5198
4833, 2904, 2732, 4186, 5199
4834, 2648, 3320, 3322, 4277
4835, 2524, 3320, 2523, 4277
4836, 1821, 4083, 1850, 4454
4837, 1945, 3469, 3102, 4342
4838, 1313, 4031, 4676, 5039
4839, 711, 5076, 3969, 5245
4840, 3436, 2952, 4089, 4493
4841, 1786, 1224, 1541, 4113
4842, 2857, 3174, 3419, 4114
4843, 4117, 5033, 4423, 5349
4844, 4116, 5034, 4422, 5350
4845, 4177, 4728, 3998, 4928
4846, 2974, 4038, 1990, 4709
4847, 3764, 5092, 4123, 5335
4848, 2720, 4330, 3913, 5034
4849, 1087, 4329, 3914, 5033
4850, 3469, 4070, 3555, 4342
4851, 3096, 4628, 3993, 5505
4852, 4140, 5410, 4058, 5447
4853, 1637, 4346, 394, 5350
4854, 3270, 4347, 2027, 5349
4855, 1700, 4135, 1145, 5134
4856, 4175, 3995, 4926, 5044
4857, 4174, 3994, 4925, 5045
4858, 1767, 335, 3518, 4182
4859, 4208, 4765, 4489, 4865
4860, 3999, 1463, 4629, 5506
4861, 416, 3769, 4934, 5367
4862, 859, 818, 858, 4348
4863, 3891, 4333, 4239, 5451
4864, 1092, 4011, 4654, 5117
4865, 2065, 3940, 4745, 5371
4866, 1419, 670, 4229, 5174
4867, 3785, 4776, 4201, 4947
4868, 4027, 4650, 4097, 4952
4869, 4212, 4922, 4617, 5373
4870, 4213, 4923, 4618, 5374
4871, 4167, 4352, 664, 5160
4872, 3186, 2549, 4683, 4790
4873, 1643, 1669, 3800, 5054
4874, 3905, 4704, 4163, 5311
4875, 2872, 3953, 4480, 4519
4876, 4181, 4964, 4130, 5414
4877, 2157, 2159, 4256, 4301
4878, 1059, 4130, 951, 5379
4879, 2075, 4383, 2283, 5295
4880, 3504, 1975, 3427, 4752
4881, 342, 1794, 1870, 4753
4882, 932, 4216, 931, 5146
4883, 2564, 2565, 4217, 5147
4884, 3351, 4882, 4801, 5389
4885, 1448, 1821, 4083, 5526
4886, 809, 810, 4166, 4869
4887, 2443, 4165, 2442, 4868
4888, 3413, 1879, 1823, 4275
4889, 740, 4203, 4869, 5451
4890, 391, 5263, 5178, 5323
4891, 525, 524, 4524, 4863
4892, 344, 4128, 1141, 5198
4893, 4028, 4489, 4208, 4765
4894, 1977, 4129, 2774, 5199
4895, 3897, 2129, 4810, 5118
4896, 3896, 496, 4809, 5119
4897, 4790, 4824, 4037, 5409
4898, 4057, 4912, 4272, 4981
4899, 4056, 4911, 4273, 4980
4900, 3707, 4135, 3729, 4395
4901, 3934, 3042, 4796, 4827
4902, 3791, 4540, 4134, 5462
4903, 4191, 4498, 534, 5264
4904, 4106, 4953, 3799, 5058
4905, 2642, 3235, 4384, 5524
4906, 1996, 3141, 3401, 4091
4907, 591, 5284, 4270, 5352
4908, 3972, 4746, 4132, 4870
4909, 3373, 2918, 1982, 4271
4910, 4176, 4831, 376, 4981
4911, 3511, 4091, 3547, 4684
4912, 1746, 3492, 4356, 5337
4913, 3808, 3146, 4463, 4815
4914, 408, 1432, 410, 4934
4915, 4061, 4439, 3989, 4734
4916, 1699, 1013, 1697, 4812
4917, 3827, 4256, 4232, 4691
4918, 4232, 4256, 3824, 4691
4919, 1292, 3876, 478, 4883
4920, 4242, 4649, 4010, 4878
4921, 309, 1342, 4460, 4954
4922, 1266, 924, 1548, 4331
4923, 2899, 2557, 3181, 4332
4924, 1704, 1703, 1146, 4103
4925, 3222, 3042, 4173, 4796
4926, 3820, 4445, 865, 4457
4927, 4000, 1549, 4741, 4911
4928, 4001, 3182, 4742, 4912
4929, 4026, 4403, 4402, 4874
4930, 1148, 1242, 4057, 5085
4931, 2875, 4056, 2781, 5084
4932, 1433, 4223, 3854, 4998
4933, 1434, 4225, 3857, 5000
4934, 2161, 4232, 3824, 5007
4935, 4006, 4879, 4143, 5468
4936, 3020, 2509, 4430, 4783
4937, 700, 3818, 4247, 5026
4938, 1888, 1939, 1826, 4260
4939, 3522, 3573, 3460, 4259
4940, 4414, 4741, 4000, 5003
4941, 4413, 4742, 4001, 5004
4942, 1693, 4207, 4400, 4956
4943, 3396, 4078, 4432, 4438
4944, 4155, 5135, 3159, 5355
4945, 4028, 4517, 4089, 4961
4946, 4150, 4881, 3814, 5068
4947, 4151, 4880, 3814, 5067
4948, 3335, 3334, 2778, 4102
4949, 351, 3671, 3743, 4264
4950, 1197, 4112, 361, 5038
4951, 1677, 4691, 3827, 4791
4952, 3559, 3755, 3501, 4684
4953, 4083, 1140, 5133, 5252
4954, 1157, 4218, 769, 5462
4955, 1699, 1697, 4170, 4812
4956, 3129, 4158, 2448, 4829
4957, 815, 1496, 4157, 4828
4958, 375, 376, 4176, 4831
4959, 3721, 1701, 3743, 4264
4960, 2047, 4499, 2045, 5096
4961, 1607, 4210, 1086, 5217
4962, 3286, 3758, 4242, 4944
4963, 1653, 3759, 4243, 4943
4964, 2998, 2997, 4142, 5266
4965, 1364, 4141, 1365, 5267
4966, 1749, 3754, 3463, 4937
4967, 3382, 3753, 1830, 4939
4968, 3997, 4617, 4212, 4922
4969, 3996, 4618, 4213, 4923
4970, 412, 414, 4504, 5095
4971, 2021, 4776, 2022, 5301
4972, 1419, 3956, 1458, 5174
4973, 1052, 4452, 1127, 5316
4974, 2685, 4453, 2760, 5317
4975, 3978, 4675, 4055, 5069
4976, 1929, 4097, 1895, 4451
4977, 2890, 3427, 4128, 5334
4978, 1339, 4313, 1338, 4429
4979, 3448, 3427, 2891, 5334
4980, 3152, 3976, 4364, 5210
4981, 1519, 3977, 4363, 5209
4982, 1808, 1925, 1851, 4939
4983, 3480, 3441, 3562, 4937
4984, 1627, 1607, 1086, 5217
4985, 4188, 4394, 2497, 5393
4986, 3755, 4460, 4082, 4772
4987, 1680, 4782, 4199, 5380
4988, 2640, 4283, 3806, 5277
4989, 3379, 1824, 4357, 5372
4990, 1990, 4038, 1860, 4709
4991, 4014, 4642, 4630, 4971
4992, 417, 4184, 4743, 4842
4993, 3271, 4251, 3983, 4991
4994, 2423, 4769, 2565, 5147
4995, 790, 4768, 932, 5146
4996, 2632, 3810, 2634, 4978
4997, 4071, 1760, 4699, 5519
4998, 977, 4010, 975, 5193
4999, 3808, 984, 4352, 5050
5000, 3911, 4328, 893, 5089
5001, 1968, 1842, 4183, 5526
5002, 3974, 5214, 4735, 5264
5003, 3999, 4630, 4629, 4971
5004, 4103, 5351, 5089, 5358
5005, 4097, 3403, 4650, 5130
5006, 2498, 2497, 4394, 5393
5007, 313, 4183, 1467, 5526
5008, 1211, 4070, 4699, 5519
5009, 1968, 1842, 3400, 4183
5010, 3131, 3832, 2012, 4779
5011, 1731, 4025, 4318, 5221
5012, 4020, 4906, 4813, 5030
5013, 838, 4391, 4058, 5447
5014, 4048, 4510, 1650, 4881
5015, 1794, 4129, 1257, 5333
5016, 2925, 2184, 4895, 5514
5017, 2331, 4899, 3245, 5518
5018, 2081, 3005, 4889, 5516
5019, 1372, 4888, 448, 5515
5020, 4035, 4356, 3557, 5337
5021, 2234, 3811, 4382, 5290
5022, 1844, 4275, 333, 4454
5023, 1542, 4719, 5230, 5480
5024, 3798, 4410, 4302, 5010
5025, 1245, 4360, 3887, 4774
5026, 2045, 4434, 4192, 5322
5027, 1514, 1054, 4091, 4818
5028, 3769, 1594, 4934, 5095
5029, 347, 3745, 4266, 5250
5030, 3666, 3729, 3707, 4135
5031, 4349, 4738, 4074, 4846
5032, 1089, 3982, 5245, 5488
5033, 4013, 4641, 4631, 4974
5034, 3354, 4031, 4497, 5035
5035, 3880, 4218, 4388, 4431
5036, 1529, 4927, 4219, 5398
5037, 1790, 4124, 1102, 4767
5038, 594, 3890, 1174, 4494
5039, 334, 4070, 3485, 4699
5040, 1020, 3933, 4226, 5089
5041, 840, 4062, 1389, 4397
5042, 2473, 4063, 3022, 4396
5043, 1252, 682, 4468, 4698
5044, 4499, 5095, 4192, 5096
5045, 1404, 4524, 4149, 5103
5046, 3993, 4631, 4628, 4974
5047, 4193, 5095, 4504, 5096
5048, 2002, 4316, 4126, 5377
5049, 369, 4317, 4127, 5376
5050, 3771, 4150, 4936, 5068
5051, 3770, 4151, 4935, 5067
5052, 1139, 1881, 1810, 5456
5053, 3516, 3443, 2772, 5457
5054, 2134, 2109, 2373, 4204
5055, 476, 740, 501, 4203
5056, 2636, 2633, 2727, 4205
5057, 931, 4216, 3772, 5146
5058, 2564, 4217, 3773, 5147
5059, 727, 784, 889, 4909
5060, 839, 1521, 784, 4909
5061, 545, 4286, 1417, 4449
5062, 3050, 2178, 4285, 4450
5063, 2589, 4833, 4253, 5505
5064, 2998, 4142, 2999, 4939
5065, 1365, 4141, 1366, 4937
5066, 732, 3966, 655, 5083
5067, 1991, 4278, 4071, 4847
5068, 956, 4834, 4254, 5506
5069, 1089, 5245, 4171, 5488
5070, 4089, 1770, 4517, 5120
5071, 4085, 4272, 4039, 5360
5072, 4086, 4273, 4040, 5359
5073, 2076, 4762, 3857, 4889
5074, 4179, 4331, 3924, 5328
5075, 3923, 4180, 4332, 5329
5076, 2314, 3856, 4885, 5070
5077, 4043, 4357, 1921, 5372
5078, 3900, 1454, 5197, 5262
5079, 2361, 2474, 4359, 4620
5080, 2248, 4349, 4074, 5454
5081, 4301, 4410, 3798, 5013
5082, 2568, 3821, 2498, 4394
5083, 592, 591, 593, 4494
5084, 593, 595, 594, 4494
5085, 919, 969, 968, 5361
5086, 2462, 5046, 5258, 5448
5087, 2663, 5401, 4272, 5511
5088, 4135, 5161, 3825, 5292
5089, 3743, 1701, 351, 4264
5090, 1154, 4422, 1153, 5350
5091, 2786, 2787, 4423, 5349
5092, 3125, 3754, 3480, 4758
5093, 1492, 3753, 1851, 4757
5094, 3168, 3026, 4308, 4392
5095, 4428, 4715, 4120, 5258
5096, 4422, 4886, 3913, 5034
5097, 4423, 4887, 3914, 5033
5098, 2144, 4230, 2142, 5188
5099, 511, 4231, 509, 5187
5100, 3793, 4637, 4125, 5366
5101, 1400, 4184, 417, 4842
5102, 3163, 5142, 4421, 5405
5103, 4147, 4351, 3896, 4921
5104, 4201, 4947, 3828, 5082
5105, 3846, 4696, 4322, 5224
5106, 2795, 4742, 4093, 5331
5107, 1162, 4741, 4094, 5330
5108, 1828, 4066, 3133, 4940
5109, 3462, 4068, 1500, 4938
5110, 1017, 893, 4328, 5089
5111, 1988, 4342, 3514, 4365
5112, 1435, 1267, 1007, 4495
5113, 3788, 4987, 4411, 5262
5114, 356, 1343, 1341, 3755
5115, 1017, 5089, 4328, 5351
5116, 3935, 4073, 4635, 4735
5117, 1139, 1793, 1881, 4417
5118, 2772, 3426, 3516, 4418
5119, 536, 4717, 4164, 5510
5120, 3227, 2047, 2045, 5096
5121, 412, 1594, 414, 5095
5122, 389, 5263, 391, 5323
5123, 793, 1554, 1526, 5097
5124, 3740, 4265, 3674, 4968
5125, 3769, 4345, 4279, 5364
5126, 2060, 2062, 3948, 4783
5127, 3684, 1234, 4482, 5357
5128, 1068, 4456, 4080, 5326
5129, 2701, 4455, 4081, 5325
5130, 529, 4433, 3810, 5103
5131, 2040, 3284, 3083, 4880
5132, 1450, 407, 1651, 4881
5133, 2758, 4847, 4071, 5386
5134, 1630, 1315, 416, 4279
5135, 1639, 1189, 1630, 4279
5136, 434, 435, 432, 4280
5137, 4026, 4387, 4107, 4507
5138, 1876, 4095, 1910, 4766
5139, 3129, 3060, 4158, 4942
5140, 1427, 4157, 1496, 4941
5141, 2490, 2302, 3109, 5201
5142, 3898, 4235, 439, 5074
5143, 389, 5178, 391, 5263
5144, 1146, 1704, 4103, 5358
5145, 1714, 4766, 1893, 5306
5146, 1218, 1782, 1217, 4186
5147, 2850, 2851, 3415, 4187
5148, 2132, 3146, 4815, 5417
5149, 347, 1302, 3745, 5250
5150, 1070, 1196, 1126, 5445
5151, 2632, 5128, 3810, 5413
5152, 3565, 4181, 3561, 5318
5153, 3972, 4870, 4084, 5175
5154, 1940, 1798, 1889, 4355
5155, 3524, 3572, 3431, 4354
5156, 428, 427, 429, 5099
5157, 2809, 4084, 2225, 5259
5158, 1639, 4279, 1630, 5367
5159, 999, 3798, 887, 4410
5160, 2560, 3879, 2488, 4411
5161, 408, 3768, 409, 4407
5162, 2041, 3767, 2042, 4406
5163, 2794, 3949, 2919, 4412
5164, 1568, 3900, 1454, 5197
5165, 1554, 1526, 5097, 5354
5166, 3960, 4956, 4236, 5242
5167, 4257, 4698, 680, 5170
5168, 1159, 3991, 1149, 4413
5169, 2792, 3990, 2782, 4414
5170, 2362, 4933, 3762, 5260
5171, 537, 3799, 570, 4498
5172, 679, 3794, 499, 4498
5173, 2729, 4144, 2471, 4910
5174, 1422, 4133, 429, 4763
5175, 3966, 655, 5083, 5352
5176, 2400, 4396, 4281, 5467
5177, 767, 4397, 4282, 5466
5178, 4115, 5086, 4352, 5182
5179, 1886, 1903, 4417, 5061
5180, 3537, 4418, 3520, 5062
5181, 1906, 4804, 4095, 5265
5182, 1815, 1794, 1258, 5333
5183, 4361, 4461, 937, 5503
5184, 2250, 4349, 2248, 5454
5185, 1871, 1895, 1813, 5216
5186, 905, 4055, 781, 4366
5187, 1725, 5104, 4034, 5395
5188, 3236, 4193, 3034, 5096
5189, 1906, 1910, 1876, 4095
5190, 357, 4071, 1760, 4699
5191, 1424, 4101, 4402, 5421
5192, 3694, 4207, 1403, 4672
5193, 4089, 4493, 3499, 5293
5194, 3565, 3561, 3458, 5318
5195, 3964, 4252, 4131, 5291
5196, 3358, 5105, 4033, 5394
5197, 2242, 4191, 3114, 5081
5198, 2573, 4206, 5057, 5260
5199, 3769, 5095, 4193, 5096
5200, 3769, 4192, 5095, 5096
5201, 315, 3606, 4215, 4676
5202, 3487, 3553, 3554, 4015
5203, 1873, 1919, 1923, 4016
5204, 2809, 2225, 4084, 5175
5205, 1639, 4150, 654, 4881
5206, 2976, 4708, 2974, 4709
5207, 3795, 4815, 4289, 5417
5208, 2683, 4220, 2682, 5339
5209, 3554, 3553, 3484, 4015
5210, 1919, 1840, 1923, 4016
5211, 931, 3772, 4216, 5269
5212, 2564, 3773, 4217, 5268
5213, 919, 4507, 4107, 5361
5214, 2785, 3914, 4385, 5285
5215, 1152, 3913, 4386, 5286
5216, 4170, 4720, 4436, 4812
5217, 1667, 4768, 1379, 4922
5218, 3012, 3300, 4769, 4923
5219, 2471, 4144, 2550, 4799
5220, 2043, 3767, 2041, 4434
5221, 2552, 4145, 2602, 5167
5222, 1974, 2002, 3714, 4316
5223, 369, 3713, 3682, 4317
5224, 1827, 4355, 1889, 5151
5225, 3524, 3461, 4354, 5152
5226, 3862, 4106, 4373, 4511
5227, 538, 3871, 566, 5119
5228, 2171, 3870, 2199, 5118
5229, 4122, 4299, 3859, 5055
5230, 2143, 3944, 2144, 5188
5231, 511, 510, 3943, 5187
5232, 2561, 3900, 2789, 4501
5233, 928, 3901, 1156, 4500
5234, 2207, 3148, 3809, 4503
5235, 444, 3917, 445, 4502
5236, 2050, 2047, 3807, 4499
5237, 446, 3903, 1504, 4500
5238, 3139, 2079, 3902, 4501
5239, 437, 1286, 3945, 4502
5240, 3682, 341, 369, 4317
5241, 4249, 5072, 2240, 5081
5242, 640, 3797, 546, 5103
5243, 1754, 4038, 317, 4398
5244, 3279, 4314, 3311, 5092
5245, 4162, 5230, 4719, 5480
5246, 1996, 4091, 2987, 4684
5247, 1731, 4025, 1038, 5193
5248, 4109, 4806, 906, 5133
5249, 3406, 3499, 4493, 5293
5250, 2724, 3283, 4049, 4972
5251, 3881, 4227, 993, 5114
5252, 795, 5077, 3793, 5408
5253, 1653, 4243, 3759, 5117
5254, 1452, 3910, 4908, 5156
5255, 3085, 3909, 4907, 5157
5256, 3975, 4250, 2349, 5116
5257, 1040, 4678, 4032, 4736
5258, 3822, 2338, 4552, 4755
5259, 1725, 4034, 4340, 5395
5260, 3826, 4771, 4136, 4992
5261, 4132, 4921, 4746, 4929
5262, 1618, 4229, 3792, 5238
5263, 3776, 4231, 1528, 5241
5264, 3161, 3777, 4230, 5240
5265, 3818, 4239, 888, 5239
5266, 1390, 755, 4174, 4694
5267, 3023, 2388, 4175, 4695
5268, 3023, 4695, 4175, 4702
5269, 1532, 4812, 4170, 4831
5270, 4121, 5164, 645, 5249
5271, 529, 3810, 531, 5103
5272, 3514, 4365, 4342, 4954
5273, 700, 3818, 888, 5239
5274, 491, 1618, 3792, 5238
5275, 892, 3869, 995, 5242
5276, 3358, 4033, 4341, 5394
5277, 1124, 4255, 4071, 4959
5278, 3805, 4394, 4284, 4450
5279, 2353, 4253, 2589, 4833
5280, 956, 720, 4254, 4834
5281, 2678, 2679, 3280, 5258
5282, 905, 904, 4220, 4366
5283, 3541, 3446, 3503, 5215
5284, 3511, 3547, 3468, 4684
5285, 2163, 2147, 2148, 5034
5286, 515, 530, 514, 5033
5287, 391, 4346, 392, 5323
5288, 3953, 4264, 1702, 5134
5289, 2683, 5181, 4220, 5339
5290, 525, 4524, 4205, 4863
5291, 4182, 4222, 4108, 4803
5292, 2830, 4124, 1994, 4916
5293, 2106, 2129, 3897, 5118
5294, 4121, 4300, 3860, 5057
5295, 940, 4208, 5055, 5271
5296, 1020, 4226, 3933, 5229
5297, 3787, 4240, 1333, 5228
5298, 3788, 4241, 2966, 5227
5299, 1026, 4244, 3825, 5226
5300, 3055, 3937, 4446, 5106
5301, 2287, 4406, 2038, 4880
5302, 405, 654, 4407, 4881
5303, 2806, 2501, 3152, 4364
5304, 1173, 868, 1519, 4363
5305, 3965, 5381, 4219, 5398
5306, 3957, 4266, 4238, 4682
5307, 1875, 4186, 4753, 5199
5308, 3509, 4187, 4752, 5198
5309, 2287, 4151, 4406, 4880
5310, 4150, 4407, 654, 4881
5311, 2498, 4394, 3821, 5393
5312, 3711, 4136, 3344, 5513
5313, 1807, 1746, 4356, 5337
5314, 891, 4237, 3929, 5141
5315, 599, 4576, 3812, 4716
5316, 2655, 4595, 3941, 4720
5317, 4160, 4810, 3210, 5118
5318, 4159, 4809, 1577, 5119
5319, 700, 4247, 3818, 5308
5320, 2428, 4294, 3792, 4825
5321, 4084, 4333, 2225, 5259
5322, 3091, 3052, 4211, 5191
5323, 4183, 4221, 4109, 4806
5324, 1985, 4852, 4682, 4920
5325, 4172, 4487, 3970, 5490
5326, 3983, 4487, 4172, 5490
5327, 3317, 3332, 2870, 5110
5328, 2221, 2341, 2342, 5111
5329, 897, 5381, 3965, 5398
5330, 2169, 4471, 4163, 5514
5331, 4168, 4468, 685, 5517
5332, 2280, 4467, 4157, 5516
5333, 647, 4466, 4158, 5515
5334, 4170, 4475, 2823, 5518
5335, 975, 4318, 4010, 4878
5336, 3760, 4289, 609, 4835
5337, 3271, 3983, 4251, 4715
5338, 1336, 4447, 5251, 5352
5339, 1839, 1942, 4709, 5270
5340, 1120, 4183, 1467, 5133
5341, 3364, 4879, 4029, 5131
5342, 409, 4407, 3768, 4908
5343, 3767, 2042, 4406, 4907
5344, 1288, 1289, 4163, 4704
5345, 2921, 2922, 4164, 4703
5346, 1814, 1893, 325, 4766
5347, 4014, 4681, 4668, 4770
5348, 2612, 4251, 4006, 4715
5349, 1397, 4376, 3892, 5311
5350, 3850, 4380, 3027, 5310
5351, 3908, 4376, 881, 5312
5352, 3983, 4726, 4251, 5079
5353, 3005, 2280, 4724, 5516
5354, 1372, 647, 4725, 5515
5355, 2184, 2169, 4718, 5514
5356, 2823, 3245, 4720, 5518
5357, 3780, 4435, 4308, 5237
5358, 2956, 4914, 4262, 5393
5359, 4238, 4266, 3961, 4682
5360, 2922, 4701, 4164, 4703
5361, 3163, 4421, 2260, 5405
5362, 1605, 722, 4993, 5186
5363, 2354, 4281, 3962, 5467
5364, 487, 4304, 484, 5262
5365, 721, 4282, 3963, 5466
5366, 1458, 3956, 1081, 4435
5367, 696, 4311, 3990, 5329
5368, 2329, 4312, 3991, 5328
5369, 3440, 3379, 4357, 5372
5370, 3887, 4295, 2105, 4859
5371, 1850, 4083, 1821, 5526
5372, 2488, 4411, 3879, 5201
5373, 4445, 4457, 3820, 4832
5374, 1218, 1782, 4186, 4753
5375, 3415, 4187, 2851, 4752
5376, 3100, 2753, 4182, 5137
5377, 2809, 4084, 3143, 5175
5378, 2802, 4427, 2803, 5132
5379, 4109, 4214, 4083, 5184
5380, 2288, 4309, 3967, 4862
5381, 4082, 4365, 2961, 4772
5382, 3496, 3347, 1958, 4731
5383, 2462, 3965, 5046, 5448
5384, 3261, 4991, 3759, 5071
5385, 1170, 1169, 4426, 5136
5386, 1112, 4674, 4067, 5267
5387, 2745, 4673, 4065, 5266
5388, 1968, 3400, 3435, 4183
5389, 4146, 4372, 3937, 5464
5390, 3163, 4008, 2989, 4421
5391, 4341, 4800, 4033, 4811
5392, 2705, 4107, 2707, 4403
5393, 2780, 3957, 4852, 5153
5394, 2770, 2773, 2769, 5414
5395, 3907, 4943, 4159, 5101
5396, 3906, 4944, 4160, 5100
5397, 598, 3919, 4601, 4716
5398, 3107, 2411, 4061, 4439
5399, 4169, 5110, 3317, 5399
5400, 781, 4055, 952, 4440
5401, 483, 4304, 3879, 5262
5402, 1007, 997, 886, 4495
5403, 3420, 4096, 2746, 4342
5404, 3036, 4207, 3326, 4838
5405, 2302, 4379, 3792, 5201
5406, 3551, 4267, 4041, 5457
5407, 1901, 4268, 4042, 5456
5408, 353, 3515, 1749, 5059
5409, 1986, 1883, 3382, 5060
5410, 3710, 4263, 1956, 4852
5411, 4148, 4350, 3897, 5091
5412, 2883, 4243, 5071, 5207
5413, 4149, 5128, 4687, 5413
5414, 700, 3818, 5239, 5308
5415, 4171, 5245, 3982, 5488
5416, 1625, 4297, 3863, 4894
5417, 3258, 4298, 3864, 4895
5418, 2795, 3063, 4093, 4742
5419, 1430, 4094, 1162, 4741
5420, 4109, 4083, 5133, 5184
5421, 3279, 2817, 2545, 4314
5422, 1646, 1184, 912, 4315
5423, 430, 4133, 1422, 5087
5424, 3091, 3052, 2714, 4211
5425, 585, 4171, 1089, 5245
5426, 491, 3792, 4399, 5238
5427, 694, 725, 696, 4311
5428, 2327, 2358, 2329, 4312
5429, 2102, 2101, 2103, 4295
5430, 468, 470, 469, 4296
5431, 1517, 639, 1609, 4297
5432, 3242, 3150, 2272, 4298
5433, 2131, 2132, 2126, 4310
5434, 1075, 938, 1296, 4299
5435, 2708, 2571, 2929, 4300
5436, 2116, 2115, 2117, 4303
5437, 882, 771, 862, 4306
5438, 2273, 3105, 2275, 4302
5439, 3189, 3050, 3136, 4285
5440, 1556, 1417, 1503, 4286
5441, 3006, 2164, 3037, 4301
5442, 3298, 2640, 3293, 4283
5443, 423, 424, 425, 4305
5444, 3073, 3293, 3285, 4283
5445, 1652, 1440, 1660, 4284
5446, 2178, 2151, 3050, 4285
5447, 545, 518, 1417, 4286
5448, 394, 395, 396, 4287
5449, 2028, 2029, 2027, 4288
5450, 396, 398, 461, 4287
5451, 2031, 2094, 2029, 4288
5452, 1477, 1082, 1464, 4293
5453, 2715, 3097, 3110, 4294
5454, 3026, 2558, 3168, 4308
5455, 2969, 2970, 2968, 4309
5456, 667, 1464, 795, 4293
5457, 2435, 2430, 3047, 4291
5458, 1414, 802, 797, 4292
5459, 3035, 3239, 2267, 4290
5460, 639, 1269, 553, 4297
5461, 2272, 2902, 2186, 4298
5462, 1268, 1437, 1075, 4299
5463, 2901, 3070, 2708, 4300
5464, 2827, 2577, 3105, 4302
5465, 2117, 2120, 2119, 4303
5466, 487, 486, 484, 4304
5467, 1490, 930, 817, 4307
5468, 862, 863, 986, 4306
5469, 3026, 3127, 2056, 4308
5470, 2991, 4141, 2554, 5317
5471, 1358, 4142, 921, 5316
5472, 3124, 2177, 2131, 4310
5473, 3846, 4161, 4696, 5224
5474, 694, 693, 691, 4311
5475, 2327, 2326, 2324, 4312
5476, 1337, 1338, 1339, 4313
5477, 2023, 3772, 3015, 4509
5478, 2348, 3763, 4252, 4712
5479, 1767, 1802, 335, 4182
5480, 2780, 4852, 4263, 5153
5481, 4110, 4709, 1942, 5270
5482, 3525, 3569, 3509, 4187
5483, 1890, 1936, 1875, 4186
5484, 3785, 4522, 4168, 5005
5485, 4168, 4522, 3781, 5005
5486, 1646, 1262, 1678, 4315
5487, 2895, 3311, 3279, 4314
5488, 2612, 4251, 2610, 4879
5489, 3162, 4252, 3969, 4712
5490, 3243, 4330, 3976, 4851
5491, 1610, 4329, 3977, 4850
5492, 696, 695, 4311, 5329
5493, 2329, 2328, 4312, 5328
5494, 2667, 2688, 2668, 4344
5495, 1034, 1055, 1035, 4343
5496, 3455, 1991, 3494, 4278
5497, 1110, 1766, 1115, 4320
5498, 2748, 2743, 3399, 4321
5499, 3739, 3673, 4265, 4979
5500, 3056, 4230, 2144, 4886
5501, 511, 1423, 4231, 4887
5502, 1562, 4234, 994, 4884
5503, 1571, 1206, 4248, 4905
5504, 531, 4524, 1404, 5103
5505, 3644, 3647, 3610, 4105
5506, 3591, 3647, 3644, 4105
5507, 587, 3906, 4326, 5208
5508, 3907, 4325, 2220, 5207
5509, 4079, 4764, 4130, 4854
5510, 3581, 4271, 3645, 5078
5511, 4108, 4854, 4014, 4971
5512, 1985, 3672, 4852, 4920
5513, 2156, 2981, 4485, 5385
5514, 2937, 3264, 2930, 4072
5515, 946, 5082, 685, 5517
5516, 1080, 1589, 1576, 4074
5517, 1524, 4017, 4655, 4736
5518, 3798, 887, 4410, 5010
5519, 3133, 4066, 1828, 4710
5520, 1500, 4068, 3462, 4711
5521, 793, 4156, 4987, 5097
5522, 3978, 4366, 4055, 4675
5523, 2373, 3890, 4840, 4868
5524, 2930, 4072, 3264, 5092
5525, 4452, 5190, 4065, 5316
5526, 4453, 5189, 4067, 5317
5527, 504, 390, 4346, 5323
5528, 1898, 4110, 4276, 5270
5529, 4227, 4579, 3856, 4885
5530, 3794, 4327, 4375, 4498
5531, 1807, 4356, 4035, 5337
5532, 1197, 4112, 5038, 5445
5533, 3468, 3559, 3501, 4684
5534, 3541, 3499, 4089, 4493
5535, 650, 4876, 3902, 5197
5536, 1319, 4097, 4451, 4761
5537, 4051, 4923, 4213, 5374
5538, 4050, 4922, 4212, 5373
5539, 2826, 4450, 3805, 4547
5540, 1193, 4449, 3806, 4548
5541, 1934, 1893, 1814, 4766
5542, 3925, 2511, 4379, 4697
5543, 3846, 2375, 4380, 4696
5544, 3217, 3813, 4375, 4697
5545, 3184, 4385, 3977, 4692
5546, 3976, 1551, 4386, 4693
5547, 2619, 2496, 3840, 5047
5548, 916, 779, 1339, 4313
5549, 2850, 2849, 2851, 4187
5550, 1218, 1217, 1216, 4186
5551, 3068, 2519, 2408, 4044
5552, 1187, 1066, 1067, 4049
5553, 2820, 2699, 2700, 4048
5554, 1651, 1091, 1650, 4048
5555, 3284, 2724, 3283, 4049
5556, 642, 1472, 864, 4044
5557, 1379, 790, 737, 4050
5558, 2370, 3012, 2423, 4051
5559, 480, 479, 442, 4047
5560, 1202, 1203, 1086, 4046
5561, 2836, 2719, 2835, 4045
5562, 3785, 4947, 4201, 5082
5563, 2360, 2417, 2522, 4052
5564, 4378, 4762, 3898, 5088
5565, 3796, 4302, 4188, 4495
5566, 4402, 4958, 4275, 5218
5567, 1926, 1828, 4066, 4710
5568, 3563, 3462, 4068, 4711
5569, 4058, 4708, 4459, 5447
5570, 3200, 4172, 4464, 4991
5571, 905, 952, 781, 4055
5572, 4013, 5122, 4214, 5319
5573, 2166, 5007, 3856, 5070
5574, 804, 1600, 3882, 4809
5575, 2437, 3233, 3883, 4810
5576, 701, 3975, 5026, 5073
5577, 3509, 4752, 3545, 5198
5578, 2603, 2833, 3220, 4055
5579, 3480, 3562, 3754, 4937
5580, 1925, 3753, 1851, 4939
5581, 1875, 4753, 1914, 5199
5582, 3523, 364, 3444, 4259
5583, 1887, 1997, 1843, 4260
5584, 1440, 4284, 4409, 5499
5585, 4121, 4425, 2499, 5260
5586, 3917, 4502, 4197, 5412
5587, 4263, 4852, 3957, 5153
5588, 2806, 3996, 2805, 4444
5589, 1173, 3997, 1172, 4443
5590, 3960, 1707, 4956, 5242
5591, 2051, 4518, 4184, 5237
5592, 3723, 3745, 1302, 5250
5593, 791, 1631, 5177, 5380
5594, 927, 3880, 855, 4431
5595, 3440, 4357, 4043, 5372
5596, 2877, 4720, 3848, 4793
5597, 1457, 4289, 3808, 5365
5598, 897, 3965, 1632, 5398
5599, 4136, 4482, 1234, 5357
5600, 1906, 1816, 4804, 5265
5601, 3994, 4658, 4174, 5040
5602, 3995, 4659, 4175, 5041
5603, 4168, 685, 5082, 5517
5604, 389, 1674, 391, 5178
5605, 4174, 4658, 3912, 5040
5606, 4175, 4659, 3912, 5041
5607, 1774, 4016, 1167, 4389
5608, 2800, 3407, 4015, 4390
5609, 4232, 4589, 3827, 4791
5610, 3881, 4589, 4232, 4791
5611, 857, 1476, 3952, 5077
5612, 1653, 3759, 996, 5117
5613, 2961, 4082, 2960, 4365
5614, 2295, 3975, 2349, 5116
5615, 3163, 4008, 4421, 5142
5616, 1656, 3881, 993, 5114
5617, 585, 4976, 4171, 5245
5618, 1850, 4454, 4083, 5356
5619, 4027, 949, 4488, 4761
5620, 1910, 4095, 1906, 4916
5621, 2411, 2583, 3107, 4061
5622, 866, 4122, 4424, 5271
5623, 1491, 492, 4073, 5264
5624, 4137, 5275, 3964, 5307
5625, 389, 1674, 5178, 5263
5626, 1844, 333, 4275, 5218
5627, 1461, 4500, 1156, 5156
5628, 3094, 4501, 2789, 5157
5629, 3847, 4579, 4227, 4885
5630, 529, 4257, 3810, 4433
5631, 3568, 357, 4699, 5300
5632, 2843, 4107, 2705, 4387
5633, 3902, 4876, 4258, 5197
5634, 1294, 1728, 4105, 4872
5635, 3812, 4503, 4200, 4973
5636, 1271, 1099, 1713, 4187
5637, 2904, 2732, 3346, 4186
5638, 4283, 4457, 3820, 4913
5639, 1101, 1721, 4032, 5154
5640, 3912, 4714, 4175, 5041
5641, 969, 4817, 968, 5361
5642, 4236, 4663, 3932, 4838
5643, 2621, 4383, 3807, 5096
5644, 3807, 4743, 4383, 5053
5645, 4084, 4203, 3886, 5177
5646, 336, 1929, 1834, 4451
5647, 3073, 3293, 4283, 4408
5648, 1630, 4279, 416, 5367
5649, 2496, 2620, 3840, 5274
5650, 2844, 3080, 4036, 4432
5651, 3908, 4376, 4324, 4982
5652, 4324, 4377, 3908, 4982
5653, 4049, 4749, 4514, 4880
5654, 4048, 4748, 4513, 4881
5655, 3332, 2870, 5110, 5523
5656, 3912, 4174, 5257, 5312
5657, 3799, 2241, 4375, 5081
5658, 906, 4806, 4109, 5424
5659, 4052, 4458, 2360, 4816
5660, 2417, 4052, 2360, 4816
5661, 4232, 4583, 3856, 5114
5662, 649, 4280, 3945, 5464
5663, 1007, 3805, 4284, 5499
5664, 4197, 4502, 3917, 4841
5665, 4008, 1184, 4339, 5341
5666, 836, 3971, 4623, 4751
5667, 846, 903, 1255, 3756
5668, 2536, 2888, 2479, 3757
5669, 2417, 2360, 4458, 4816
5670, 4247, 4382, 3811, 5290
5671, 3286, 3281, 2629, 3758
5672, 1653, 1648, 996, 3759
5673, 2121, 2119, 2120, 3787
5674, 486, 487, 488, 3788
5675, 2139, 2289, 3046, 3779
5676, 656, 1413, 506, 3778
5677, 3045, 3044, 2138, 3784
5678, 505, 1412, 1411, 3783
5679, 3142, 2173, 3161, 3777
5680, 1509, 540, 1528, 3776
5681, 667, 795, 669, 3793
5682, 2300, 2428, 2302, 3792
5683, 1547, 1481, 666, 3795
5684, 2127, 2128, 2135, 3803
5685, 495, 502, 494, 3804
5686, 2238, 2241, 3058, 3799
5687, 605, 604, 603, 3809
5688, 2234, 2236, 2235, 3811
5689, 601, 599, 600, 3812
5690, 875, 880, 948, 3767
5691, 2513, 2581, 2508, 3768
5692, 3077, 2233, 2230, 3818
5693, 2617, 3217, 3230, 3813
5694, 2593, 2968, 2970, 3834
5695, 960, 662, 1444, 3822
5696, 2270, 2434, 3111, 3778
5697, 1478, 637, 801, 3779
5698, 2254, 3145, 2252, 3783
5699, 621, 1512, 619, 3784
5700, 3128, 2596, 2368, 3776
5701, 1495, 963, 735, 3777
5702, 2049, 2948, 3227, 3769
5703, 1594, 416, 1315, 3769
5704, 3201, 2426, 3087, 3901
5705, 793, 1454, 1568, 3900
5706, 2334, 2359, 2338, 3822
5707, 783, 727, 726, 3834
5708, 570, 537, 548, 3799
5709, 679, 493, 499, 3794
5710, 2132, 2312, 2126, 3795
5711, 2136, 2141, 2140, 3927
5712, 503, 508, 507, 3928
5713, 565, 1261, 643, 3867
5714, 2198, 2894, 2276, 3868
5715, 3048, 3187, 2604, 3910
5716, 1415, 1554, 971, 3909
5717, 2283, 3034, 3228, 3903
5718, 1595, 650, 1401, 3902
5719, 596, 597, 595, 3875
5720, 2147, 2720, 3056, 3913
5721, 1087, 1423, 514, 3914
5722, 887, 999, 1560, 3798
5723, 2900, 2517, 2723, 3820
5724, 884, 1090, 1267, 3821
5725, 491, 1618, 485, 3792
5726, 2124, 3251, 2118, 3793
5727, 792, 641, 775, 3796
5728, 741, 1496, 810, 3835
5729, 2374, 3129, 2443, 3836
5730, 2292, 2291, 2290, 3817
5731, 659, 658, 657, 3816
5732, 2620, 2619, 2496, 3840
5733, 863, 987, 986, 3839
5734, 566, 538, 564, 3871
5735, 2171, 2197, 2199, 3870
5736, 3206, 3170, 2716, 3804
5737, 1083, 1573, 1537, 3803
5738, 529, 526, 531, 3810
5739, 2143, 2145, 2144, 3944
5740, 510, 512, 511, 3943
5741, 2275, 2274, 2273, 3796
5742, 468, 469, 467, 3864
5743, 2101, 2102, 2100, 3863
5744, 545, 520, 518, 3775
5745, 2151, 2178, 2153, 3774
5746, 524, 521, 1489, 3801
5747, 2157, 2154, 3122, 3800
5748, 1274, 1275, 1273, 3830
5749, 2906, 2907, 2908, 3829
5750, 1402, 578, 1443, 3802
5751, 577, 546, 640, 3797
5752, 3083, 2038, 2036, 3770
5753, 403, 1450, 405, 3771
5754, 2210, 2211, 2180, 3802
5755, 2181, 2207, 3148, 3809
5756, 944, 1194, 1193, 3806
5757, 2577, 2827, 2826, 3805
5758, 464, 631, 466, 3853
5759, 2099, 2097, 2264, 3852
5760, 676, 574, 632, 3811
5761, 3092, 3020, 2055, 3791
5762, 481, 482, 483, 3879
5763, 2114, 2115, 2116, 3880
5764, 3073, 3285, 2040, 3789
5765, 1652, 407, 1440, 3790
5766, 1351, 1008, 740, 3891
5767, 2984, 2641, 2373, 3890
5768, 1278, 1314, 1272, 3843
5769, 2911, 2947, 2905, 3842
5770, 700, 705, 888, 3818
5771, 2213, 3035, 2267, 3815
5772, 3189, 3136, 2429, 3895
5773, 1556, 1503, 796, 3894
5774, 3303, 3146, 2203, 3808
5775, 547, 579, 1582, 3815
5776, 2179, 2164, 3006, 3798
5777, 804, 1600, 1636, 3882
5778, 3269, 2437, 3233, 3883
5779, 580, 582, 581, 3819
5780, 1490, 817, 814, 3873
5781, 2447, 3123, 2450, 3874
5782, 3319, 2174, 3321, 3781
5783, 541, 1688, 1686, 3782
5784, 855, 927, 990, 3880
5785, 2560, 2623, 2488, 3879
5786, 3177, 2165, 3215, 3823
5787, 2212, 2214, 3255, 3819
5788, 1085, 1584, 878, 3872
5789, 2431, 2432, 2433, 3771
5790, 799, 800, 798, 3770
5791, 447, 443, 1546, 3858
5792, 3179, 2080, 2076, 3857
5793, 2020, 2018, 3314, 3785
5794, 385, 1681, 387, 3786
5795, 2215, 2217, 2216, 3831
5796, 3259, 3214, 2613, 3790
5797, 980, 1626, 1581, 3789
5798, 803, 1545, 648, 3842
5799, 3178, 2281, 2436, 3843
5800, 452, 450, 453, 3855
5801, 2086, 2085, 2083, 3854
5802, 462, 463, 459, 3865
5803, 2092, 2095, 2096, 3866
5804, 1188, 1189, 1639, 3814
5805, 2822, 3272, 2821, 3814
5806, 2375, 2376, 2337, 3846
5807, 742, 743, 704, 3847
5808, 1281, 1486, 1433, 3854
5809, 3119, 3066, 2914, 3855
5810, 497, 465, 1617, 3877
5811, 2098, 3250, 2130, 3876
5812, 1001, 1000, 1003, 3824
5813, 458, 460, 456, 3866
5814, 2089, 2091, 2093, 3865
5815, 1606, 1623, 634, 3823
5816, 584, 1407, 703, 3841
5817, 2159, 2162, 2161, 3824
5818, 2621, 2050, 2047, 3807
5819, 414, 988, 417, 3807
5820, 2491, 2566, 2492, 3839
5821, 933, 859, 858, 3840
5822, 635, 1562, 583, 3837
5823, 1668, 1670, 1002, 3813
5824, 1629, 1622, 623, 3831
5825, 1007, 1665, 997, 3805
5826, 3298, 2630, 2640, 3806
5827, 2054, 2052, 2075, 3942
5828, 2634, 2632, 2633, 3810
5829, 2256, 3195, 3267, 3837
5830, 2104, 2106, 2129, 3897
5831, 473, 496, 471, 3896
5832, 2639, 3299, 3301, 3872
5833, 2379, 2380, 2268, 3838
5834, 1516, 1428, 1574, 3852
5835, 3149, 3061, 3207, 3853
5836, 2149, 2148, 2146, 3921
5837, 515, 513, 516, 3922
5838, 3256, 3225, 3040, 3844
5839, 1544, 1480, 1479, 3844
5840, 598, 1487, 1321, 3919
5841, 2954, 2231, 3120, 3920
5842, 557, 556, 558, 3870
5843, 2191, 2190, 2189, 3871
5844, 3310, 3307, 2088, 3828
5845, 1677, 1674, 455, 3827
5846, 2464, 2393, 3198, 3859
5847, 831, 760, 1565, 3860
5848, 3262, 2625, 3113, 3841
5849, 702, 397, 1460, 3774
5850, 3093, 2335, 2030, 3775
5851, 2265, 2333, 3306, 3812
5852, 1268, 561, 1437, 3868
5853, 2901, 2194, 3070, 3867
5854, 2023, 2137, 3015, 3772
5855, 2321, 2320, 2319, 3782
5856, 1276, 1434, 1280, 3857
5857, 2909, 3067, 2913, 3858
5858, 812, 756, 774, 3915
5859, 2407, 2445, 2389, 3916
5860, 2314, 2166, 3112, 3856
5861, 2498, 2568, 2956, 3821
5862, 935, 1323, 865, 3820
5863, 1292, 966, 478, 3876
5864, 1592, 1195, 820, 3856
5865, 410, 409, 408, 3768
5866, 2041, 2043, 2042, 3767
5867, 1438, 535, 477, 3893
5868, 3071, 2168, 2110, 3892
5869, 1390, 1289, 874, 3905
5870, 3023, 2922, 2507, 3904
5871, 2986, 2449, 2637, 3861
5872, 2105, 2107, 2108, 3887
5873, 474, 475, 472, 3886
5874, 1253, 527, 1540, 3828
5875, 2887, 2579, 3025, 3786
5876, 946, 1392, 1254, 3785
5877, 680, 681, 682, 3878
5878, 1397, 1601, 1619, 3892
5879, 3030, 3234, 3252, 3893
5880, 1316, 1287, 1290, 3907
5881, 2920, 2923, 2949, 3906
5882, 2985, 2521, 3309, 3875
5883, 1669, 440, 1643, 3800
5884, 2073, 3276, 3302, 3801
5885, 2885, 2315, 2318, 3881
5886, 2339, 2271, 2262, 3816
5887, 706, 638, 629, 3817
5888, 3131, 2014, 2012, 3832
5889, 379, 1498, 381, 3833
5890, 2439, 2438, 2440, 3847
5891, 805, 807, 806, 3846
5892, 881, 1396, 672, 3908
5893, 2305, 2514, 3029, 3908
5894, 436, 1520, 439, 3898
5895, 2072, 2069, 3153, 3898
5896, 674, 751, 750, 3912
5897, 1602, 821, 746, 3845
5898, 2879, 2878, 2570, 3886
5899, 1245, 937, 1246, 3887
5900, 553, 1269, 551, 3883
5901, 2184, 2186, 2902, 3882
5902, 2893, 3027, 2643, 3850
5903, 1010, 1260, 1394, 3851
5904, 2304, 3169, 2182, 3905
5905, 684, 1552, 699, 3850
5906, 3185, 2332, 2317, 3851
5907, 811, 995, 892, 3869
5908, 974, 1578, 972, 3916
5909, 2607, 3211, 2605, 3915
5910, 1625, 1599, 1293, 3863
5911, 3232, 2926, 3258, 3864
5912, 2453, 2825, 2626, 3878
5913, 3245, 3244, 2877, 3848
5914, 1612, 1611, 1244, 3849
5915, 789, 929, 1330, 3836
5916, 2562, 2963, 2422, 3835
5917, 445, 444, 1372, 3917
5918, 2077, 3005, 2078, 3918
5919, 2322, 2324, 2326, 3766
5920, 691, 693, 689, 3765
5921, 2441, 2525, 2526, 3899
5922, 1279, 1277, 1405, 3918
5923, 2912, 2910, 3038, 3917
5924, 3032, 2247, 2244, 3974
5925, 3175, 2618, 3235, 3869
5926, 1018, 1482, 893, 3911
5927, 427, 1387, 876, 3926
5928, 3242, 2881, 3150, 3896
5929, 1517, 1609, 1248, 3897
5930, 993, 1656, 1095, 3881
5931, 2155, 2983, 2152, 3888
5932, 1350, 519, 522, 3889
5933, 1174, 594, 1320, 3890
5934, 2227, 2953, 2807, 3891
5935, 2653, 3229, 2651, 3929
5936, 3330, 2645, 3325, 3849
5937, 1697, 1012, 1692, 3848
5938, 1483, 1675, 1005, 3920
5939, 3308, 2638, 3116, 3919
5940, 3274, 3277, 2628, 3845
5941, 2053, 2056, 3127, 3780
5942, 2490, 2559, 2511, 3925
5943, 1420, 1666, 1178, 3925
5944, 1613, 1380, 1088, 3950
5945, 2721, 3246, 3013, 3951
5946, 1393, 423, 425, 3791
5947, 985, 744, 890, 3899
5948, 2015, 2016, 2017, 3765
5949, 382, 383, 384, 3766
5950, 698, 1604, 690, 3832
5951, 2588, 2789, 2561, 3900
5952, 928, 955, 1156, 3901
5953, 2964, 3296, 3297, 3873
5954, 2071, 3223, 3039, 3945
5955, 2785, 2784, 2598, 3914
5956, 965, 1152, 1151, 3913
5957, 1678, 1262, 543, 3938
5958, 3053, 3052, 2303, 3952
5959, 2660, 2659, 2658, 3826
5960, 1027, 1026, 1025, 3825
5961, 2065, 2068, 2988, 3940
5962, 433, 434, 432, 3940
5963, 2035, 2033, 2034, 3894
5964, 402, 400, 401, 3895
5965, 2060, 2062, 2061, 3948
5966, 852, 851, 833, 3947
5967, 2485, 2484, 2466, 3946
5968, 2523, 2378, 2524, 3911
5969, 3278, 2308, 3085, 3909
5970, 1645, 675, 1452, 3910
5971, 394, 393, 395, 3888
5972, 2026, 2028, 2027, 3889
5973, 1081, 1458, 1419, 3956
5974, 1624, 1406, 1590, 3949
5975, 3095, 2483, 2482, 3928
5976, 1462, 850, 849, 3927
5977, 2079, 2046, 3139, 3902
5978, 413, 1504, 446, 3903
5979, 2655, 2654, 2656, 3941
5980, 891, 894, 895, 3929
5981, 1021, 1020, 1019, 3933
5982, 1295, 568, 562, 3939
5983, 2556, 2644, 2455, 3932
5984, 822, 923, 1011, 3932
5985, 437, 1286, 649, 3945
5986, 2031, 3164, 2094, 3922
5987, 398, 1531, 461, 3921
5988, 1160, 857, 1476, 3952
5989, 773, 738, 785, 3946
5990, 2371, 2418, 2406, 3947
5991, 2310, 2058, 2059, 3926
5992, 2087, 2037, 3054, 3885
5993, 404, 1421, 454, 3884
5994, 2919, 2794, 2282, 3949
5995, 2872, 3317, 2869, 3953
5996, 426, 428, 1456, 3948
5997, 2528, 3328, 2647, 3933
5998, 1684, 1695, 1013, 3941
5999, 2967, 2229, 2226, 3968
6000, 2693, 2840, 2783, 3943
6001, 1150, 1060, 1207, 3944
6002, 1037, 823, 829, 3964
6003, 2670, 2456, 2462, 3965
6004, 2295, 2412, 2349, 3975
6005, 1014, 1685, 1284, 3959
6006, 1518, 962, 695, 3923
6007, 2595, 2328, 3151, 3924
6008, 2648, 3322, 2936, 3958
6009, 1303, 1015, 1689, 3957
6010, 586, 710, 711, 3969
6011, 2343, 2344, 2219, 3970
6012, 610, 609, 607, 3760
6013, 3221, 3261, 2293, 3759
6014, 1588, 1628, 660, 3758
6015, 2396, 2397, 3184, 3977
6016, 763, 764, 1551, 3976
6017, 3203, 3254, 2788, 3950
6018, 1621, 1155, 1570, 3951
6019, 2793, 3168, 2558, 3956
6020, 2394, 2348, 2347, 3763
6021, 611, 614, 613, 3979
6022, 2508, 4345, 2622, 4936
6023, 1338, 1337, 902, 3761
6024, 1477, 618, 1082, 3934
6025, 2715, 3110, 2251, 3935
6026, 754, 898, 1523, 3994
6027, 3156, 2387, 2531, 3995
6028, 1023, 1702, 1145, 3953
6029, 1557, 1089, 1638, 3982
6030, 2722, 3271, 3190, 3983
6031, 3340, 2994, 2993, 3961
6032, 1360, 1707, 1361, 3960
6033, 2717, 2642, 3341, 3960
6034, 1009, 1708, 1084, 3961
6035, 625, 628, 626, 3930
6036, 2258, 2261, 2259, 3931
6037, 2649, 3343, 2780, 3957
6038, 1016, 1710, 1147, 3958
6039, 3337, 2779, 2652, 3959
6040, 1031, 1233, 1232, 3954
6041, 386, 1640, 573, 3924
6042, 2019, 3273, 2206, 3923
6043, 1409, 794, 1408, 3935
6044, 2427, 3041, 3042, 3934
6045, 732, 777, 655, 3966
6046, 2288, 2365, 2410, 3967
6047, 2574, 2929, 2571, 3860
6048, 938, 941, 1296, 3859
6049, 782, 718, 719, 3962
6050, 2415, 2351, 2352, 3963
6051, 1676, 889, 1679, 3968
6052, 3165, 2576, 2870, 3825
6053, 1532, 943, 1237, 3826
6054, 3315, 2424, 2990, 3764
6055, 589, 1529, 708, 3970
6056, 1429, 724, 1473, 3931
6057, 3062, 2357, 3106, 3930
6058, 1455, 1485, 1399, 3981
6059, 1378, 620, 1381, 3980
6060, 3152, 2512, 3243, 3976
6061, 1519, 879, 1610, 3977
6062, 1572, 661, 716, 3978
6063, 701, 722, 1368, 3975
6064, 651, 652, 616, 3988
6065, 2469, 3191, 3064, 3980
6066, 2243, 2240, 3072, 3973
6067, 2361, 2285, 2284, 3989
6068, 1682, 1186, 1631, 3972
6069, 3202, 3205, 2897, 3984
6070, 1431, 836, 1558, 3971
6071, 2266, 3224, 2355, 3978
6072, 575, 624, 1591, 3984
6073, 2257, 3204, 2838, 3987
6074, 2413, 3186, 2537, 4075
6075, 709, 757, 758, 3983
6076, 2390, 2391, 2342, 3982
6077, 2873, 2177, 3124, 3979
6078, 1240, 1561, 544, 3974
6079, 2004, 3183, 2006, 3998
6080, 371, 1550, 373, 3985
6081, 2552, 2601, 2578, 3992
6082, 3956, 1081, 4435, 5234
6083, 3030, 3893, 3252, 4701
6084, 1439, 1264, 1222, 3987
6085, 806, 3846, 807, 4700
6086, 811, 3869, 892, 4700
6087, 2922, 3904, 3023, 4702
6088, 2922, 4701, 3904, 4702
6089, 2419, 2356, 3287, 3999
6090, 3029, 3908, 2514, 4702
6091, 1654, 786, 723, 3993
6092, 3181, 2557, 2487, 4005
6093, 854, 1548, 924, 4004
6094, 1488, 945, 1206, 3986
6095, 1062, 1521, 839, 3967
6096, 3154, 2472, 2695, 3966
6097, 725, 1555, 696, 3990
6098, 3188, 2329, 2358, 3991
6099, 2839, 3194, 3121, 3981
6100, 828, 753, 824, 3995
6101, 2386, 2457, 2461, 3994
6102, 2354, 3962, 3075, 5467
6103, 1300, 692, 1549, 4000
6104, 2325, 3182, 2933, 4001
6105, 1442, 721, 3963, 5466
6106, 2894, 4918, 2895, 5248
6107, 1261, 4917, 1262, 5249
6108, 3553, 4015, 3487, 4758
6109, 1919, 4016, 1873, 4757
6110, 1108, 1149, 1159, 3991
6111, 2741, 2782, 2792, 3990
6112, 3861, 4352, 4167, 5160
6113, 2609, 2608, 2610, 4011
6114, 976, 975, 977, 4010
6115, 3249, 2805, 2806, 3996
6116, 1173, 1616, 1172, 3997
6117, 376, 377, 378, 3955
6118, 2011, 2009, 2010, 3954
6119, 729, 713, 1418, 3763
6120, 3051, 2362, 2346, 3762
6121, 968, 970, 1587, 4003
6122, 1043, 1632, 897, 3965
6123, 2676, 3265, 2530, 3964
6124, 3096, 3004, 2591, 3993
6125, 1278, 1314, 3843, 4823
6126, 2947, 3842, 2911, 4822
6127, 3238, 2959, 3001, 4002
6128, 1371, 958, 1463, 3999
6129, 2913, 4586, 3858, 4849
6130, 3857, 3179, 4545, 4848
6131, 3075, 2354, 2353, 3962
6132, 1442, 721, 720, 3963
6133, 2481, 4069, 2703, 5396
6134, 2712, 2713, 2503, 3988
6135, 2662, 2698, 2777, 3985
6136, 1144, 1029, 1065, 3998
6137, 2364, 2363, 3084, 4004
6138, 1451, 731, 730, 4005
6139, 1533, 1356, 1530, 4007
6140, 2989, 3163, 3166, 4008
6141, 2538, 2854, 2585, 4003
6142, 1072, 1073, 1221, 3992
6143, 4028, 2582, 4489, 4765
6144, 635, 584, 4472, 5002
6145, 2416, 2957, 2471, 3761
6146, 1691, 1708, 4266, 4672
6147, 2671, 2677, 2612, 4006
6148, 4026, 4359, 2474, 4620
6149, 2994, 3326, 1947, 4207
6150, 620, 619, 4479, 5029
6151, 3806, 4449, 4283, 5048
6152, 477, 4224, 1593, 4982
6153, 1593, 4224, 1601, 4982
6154, 3186, 4683, 4075, 4790
6155, 1079, 870, 871, 3989
6156, 2551, 4847, 4813, 5450
6157, 4108, 4681, 4014, 4854
6158, 380, 4001, 646, 5346
6159, 2013, 4000, 2279, 5345
6160, 773, 738, 3946, 5283
6161, 2371, 3947, 2406, 5282
6162, 1044, 1046, 1045, 4012
6163, 2710, 2460, 2555, 3756
6164, 1077, 827, 922, 3757
6165, 835, 787, 834, 4013
6166, 2467, 2468, 2420, 4014
6167, 2845, 3398, 4076, 5279
6168, 1765, 4077, 1212, 5280
6169, 3457, 1449, 4954, 5294
6170, 1184, 1183, 912, 4008
6171, 2817, 2816, 2545, 4007
6172, 4387, 4507, 4026, 4620
6173, 3841, 4885, 4162, 5403
6174, 2364, 2363, 4004, 5328
6175, 731, 730, 4005, 5329
6176, 2468, 4668, 4014, 4681
6177, 2378, 3911, 4381, 4706
6178, 4744, 4784, 3952, 5102
6179, 1384, 843, 1168, 4023
6180, 2476, 2801, 3017, 4024
6181, 2726, 2725, 3295, 4010
6182, 1093, 1092, 1662, 4011
6183, 1200, 4993, 722, 5073
6184, 1037, 3964, 829, 5507
6185, 2761, 3197, 2864, 4022
6186, 1564, 1231, 1128, 4021
6187, 4119, 4485, 3888, 5268
6188, 4118, 4486, 3889, 5269
6189, 1426, 717, 1251, 4014
6190, 3059, 2350, 2884, 4013
6191, 2724, 4049, 4262, 4972
6192, 364, 4259, 1204, 5148
6193, 1997, 4260, 2837, 5149
6194, 3950, 4363, 4329, 4692
6195, 3951, 4364, 4330, 4693
6196, 1610, 4329, 1620, 4363
6197, 3243, 4330, 3253, 4364
6198, 2729, 2987, 4144, 4910
6199, 778, 950, 1474, 4030
6200, 3788, 4411, 4304, 5262
6201, 3671, 3735, 3722, 4103
6202, 2426, 3187, 3159, 5135
6203, 3055, 3937, 2813, 4446
6204, 3187, 3159, 5135, 5355
6205, 4084, 2225, 4333, 5175
6206, 1837, 3430, 1875, 5199
6207, 1465, 1035, 1057, 4056
6208, 3098, 2668, 2690, 4057
6209, 1726, 1727, 1299, 4053
6210, 3359, 3360, 2932, 4054
6211, 841, 728, 842, 4020
6212, 3470, 1797, 3509, 5198
6213, 790, 932, 931, 5146
6214, 2564, 2423, 2565, 5147
6215, 3768, 4194, 4193, 5321
6216, 3767, 4195, 4192, 5322
6217, 1524, 1039, 973, 4017
6218, 3157, 2672, 2606, 4018
6219, 1177, 4740, 934, 4802
6220, 1491, 498, 492, 5264
6221, 1114, 4075, 1605, 4993
6222, 1021, 3933, 1019, 5358
6223, 3560, 3550, 3456, 4182
6224, 935, 3820, 865, 4457
6225, 675, 1452, 3910, 4908
6226, 3085, 3909, 2308, 4907
6227, 565, 589, 4477, 5164
6228, 1678, 1646, 4315, 5341
6229, 761, 714, 3762, 5512
6230, 2675, 3171, 3376, 4009
6231, 1743, 1042, 1538, 4009
6232, 4011, 4665, 4251, 5117
6233, 2426, 4155, 4988, 5135
6234, 1632, 4335, 1635, 5398
6235, 398, 3921, 4287, 5522
6236, 2031, 3922, 4288, 5521
6237, 3788, 486, 4304, 5520
6238, 839, 3967, 4391, 4839
6239, 4229, 4814, 3925, 5238
6240, 1432, 408, 654, 4150
6241, 3065, 2041, 2287, 4151
6242, 1722, 1739, 900, 4006
6243, 1854, 3080, 1825, 4432
6244, 2236, 2235, 3811, 5058
6245, 2492, 2491, 3839, 5185
6246, 787, 4631, 4013, 4751
6247, 3751, 1801, 4259, 5376
6248, 3434, 4260, 3752, 5377
6249, 667, 3793, 669, 4853
6250, 1547, 3795, 666, 4853
6251, 4075, 4993, 1114, 5324
6252, 1046, 4261, 1647, 4932
6253, 2474, 2475, 2553, 4026
6254, 2481, 5305, 4069, 5396
6255, 950, 4130, 951, 4770
6256, 875, 3767, 948, 5180
6257, 361, 5120, 4112, 5445
6258, 1439, 1264, 3987, 5332
6259, 2981, 2155, 4485, 5268
6260, 1348, 522, 4486, 5269
6261, 614, 3979, 4612, 4902
6262, 4202, 5268, 2704, 5385
6263, 3688, 2842, 4316, 4395
6264, 2952, 4089, 4493, 4765
6265, 1725, 4340, 4034, 4759
6266, 2398, 2400, 2399, 4281
6267, 767, 766, 765, 4282
6268, 3358, 4341, 4033, 4760
6269, 2937, 3264, 4072, 4512
6270, 1307, 1738, 1306, 4029
6271, 2766, 4101, 4275, 5049
6272, 2004, 2842, 3183, 4395
6273, 564, 588, 1566, 4477
6274, 2197, 2221, 3199, 4476
6275, 2183, 2169, 2182, 4471
6276, 1175, 1658, 1330, 4474
6277, 3291, 2963, 2808, 4473
6278, 2304, 2306, 3103, 4478
6279, 588, 565, 589, 4477
6280, 636, 635, 584, 4472
6281, 2189, 2188, 2187, 4464
6282, 555, 554, 556, 4465
6283, 2823, 2657, 2659, 4475
6284, 1252, 682, 685, 4468
6285, 2422, 2580, 2280, 4467
6286, 789, 947, 647, 4466
6287, 1208, 1150, 454, 4470
6288, 2783, 2087, 2841, 4469
6289, 617, 620, 619, 4479
6290, 617, 618, 615, 4479
6291, 1208, 1583, 1462, 4470
6292, 2841, 3216, 3095, 4469
6293, 2673, 2734, 3354, 4031
6294, 1721, 1040, 1101, 4032
6295, 858, 4307, 3840, 4348
6296, 3557, 4035, 3560, 5132
6297, 1166, 4426, 1168, 4780
6298, 1757, 4041, 1115, 4320
6299, 3390, 4042, 2748, 4321
6300, 1995, 1885, 1829, 4710
6301, 3483, 362, 3521, 4711
6302, 2075, 3942, 4383, 5295
6303, 1667, 4212, 4768, 4922
6304, 4213, 4769, 3300, 4923
6305, 3370, 3368, 3167, 4017
6306, 1737, 1735, 1534, 4018
6307, 2679, 3362, 3361, 4019
6308, 3364, 3363, 4143, 5131
6309, 2438, 3847, 4660, 4885
6310, 2801, 2799, 4427, 4781
6311, 2879, 2880, 3150, 5138
6312, 2393, 4489, 2278, 5248
6313, 645, 760, 4488, 5249
6314, 4235, 4586, 3858, 4888
6315, 823, 3964, 5275, 5307
6316, 978, 4178, 4649, 5193
6317, 4326, 4695, 3904, 4926
6318, 4325, 4694, 3905, 4925
6319, 3454, 4079, 1377, 4764
6320, 1280, 3857, 4378, 5088
6321, 1243, 380, 646, 5346
6322, 2876, 2013, 2279, 5345
6323, 2038, 4406, 3770, 4880
6324, 405, 4407, 3771, 4881
6325, 3219, 4330, 3243, 4851
6326, 1586, 4329, 1610, 4850
6327, 3948, 4430, 2060, 4783
6328, 2949, 4944, 4242, 5347
6329, 1316, 4943, 4243, 5348
6330, 483, 3879, 482, 5262
6331, 4134, 4211, 3791, 5102
6332, 416, 3769, 1594, 4934
6333, 4253, 4833, 4023, 5505
6334, 4360, 4512, 3887, 4774
6335, 830, 1317, 949, 4027
6336, 2582, 2463, 2950, 4028
6337, 1731, 1730, 1038, 4025
6338, 4254, 4834, 4024, 5506
6339, 2550, 4144, 2696, 4799
6340, 1157, 769, 1158, 5462
6341, 1126, 4209, 1769, 5297
6342, 2374, 4204, 2109, 4822
6343, 741, 4203, 476, 4823
6344, 3641, 4053, 5143, 5389
6345, 406, 4908, 675, 5158
6346, 2039, 4907, 2308, 5159
6347, 2155, 2982, 5108, 5268
6348, 1349, 5107, 522, 5269
6349, 925, 4358, 4211, 5102
6350, 1440, 1660, 4284, 5499
6351, 715, 3762, 714, 5512
6352, 1315, 3769, 4279, 5180
6353, 1948, 4215, 3353, 4843
6354, 956, 957, 1097, 4024
6355, 2589, 2590, 2730, 4023
6356, 3710, 1956, 3704, 4852
6357, 983, 4722, 4155, 5156
6358, 2616, 4723, 4156, 5157
6359, 664, 4716, 4167, 5160
6360, 3759, 4991, 4251, 5071
6361, 2929, 3860, 5142, 5405
6362, 3538, 3536, 3507, 4079
6363, 2114, 4134, 2112, 5295
6364, 779, 916, 780, 4002
6365, 1041, 1741, 1740, 4019
6366, 4044, 4832, 4445, 5344
6367, 3289, 4334, 3310, 4947
6368, 2468, 4014, 2467, 4681
6369, 2542, 2739, 2740, 4021
6370, 909, 1106, 1107, 4022
6371, 4041, 4344, 4442, 5094
6372, 4042, 4343, 4441, 5093
6373, 946, 687, 5005, 5517
6374, 1580, 1725, 1098, 4034
6375, 4104, 4736, 1733, 5233
6376, 4213, 4693, 3951, 4856
6377, 4212, 4692, 3950, 4855
6378, 4072, 4512, 3264, 5092
6379, 3763, 729, 5076, 5271
6380, 1196, 1198, 942, 4059
6381, 2831, 2575, 2829, 4060
6382, 4071, 4278, 3495, 5300
6383, 1061, 4391, 4069, 4839
6384, 1597, 5050, 1085, 5281
6385, 918, 4402, 1125, 4874
6386, 3120, 3920, 4382, 4511
6387, 1016, 4328, 3958, 5351
6388, 4227, 4572, 3881, 4792
6389, 3851, 4572, 4227, 4792
6390, 2416, 2957, 3761, 4437
6391, 3006, 4301, 3037, 5309
6392, 2727, 2636, 4205, 4334
6393, 3213, 3358, 2731, 4033
6394, 2177, 4310, 3979, 5032
6395, 3176, 3365, 3364, 4029
6396, 3615, 3653, 3616, 4104
6397, 2472, 3966, 3154, 4816
6398, 2872, 3953, 2869, 4480
6399, 558, 556, 1567, 4465
6400, 2191, 2189, 3200, 4464
6401, 789, 860, 929, 4466
6402, 2493, 2562, 2422, 4467
6403, 681, 683, 682, 4468
6404, 684, 683, 1552, 4468
6405, 2482, 2597, 3095, 4469
6406, 1462, 849, 964, 4470
6407, 2255, 2304, 2182, 4471
6408, 821, 747, 746, 4472
6409, 1330, 947, 789, 4474
6410, 2580, 2422, 2963, 4473
6411, 618, 630, 1082, 4479
6412, 1512, 630, 619, 4479
6413, 564, 538, 539, 4477
6414, 2172, 2197, 2171, 4476
6415, 2255, 2304, 4471, 4478
6416, 635, 747, 1562, 4472
6417, 3071, 2255, 2168, 4471
6418, 2255, 2514, 2305, 4478
6419, 4052, 5251, 4447, 5352
6420, 1177, 4740, 4802, 5419
6421, 443, 3858, 447, 4888
6422, 2076, 3857, 2080, 4889
6423, 1629, 3831, 623, 4884
6424, 3112, 2314, 3856, 4885
6425, 2146, 3921, 2148, 4886
6426, 515, 513, 3922, 4887
6427, 2321, 3782, 2319, 4899
6428, 463, 459, 3865, 4892
6429, 3258, 3864, 2926, 4895
6430, 1625, 3863, 1293, 4894
6431, 3308, 2638, 3919, 4890
6432, 1697, 1012, 3848, 4898
6433, 607, 610, 3760, 4903
6434, 1485, 3981, 1455, 4906
6435, 1233, 3954, 1031, 4911
6436, 544, 3974, 1561, 4905
6437, 2839, 3194, 3981, 4904
6438, 3917, 4586, 4235, 4888
6439, 4302, 4394, 4188, 4495
6440, 3666, 4135, 327, 5134
6441, 4121, 4425, 3762, 4707
6442, 650, 4258, 480, 4876
6443, 4237, 4595, 3959, 5153
6444, 1326, 1325, 825, 4037
6445, 3173, 3827, 2886, 5385
6446, 2365, 3967, 2288, 5392
6447, 1621, 3951, 4693, 4856
6448, 3254, 3950, 4692, 4855
6449, 872, 918, 873, 4026
6450, 3887, 4360, 4204, 4512
6451, 2610, 4251, 2611, 5071
6452, 2166, 2313, 4232, 5070
6453, 2885, 4232, 2313, 5070
6454, 633, 701, 4247, 5073
6455, 2239, 2240, 4249, 5072
6456, 2611, 4251, 3261, 5071
6457, 2052, 4383, 3942, 5053
6458, 2980, 2887, 4202, 5385
6459, 1313, 1736, 1311, 4031
6460, 2946, 3369, 2944, 4032
6461, 2798, 2799, 2502, 4062
6462, 1166, 869, 1165, 4063
6463, 491, 4399, 3792, 5520
6464, 1020, 4226, 1018, 5089
6465, 3476, 1767, 4182, 5337
6466, 3413, 1823, 1943, 4275
6467, 4078, 4993, 4353, 5324
6468, 2744, 4094, 2742, 4368
6469, 1109, 1111, 4093, 4367
6470, 727, 4558, 3834, 4733
6471, 3875, 4598, 2521, 4755
6472, 4275, 4402, 4101, 4958
6473, 1024, 4721, 5161, 5313
6474, 2505, 2506, 2504, 4020
6475, 3374, 4105, 3373, 5400
6476, 3678, 4263, 320, 4969
6477, 3792, 4294, 2428, 5406
6478, 1550, 3985, 371, 4482
6479, 4109, 4806, 4221, 5424
6480, 4813, 4847, 4255, 5450
6481, 4106, 4374, 3799, 4953
6482, 3027, 4380, 3850, 4706
6483, 2566, 3839, 2491, 5449
6484, 2929, 4300, 3860, 5405
6485, 1366, 3754, 1749, 4937
6486, 2999, 3753, 3382, 4939
6487, 649, 3945, 4336, 5464
6488, 1200, 1605, 722, 4993
6489, 4103, 1704, 4369, 5351
6490, 795, 3793, 4293, 5408
6491, 2575, 2829, 4060, 4650
6492, 3703, 4264, 4480, 5134
6493, 4271, 4805, 346, 5078
6494, 1733, 1732, 4104, 5233
6495, 1466, 4015, 1370, 4356
6496, 1004, 4348, 818, 5065
6497, 761, 715, 714, 5512
6498, 3003, 3099, 4016, 4357
6499, 3276, 5051, 3290, 5253
6500, 3785, 5005, 4168, 5082
6501, 1361, 3960, 1707, 4956
6502, 414, 3807, 417, 4743
6503, 856, 4431, 855, 5408
6504, 2166, 4232, 2161, 5007
6505, 3170, 4241, 3145, 5008
6506, 1512, 1537, 4240, 5009
6507, 1433, 462, 4223, 4998
6508, 1281, 4225, 1434, 5000
6509, 1718, 1036, 1717, 4033
6510, 740, 3891, 1008, 5451
6511, 2722, 3983, 3190, 4487
6512, 700, 4247, 701, 5026
6513, 762, 4138, 5381, 5512
6514, 1405, 3918, 1277, 4983
6515, 3076, 3797, 2425, 5413
6516, 2766, 4275, 4101, 4958
6517, 2703, 4448, 2759, 5396
6518, 3345, 2773, 2770, 4681
6519, 676, 3811, 632, 5308
6520, 2669, 3350, 3351, 4034
6521, 4071, 4699, 357, 5300
6522, 4169, 5161, 4721, 5313
6523, 3809, 4338, 4200, 5332
6524, 543, 4147, 500, 5411
6525, 3869, 3175, 4381, 4713
6526, 3908, 672, 4377, 4714
6527, 973, 4017, 1039, 4878
6528, 2428, 3792, 2300, 4825
6529, 1708, 1084, 3961, 4672
6530, 3991, 4093, 4413, 4742
6531, 3990, 4094, 4414, 4741
6532, 3458, 4764, 310, 5318
6533, 2589, 4023, 4833, 5505
6534, 1239, 4754, 4102, 5498
6535, 810, 741, 3835, 4869
6536, 2374, 3836, 2443, 4868
6537, 3338, 3704, 1956, 4852
6538, 1990, 3108, 1860, 5410
6539, 3286, 4242, 2949, 4944
6540, 1653, 4243, 1316, 4943
6541, 4119, 4485, 2981, 5385
6542, 956, 4024, 4834, 5506
6543, 607, 3760, 609, 4835
6544, 3230, 2617, 3813, 4953
6545, 3271, 3261, 4251, 4991
6546, 843, 4023, 4639, 4780
6547, 2729, 3387, 2987, 4910
6548, 1277, 4983, 3918, 5088
6549, 1532, 3826, 1237, 4812
6550, 2476, 4024, 4640, 4781
6551, 1921, 4043, 1924, 5136
6552, 2849, 2848, 4099, 4354
6553, 1216, 1215, 4100, 4355
6554, 1331, 3874, 1663, 5412
6555, 3938, 4688, 4147, 4921
6556, 1532, 3826, 4812, 4831
6557, 3372, 4025, 2941, 5446
6558, 2230, 3818, 4382, 5478
6559, 4195, 5097, 4501, 5157
6560, 3569, 4187, 3525, 5152
6561, 1936, 4186, 1890, 5151
6562, 969, 4107, 1386, 5155
6563, 3913, 965, 4386, 5476
6564, 3914, 2598, 4385, 5477
6565, 1571, 4905, 4248, 5115
6566, 3492, 3557, 4356, 5337
6567, 3893, 4377, 535, 4883
6568, 3591, 4105, 3644, 4872
6569, 4605, 4802, 3840, 5423
6570, 2344, 3970, 4487, 4933
6571, 2175, 3192, 3760, 5417
6572, 420, 3780, 421, 5415
6573, 2940, 4104, 2942, 5500
6574, 3911, 2523, 4381, 5192
6575, 2618, 3869, 4381, 5192
6576, 3869, 2618, 4384, 5192
6577, 2648, 3958, 4384, 5192
6578, 4445, 4832, 4188, 5344
6579, 2282, 2919, 3949, 5489
6580, 3907, 1290, 4943, 5101
6581, 3906, 2923, 4944, 5100
6582, 1643, 5054, 5052, 5178
6583, 430, 428, 4133, 5087
6584, 3235, 3869, 4384, 5524
6585, 4647, 5115, 4249, 5287
6586, 1683, 1627, 3937, 5464
6587, 3538, 3454, 3536, 4079
6588, 1251, 4014, 4642, 4770
6589, 3987, 4338, 3204, 4904
6590, 3002, 3022, 2473, 4063
6591, 840, 1369, 1389, 4062
6592, 2549, 4037, 2972, 5409
6593, 3036, 1947, 3326, 4207
6594, 4194, 5135, 4500, 5156
6595, 2107, 3887, 2105, 4859
6596, 474, 3886, 472, 4858
6597, 3354, 4031, 2734, 4497
6598, 2399, 4281, 3997, 5370
6599, 766, 4282, 3996, 5369
6600, 1007, 1665, 3805, 5499
6601, 2201, 3938, 2195, 5405
6602, 954, 1333, 3787, 5408
6603, 2966, 3788, 2587, 5406
6604, 2720, 2147, 2163, 5034
6605, 530, 1087, 514, 5033
6606, 2335, 4408, 3775, 5048
6607, 473, 496, 3896, 5411
6608, 1091, 1650, 4048, 4510
6609, 2288, 3967, 2410, 4862
6610, 1643, 3800, 5052, 5054
6611, 2453, 3878, 4380, 4773
6612, 3310, 4334, 3828, 4947
6613, 1609, 4297, 639, 4350
6614, 3242, 4298, 2272, 4351
6615, 3926, 4305, 1387, 5415
6616, 1265, 384, 573, 5145
6617, 2017, 2206, 2898, 5144
6618, 654, 4150, 408, 4407
6619, 2287, 4151, 2041, 4406
6620, 523, 4486, 524, 4863
6621, 4102, 4771, 4436, 4812
6622, 3878, 2626, 4380, 5310
6623, 1289, 3905, 4376, 5311
6624, 1390, 4376, 3905, 5312
6625, 2635, 2639, 4484, 4875
6626, 2132, 3795, 4310, 5417
6627, 2058, 4308, 3926, 4515
6628, 373, 4992, 4176, 5163
6629, 2344, 4487, 3208, 5046
6630, 725, 4311, 694, 4741
6631, 2327, 2358, 4312, 4742
6632, 2519, 2408, 4044, 4516
6633, 1067, 4049, 1066, 4514
6634, 2700, 4048, 2699, 4513
6635, 2836, 4045, 2835, 4515
6636, 1746, 3492, 311, 4356
6637, 1843, 4114, 1904, 5302
6638, 3444, 4113, 3558, 5303
6639, 1076, 4854, 4108, 4971
6640, 3019, 4145, 2552, 4813
6641, 2330, 2364, 4179, 5328
6642, 697, 731, 4180, 5329
6643, 769, 3942, 418, 5462
6644, 4202, 4589, 3786, 5263
6645, 343, 1130, 1132, 4114
6646, 2765, 1976, 2763, 4113
6647, 3989, 2284, 4620, 4775
6648, 768, 766, 767, 3996
6649, 2401, 2399, 2400, 3997
6650, 2519, 4044, 3068, 5277
6651, 2433, 3771, 2432, 4936
6652, 800, 3770, 799, 4935
6653, 3578, 3377, 1972, 4801
6654, 339, 3580, 1744, 4800
6655, 4111, 4403, 4036, 4874
6656, 1643, 5052, 1657, 5178
6657, 4404, 5474, 3053, 5483
6658, 525, 4205, 4524, 5170
6659, 3299, 4404, 3053, 5483
6660, 4158, 4725, 647, 5515
6661, 4157, 4724, 2280, 5516
6662, 4163, 4718, 2169, 5514
6663, 2823, 4720, 4170, 5518
6664, 2155, 2983, 3888, 5108
6665, 522, 1350, 3889, 5107
6666, 3411, 4086, 2858, 5084
6667, 1778, 4085, 1225, 5085
6668, 2397, 3977, 4281, 5370
6669, 764, 3976, 4282, 5369
6670, 414, 4504, 3807, 4743
6671, 1313, 4031, 1311, 4676
6672, 4162, 4885, 3847, 4986
6673, 2330, 2364, 2369, 4179
6674, 736, 697, 731, 4180
6675, 3985, 4317, 371, 4482
6676, 2577, 3105, 4302, 4394
6677, 759, 4488, 949, 4864
6678, 2548, 4101, 2584, 5416
6679, 2392, 4489, 2582, 4865
6680, 3002, 3022, 4063, 4651
6681, 1369, 1389, 4062, 4652
6682, 1599, 3863, 1625, 4461
6683, 3232, 3864, 3258, 4462
6684, 3146, 2203, 3808, 4463
6685, 1584, 3872, 1085, 5050
6686, 440, 1643, 3800, 5052
6687, 3276, 3801, 2073, 5051
6688, 3300, 4364, 4213, 4923
6689, 1667, 4363, 4212, 4922
6690, 2330, 2369, 3151, 4179
6691, 736, 1518, 697, 4180
6692, 3814, 1189, 4279, 5067
6693, 3379, 1824, 1944, 4357
6694, 1180, 3936, 1422, 5419
6695, 3055, 2813, 3937, 5420
6696, 3935, 1409, 4735, 4738
6697, 3967, 1062, 4339, 4839
6698, 1481, 4289, 3795, 4588
6699, 2149, 4285, 3921, 4582
6700, 516, 4286, 3922, 4581
6701, 397, 3774, 4287, 4526
6702, 3775, 4288, 2030, 4525
6703, 3684, 4482, 4136, 5357
6704, 2159, 3824, 4301, 4557
6705, 3006, 3798, 4302, 4536
6706, 2118, 4303, 3793, 4594
6707, 3822, 4313, 960, 4627
6708, 3856, 5007, 4232, 5070
6709, 695, 4311, 3923, 4610
6710, 2328, 4312, 3924, 4611
6711, 2569, 4592, 4203, 5259
6712, 3859, 4314, 3198, 4521
6713, 3860, 4315, 1565, 4520
6714, 3578, 1972, 3611, 4801
6715, 3580, 339, 3603, 4800
6716, 1824, 1921, 4357, 5372
6717, 1916, 4036, 1854, 4432
6718, 2670, 3965, 2462, 5448
6719, 4087, 4752, 4128, 5194
6720, 4088, 4753, 4129, 5195
6721, 4247, 5026, 3975, 5073
6722, 3813, 3230, 4953, 5274
6723, 3184, 4385, 4692, 5285
6724, 1551, 4386, 4693, 5286
6725, 3641, 5143, 3622, 5389
6726, 2520, 4687, 2631, 5413
6727, 3311, 3939, 2895, 5508
6728, 2990, 3315, 3764, 5335
6729, 1362, 818, 859, 4730
6730, 1002, 1670, 1362, 4730
6731, 4237, 5141, 1014, 5213
6732, 1426, 4854, 1076, 4971
6733, 2617, 4375, 3813, 4953
6734, 1646, 1184, 4315, 5341
6735, 4433, 4896, 3844, 4978
6736, 3224, 3978, 2266, 5069
6737, 3549, 3505, 4128, 4481
6738, 3792, 4379, 2300, 4825
6739, 2952, 4089, 4765, 4871
6740, 1491, 4735, 1240, 5264
6741, 3886, 472, 4858, 5244
6742, 1773, 1929, 336, 4451
6743, 1397, 3892, 4376, 4982
6744, 1438, 4377, 3893, 4982
6745, 2344, 2219, 3970, 4933
6746, 2362, 2346, 3762, 4933
6747, 1132, 343, 4114, 5302
6748, 2765, 1976, 4113, 5303
6749, 2992, 1947, 3675, 4920
6750, 4198, 3898, 4762, 5088
6751, 3557, 3560, 4035, 5337
6752, 1900, 4083, 1850, 5526
6753, 1948, 4843, 2946, 5080
6754, 3360, 4319, 4054, 5448
6755, 3874, 4989, 4197, 5412
6756, 1342, 4082, 4460, 4919
6757, 3792, 2428, 5201, 5406
6758, 1048, 5133, 1140, 5184
6759, 2419, 3999, 3287, 5465
6760, 1532, 1699, 4170, 4812
6761, 4272, 5401, 4176, 5511
6762, 2632, 3810, 4290, 5413
6763, 1160, 3952, 4744, 4784
6764, 3965, 5258, 5046, 5448
6765, 3787, 4722, 4431, 4988
6766, 2860, 1994, 4124, 5130
6767, 4036, 2844, 4432, 4438
6768, 4117, 4423, 2787, 5349
6769, 4116, 4422, 1154, 5350
6770, 455, 3827, 1674, 5263
6771, 1675, 4239, 1351, 5173
6772, 428, 429, 430, 4133
6773, 429, 1422, 430, 4133
6774, 2112, 3091, 3092, 4134
6775, 1700, 327, 1711, 4135
6776, 3333, 3344, 2698, 4136
6777, 2480, 4455, 4067, 5317
6778, 847, 4456, 4065, 5316
6779, 1816, 1899, 4804, 5265
6780, 3154, 3966, 2695, 4483
6781, 3436, 2952, 2951, 4089
6782, 320, 4263, 3678, 5250
6783, 524, 521, 3801, 4486
6784, 2157, 2154, 3800, 4485
6785, 2639, 3872, 3301, 4484
6786, 2344, 3970, 2343, 4487
6787, 2315, 4572, 3881, 5070
6788, 3186, 2738, 2537, 4683
6789, 3256, 4896, 2267, 4978
6790, 4060, 4124, 4448, 4767
6791, 1874, 4129, 1917, 4496
6792, 934, 4740, 4152, 4802
6793, 3180, 3794, 3114, 5453
6794, 572, 3764, 592, 5452
6795, 3011, 3971, 2253, 5454
6796, 3351, 2733, 4882, 5389
6797, 3176, 4029, 3364, 4879
6798, 4514, 4590, 3770, 4880
6799, 4513, 4591, 3771, 4881
6800, 2714, 4211, 2594, 4783
6801, 1197, 361, 4112, 5445
6802, 587, 4326, 3906, 4717
6803, 2220, 4325, 3907, 4718
6804, 4122, 4424, 3763, 4712
6805, 2735, 3423, 2736, 4112
6806, 1717, 4033, 1036, 4505
6807, 1363, 4618, 4081, 5267
6808, 2996, 4617, 4080, 5266
6809, 4487, 4933, 4219, 5046
6810, 446, 4500, 1461, 5321
6811, 3094, 2079, 4501, 5322
6812, 2046, 2045, 4499, 5322
6813, 4019, 2679, 4975, 5258
6814, 2656, 3941, 2654, 5254
6815, 4309, 4558, 3968, 4909
6816, 1543, 975, 4318, 5193
6817, 3761, 2416, 4437, 4458
6818, 3350, 4034, 2669, 4506
6819, 1714, 325, 1893, 4766
6820, 1861, 1896, 1932, 4038
6821, 4516, 4866, 4044, 5066
6822, 4195, 3909, 5097, 5157
6823, 2054, 3942, 2075, 5295
6824, 900, 4006, 4665, 5079
6825, 2868, 4395, 4135, 4928
6826, 2519, 4516, 4044, 5066
6827, 1067, 4049, 4514, 5067
6828, 2700, 4048, 4513, 5068
6829, 412, 4504, 413, 5321
6830, 3225, 3844, 3256, 4773
6831, 1871, 1813, 3160, 5216
6832, 1836, 4804, 4398, 5410
6833, 3411, 2751, 5061, 5084
6834, 1778, 1118, 5062, 5085
6835, 2244, 3974, 2247, 4635
6836, 4192, 4499, 2045, 5322
6837, 1101, 4032, 4420, 5154
6838, 2348, 2347, 3763, 4712
6839, 1718, 4033, 4800, 4811
6840, 1080, 4074, 1576, 4734
6841, 2522, 4052, 2417, 4756
6842, 1590, 3949, 4337, 4609
6843, 2278, 4489, 4122, 5248
6844, 645, 4488, 4121, 5249
6845, 4078, 4817, 4353, 4993
6846, 3533, 3529, 3510, 4731
6847, 741, 4203, 4823, 4869
6848, 4204, 4822, 2374, 4868
6849, 4188, 4516, 3796, 5344
6850, 2404, 2405, 4196, 4953
6851, 1640, 1266, 573, 4331
6852, 2206, 3273, 2899, 4332
6853, 1420, 3925, 1178, 4814
6854, 3271, 3190, 3983, 4715
6855, 1602, 3845, 746, 5230
6856, 1612, 3849, 1244, 5229
6857, 1573, 1537, 3803, 5228
6858, 3170, 3804, 3206, 5227
6859, 1031, 3954, 1232, 5226
6860, 949, 830, 4027, 4488
6861, 2463, 4028, 2582, 4489
6862, 3945, 4280, 649, 5074
6863, 3536, 3507, 4079, 4964
6864, 1420, 3925, 4814, 5238
6865, 1140, 4083, 4454, 5252
6866, 4194, 3910, 5135, 5156
6867, 1632, 1043, 1635, 4335
6868, 3400, 4183, 1863, 5372
6869, 1778, 4085, 1224, 5360
6870, 2857, 3411, 4086, 5359
6871, 1000, 5013, 999, 5054
6872, 1332, 949, 4761, 4864
6873, 3239, 4290, 2632, 4978
6874, 3100, 4182, 2753, 4803
6875, 768, 766, 3996, 5369
6876, 2399, 3997, 2401, 5370
6877, 2612, 4006, 2677, 4715
6878, 1991, 3412, 3494, 4278
6879, 1803, 1319, 1318, 4097
6880, 3307, 3828, 3310, 5253
6881, 4408, 4590, 3894, 4985
6882, 4409, 4591, 3895, 4984
6883, 4801, 4882, 4340, 5389
6884, 1120, 1467, 4183, 4806
6885, 397, 3774, 702, 5522
6886, 2030, 3775, 2335, 5521
6887, 485, 491, 3792, 5520
6888, 2397, 4692, 3977, 5370
6889, 764, 4693, 3976, 5369
6890, 3809, 4835, 4338, 5332
6891, 4131, 4252, 3964, 5307
6892, 4027, 2859, 4650, 4952
6893, 978, 4649, 977, 5193
6894, 2702, 2797, 2796, 4390
6895, 1163, 1069, 1164, 4389
6896, 2856, 2857, 5149, 5359
6897, 1223, 1224, 5148, 5360
6898, 3686, 1980, 4265, 4968
6899, 1376, 4764, 1059, 5379
6900, 1387, 4305, 3926, 5099
6901, 4152, 3840, 4802, 5423
6902, 4097, 4761, 1319, 4877
6903, 2632, 2631, 5128, 5413
6904, 2809, 3143, 2225, 5175
6905, 3750, 3573, 3432, 5363
6906, 3749, 1939, 1799, 5362
6907, 2718, 4697, 4152, 5274
6908, 4228, 4664, 3899, 4986
6909, 1647, 4261, 4131, 4932
6910, 4335, 4967, 4319, 5375
6911, 3772, 4201, 4118, 5269
6912, 4044, 4188, 4832, 5344
6913, 4044, 4516, 4188, 5344
6914, 3807, 4184, 4743, 5053
6915, 1900, 1850, 4083, 5356
6916, 4078, 4683, 2738, 5482
6917, 3993, 4639, 4253, 5024
6918, 4204, 4360, 3890, 4840
6919, 3999, 4640, 4254, 5023
6920, 3686, 4265, 1980, 4979
6921, 3499, 3466, 1969, 4493
6922, 3424, 1943, 1823, 4275
6923, 3219, 4330, 4851, 5240
6924, 1586, 4329, 4850, 5241
6925, 767, 4282, 765, 5466
6926, 2400, 4281, 2398, 5467
6927, 3450, 3755, 1950, 4772
6928, 549, 4883, 4377, 5510
6929, 4057, 1242, 4981, 5085
6930, 2875, 4980, 4056, 5084
6931, 4414, 4633, 3765, 5003
6932, 4413, 4632, 3766, 5004
6933, 1219, 4100, 1215, 4800
6934, 2852, 4099, 2848, 4801
6935, 1370, 1788, 4356, 4652
6936, 1397, 1601, 3892, 4982
6937, 477, 1438, 3893, 4982
6938, 4733, 4826, 4058, 4862
6939, 432, 3940, 4280, 5087
6940, 4102, 4436, 4136, 5513
6941, 970, 4003, 968, 4817
6942, 1102, 1790, 1103, 4124
6943, 4120, 4428, 3983, 4715
6944, 3421, 4357, 3003, 4651
6945, 3349, 4128, 2890, 4752
6946, 1716, 4129, 1257, 4753
6947, 2981, 4485, 4119, 5268
6948, 1348, 4486, 4118, 5269
6949, 4226, 4580, 3849, 5229
6950, 4244, 4613, 3954, 5226
6951, 3845, 4602, 4238, 5230
6952, 2471, 3761, 2957, 4910
6953, 3782, 2319, 4899, 5261
6954, 3056, 3913, 2720, 5240
6955, 1423, 3914, 1087, 5241
6956, 1675, 3920, 1483, 5239
6957, 1666, 3925, 1420, 5238
6958, 1707, 3960, 1360, 5242
6959, 4280, 4405, 3945, 5371
6960, 3828, 4947, 4201, 5301
6961, 2403, 4746, 4132, 4921
6962, 2219, 4425, 3970, 4933
6963, 2980, 2886, 2887, 5385
6964, 1246, 3887, 937, 5503
6965, 4030, 4619, 778, 4786
6966, 2450, 3123, 2563, 5185
6967, 4266, 4852, 3672, 4920
6968, 910, 911, 1102, 4060
6969, 2543, 2544, 2735, 4059
6970, 2976, 4709, 4110, 5409
6971, 2220, 3907, 3218, 5496
6972, 1585, 587, 3906, 5497
6973, 4188, 4394, 3821, 4495
6974, 4244, 4648, 3954, 4995
6975, 3973, 2240, 5072, 5081
6976, 2412, 3975, 4616, 4790
6977, 823, 829, 3964, 5307
6978, 1587, 968, 4003, 5361
6979, 4028, 1226, 4517, 4961
6980, 4006, 4879, 2671, 4975
6981, 1236, 1239, 4102, 5498
6982, 2530, 2676, 3964, 5368
6983, 1474, 4619, 4030, 4770
6984, 431, 1683, 1456, 4372
6985, 2965, 2582, 4765, 4865
6986, 3707, 4395, 3731, 4970
6987, 313, 1832, 1880, 5526
6988, 2978, 4140, 2687, 5410
6989, 2864, 2761, 4022, 5279
6990, 1231, 1128, 4021, 5280
6991, 1940, 1889, 1827, 4355
6992, 3461, 3572, 3524, 4354
6993, 331, 1525, 1122, 4042
6994, 1964, 3158, 2755, 4041
6995, 3296, 2882, 3297, 5047
6996, 2794, 2882, 2619, 5047
6997, 3546, 3467, 4481, 5215
6998, 1135, 1136, 4454, 5252
6999, 2546, 3378, 4087, 5194
7000, 913, 1745, 4088, 5195
7001, 1806, 4076, 1766, 5166
7002, 3399, 3439, 4077, 5165
7003, 3711, 3331, 3344, 5075
7004, 3711, 3667, 3331, 5075
7005, 3337, 2779, 3959, 5455
7006, 3118, 2706, 3986, 5502
7007, 2956, 2498, 3821, 5393
7008, 1651, 4048, 1650, 4881
7009, 3284, 4049, 3283, 4880
7010, 4439, 4734, 4061, 4751
7011, 437, 439, 4235, 5074
7012, 2583, 4061, 2411, 5416
7013, 4054, 4335, 1723, 4811
7014, 3194, 3981, 4904, 5032
7015, 1752, 4481, 4090, 5125
7016, 1295, 4299, 3939, 4689
7017, 1306, 1307, 4029, 5388
7018, 1359, 1360, 1361, 4400
7019, 4478, 5257, 4174, 5312
7020, 1074, 1124, 4255, 5519
7021, 881, 1397, 4376, 4982
7022, 1438, 881, 4377, 4982
7023, 3926, 1387, 5234, 5415
7024, 3974, 4615, 3032, 4775
7025, 1969, 3406, 3499, 4493
7026, 2917, 4277, 4103, 5196
7027, 3733, 4102, 3699, 5498
7028, 434, 4337, 436, 5074
7029, 586, 3969, 711, 5076
7030, 729, 713, 3763, 5076
7031, 2836, 4045, 4515, 4873
7032, 2265, 3812, 4503, 4552
7033, 3722, 4103, 3735, 5304
7034, 3306, 2265, 3812, 5225
7035, 1479, 3844, 1480, 5224
7036, 3385, 4496, 4098, 5121
7037, 2315, 3881, 2885, 5070
7038, 2166, 3856, 2314, 5070
7039, 3261, 3759, 3221, 5071
7040, 722, 3975, 701, 5073
7041, 3072, 3973, 2240, 5072
7042, 575, 3984, 1591, 5073
7043, 2897, 3202, 3984, 5072
7044, 2370, 4051, 2423, 5147
7045, 737, 4050, 790, 5146
7046, 544, 3974, 4905, 5264
7047, 671, 3904, 1536, 5510
7048, 2866, 3955, 2865, 5511
7049, 4253, 4667, 3816, 5024
7050, 1187, 4049, 1067, 5067
7051, 4254, 4666, 3817, 5023
7052, 1018, 3911, 893, 5089
7053, 2609, 4011, 2610, 5071
7054, 1658, 1321, 1614, 5160
7055, 1025, 1145, 1700, 5161
7056, 1421, 406, 675, 5158
7057, 3054, 2039, 2308, 5159
7058, 1452, 1461, 1156, 5156
7059, 3085, 3094, 2789, 5157
7060, 3887, 4461, 4361, 5503
7061, 2925, 3877, 2599, 5514
7062, 688, 3781, 687, 5517
7063, 2081, 3830, 2082, 5516
7064, 448, 3829, 449, 5515
7065, 2331, 2323, 3833, 5518
7066, 1682, 3972, 1631, 5380
7067, 2506, 4020, 2505, 5450
7068, 3216, 2841, 3278, 5159
7069, 1208, 1645, 1583, 5158
7070, 549, 535, 4377, 4883
7071, 4358, 4372, 4046, 4783
7072, 1860, 4038, 1932, 4709
7073, 758, 3983, 757, 5079
7074, 1859, 4036, 1447, 5129
7075, 1016, 3958, 1147, 5351
7076, 3760, 607, 4903, 5332
7077, 2753, 4803, 4182, 5137
7078, 4223, 4661, 3866, 4999
7079, 3855, 4662, 4223, 4999
7080, 4225, 4662, 3855, 5001
7081, 3788, 4723, 4411, 4987
7082, 4412, 4724, 3873, 4990
7083, 2432, 3771, 4530, 4936
7084, 799, 3770, 4529, 4935
7085, 1835, 4496, 1911, 5216
7086, 2674, 4012, 3355, 5525
7087, 1424, 4101, 1135, 4402
7088, 3983, 3190, 4487, 4715
7089, 2700, 2820, 4048, 4972
7090, 4219, 4487, 3970, 4933
7091, 4003, 4438, 4107, 4817
7092, 3368, 4017, 3370, 5500
7093, 1472, 4044, 642, 4866
7094, 1924, 4043, 1921, 5372
7095, 1548, 4331, 4004, 4669
7096, 3181, 4332, 4005, 4670
7097, 1675, 1005, 3920, 5173
7098, 3986, 4387, 2706, 4620
7099, 2544, 4521, 4059, 4931
7100, 911, 4520, 4060, 4930
7101, 480, 4047, 442, 4876
7102, 2240, 2238, 4249, 5081
7103, 562, 3939, 568, 5056
7104, 864, 4044, 1472, 5353
7105, 3990, 4332, 2792, 4670
7106, 3991, 4331, 1159, 4669
7107, 3942, 4743, 418, 4794
7108, 2836, 2719, 4045, 5423
7109, 844, 845, 837, 4061
7110, 594, 3890, 4494, 4601
7111, 3883, 3269, 4577, 5100
7112, 1636, 4578, 3882, 5101
7113, 2918, 4105, 3374, 5143
7114, 718, 4667, 3962, 4780
7115, 2351, 4666, 3963, 4781
7116, 1913, 1883, 4757, 5060
7117, 3544, 3515, 4758, 5059
7118, 1305, 5460, 4636, 5468
7119, 1906, 1816, 1899, 4804
7120, 918, 873, 4026, 4507
7121, 364, 1204, 1786, 5148
7122, 3419, 1997, 2837, 5149
7123, 570, 4374, 3799, 4647
7124, 3811, 4373, 676, 4647
7125, 1303, 4266, 3957, 5250
7126, 4459, 4708, 4058, 5150
7127, 1300, 4000, 1549, 4741
7128, 3182, 2933, 4001, 4742
7129, 1807, 1230, 4035, 5219
7130, 3440, 2863, 4043, 5220
7131, 1363, 832, 4081, 4618
7132, 2996, 2465, 4080, 4617
7133, 1713, 5152, 4187, 5235
7134, 372, 373, 374, 5163
7135, 3346, 5151, 4186, 5236
7136, 2006, 2007, 2005, 5162
7137, 3966, 4787, 4447, 4799
7138, 1529, 1502, 4927, 5398
7139, 3982, 4932, 4178, 4960
7140, 1658, 4474, 4165, 5340
7141, 3065, 4434, 4151, 5364
7142, 1672, 4106, 4373, 5065
7143, 3791, 4358, 425, 5102
7144, 2404, 3862, 3247, 4511
7145, 4244, 5161, 4169, 5313
7146, 434, 4337, 3940, 4609
7147, 3557, 4356, 4035, 5132
7148, 3873, 4307, 817, 4348
7149, 2467, 4014, 2420, 5338
7150, 4108, 5137, 4803, 5465
7151, 2061, 3948, 2062, 5255
7152, 1580, 4034, 1098, 5275
7153, 565, 3867, 643, 5164
7154, 427, 3926, 876, 4763
7155, 2072, 3898, 3153, 4849
7156, 3067, 2913, 3858, 4848
7157, 2913, 3858, 4848, 4849
7158, 3179, 3857, 2076, 4848
7159, 3142, 3777, 3161, 4851
7160, 1528, 1509, 3776, 4850
7161, 3243, 3976, 2512, 4851
7162, 879, 1610, 3977, 4850
7163, 1687, 4237, 1014, 5213
7164, 417, 4743, 3807, 4842
7165, 4328, 5089, 4277, 5351
7166, 1120, 4806, 4183, 5133
7167, 1722, 4006, 900, 5079
7168, 3313, 4185, 4756, 5335
7169, 910, 911, 4060, 4930
7170, 2543, 2544, 4059, 4931
7171, 769, 4218, 5043, 5462
7172, 3817, 4666, 4246, 5018
7173, 3816, 4667, 4245, 5017
7174, 2783, 4469, 3943, 4606
7175, 1150, 4470, 3944, 4607
7176, 2963, 4473, 3835, 4592
7177, 1330, 4474, 3836, 4593
7178, 618, 4479, 3934, 4608
7179, 714, 3762, 715, 4707
7180, 1529, 3970, 589, 4707
7181, 2052, 2050, 4383, 5053
7182, 3071, 4324, 3892, 5471
7183, 3030, 3893, 4324, 5479
7184, 2816, 2814, 2544, 5176
7185, 1329, 317, 4038, 4459
7186, 3041, 3934, 2427, 5366
7187, 3213, 4033, 2731, 5276
7188, 960, 4313, 3822, 5251
7189, 2550, 2987, 2696, 4144
7190, 1921, 4357, 4043, 5136
7191, 710, 3969, 586, 4976
7192, 2343, 3970, 2219, 4977
7193, 2160, 3173, 2886, 5385
7194, 1259, 1332, 4761, 4957
7195, 3926, 4430, 4305, 5378
7196, 315, 3630, 3606, 4676
7197, 2226, 4333, 3968, 5478
7198, 3612, 4271, 346, 5078
7199, 1289, 874, 3905, 4704
7200, 2922, 2507, 3904, 4703
7201, 1290, 3907, 1287, 4704
7202, 2920, 2923, 3906, 4703
7203, 2860, 4124, 2830, 4448
7204, 4205, 4334, 3828, 5253
7205, 1679, 3968, 889, 4782
7206, 2805, 3996, 3249, 5325
7207, 1172, 3997, 1616, 5326
7208, 1194, 3806, 944, 5353
7209, 2829, 4448, 4060, 4650
7210, 833, 852, 3947, 4837
7211, 2466, 2485, 3946, 4836
7212, 2433, 2431, 3771, 4513
7213, 800, 798, 3770, 4514
7214, 2058, 3926, 2310, 4515
7215, 682, 680, 3878, 4698
7216, 1540, 1253, 3828, 4698
7217, 1062, 3967, 839, 4839
7218, 774, 3915, 756, 4694
7219, 2389, 2407, 3916, 4695
7220, 1390, 3905, 874, 4694
7221, 3023, 3904, 2507, 4695
7222, 3217, 3230, 3813, 4697
7223, 2375, 3846, 2337, 4696
7224, 3040, 3844, 3225, 4696
7225, 2559, 2511, 3925, 4697
7226, 3184, 3977, 2397, 4692
7227, 1551, 3976, 764, 4693
7228, 3203, 3254, 3950, 4692
7229, 1621, 3951, 1570, 4693
7230, 845, 4061, 844, 5421
7231, 1344, 4919, 1342, 4954
7232, 2046, 3139, 3902, 4518
7233, 4215, 5039, 4009, 5179
7234, 1635, 1741, 1041, 4335
7235, 3259, 3790, 2613, 4513
7236, 980, 1626, 3789, 4514
7237, 2793, 3956, 2558, 4515
7238, 2274, 3796, 2275, 4516
7239, 3087, 3201, 3901, 5042
7240, 2283, 3903, 3228, 5042
7241, 777, 4447, 3966, 4787
7242, 1043, 3965, 897, 5381
7243, 4088, 4129, 4753, 5199
7244, 4087, 4128, 4752, 5198
7245, 2379, 3838, 2268, 4713
7246, 674, 3912, 750, 4714
7247, 4280, 4405, 4337, 5074
7248, 2303, 3952, 3052, 5191
7249, 3489, 3140, 3450, 4684
7250, 834, 4013, 787, 4631
7251, 334, 1211, 4070, 4699
7252, 871, 3989, 870, 4671
7253, 1926, 4710, 4066, 5124
7254, 3563, 4711, 4068, 5123
7255, 3328, 2647, 3933, 4519
7256, 2464, 3859, 3198, 4521
7257, 831, 3860, 1565, 4520
7258, 778, 4030, 1474, 4619
7259, 421, 3780, 420, 5469
7260, 1547, 1481, 3795, 4588
7261, 3046, 2139, 3779, 4551
7262, 1413, 506, 3778, 4550
7263, 2173, 3161, 3777, 4532
7264, 540, 1528, 3776, 4531
7265, 597, 3875, 596, 4576
7266, 2295, 2412, 3975, 4616
7267, 3128, 3776, 2368, 4534
7268, 1495, 3777, 735, 4533
7269, 804, 3882, 1636, 4578
7270, 2437, 3883, 3269, 4577
7271, 631, 3853, 464, 4560
7272, 2097, 2264, 3852, 4559
7273, 465, 3877, 497, 4566
7274, 2130, 2098, 3876, 4565
7275, 1275, 3830, 1274, 4587
7276, 2907, 2908, 3829, 4586
7277, 2334, 3822, 2338, 4552
7278, 545, 520, 3775, 4548
7279, 2178, 2153, 3774, 4547
7280, 2521, 3875, 2985, 4598
7281, 2267, 2213, 3815, 4556
7282, 3073, 3789, 2040, 4590
7283, 1440, 3790, 407, 4591
7284, 2114, 3880, 2116, 4594
7285, 581, 3819, 582, 4561
7286, 2110, 3892, 2168, 4570
7287, 1003, 1001, 3824, 4583
7288, 2216, 3831, 2217, 4569
7289, 1292, 966, 3876, 4568
7290, 2599, 3877, 2925, 4567
7291, 820, 1592, 3856, 4579
7292, 531, 3810, 526, 4524
7293, 2146, 2149, 3921, 4582
7294, 513, 516, 3922, 4581
7295, 2315, 2318, 3881, 4572
7296, 1320, 3890, 594, 4601
7297, 888, 3818, 705, 4558
7298, 2886, 3827, 3173, 4589
7299, 1611, 1244, 3849, 4580
7300, 1460, 3774, 397, 4526
7301, 2030, 3093, 3775, 4525
7302, 2322, 3766, 2326, 4611
7303, 689, 3765, 693, 4610
7304, 1602, 821, 3845, 4602
7305, 894, 895, 3929, 4573
7306, 3325, 3330, 3849, 4599
7307, 1697, 3848, 1692, 4600
7308, 1422, 3936, 1180, 4609
7309, 2653, 3929, 2651, 4595
7310, 2331, 3833, 2323, 4597
7311, 2094, 3922, 3164, 4604
7312, 1531, 461, 3921, 4603
7313, 3314, 3785, 2018, 4522
7314, 1444, 3822, 662, 4576
7315, 3111, 3778, 2434, 4585
7316, 1478, 3779, 801, 4584
7317, 1254, 3785, 1392, 4610
7318, 3025, 2887, 3786, 4611
7319, 2432, 3771, 2431, 4530
7320, 798, 799, 3770, 4529
7321, 578, 1443, 3802, 4535
7322, 449, 3829, 448, 4546
7323, 2082, 3830, 2081, 4545
7324, 466, 3853, 631, 4563
7325, 2099, 3852, 2264, 4562
7326, 2139, 2289, 3779, 4532
7327, 656, 3778, 506, 4531
7328, 2434, 3778, 2270, 4534
7329, 637, 801, 3779, 4533
7330, 803, 3842, 648, 4544
7331, 2436, 3843, 2281, 4543
7332, 3177, 2165, 3823, 4557
7333, 1622, 3831, 1629, 4541
7334, 1562, 583, 3837, 4561
7335, 600, 3812, 599, 4576
7336, 3136, 2429, 3895, 4582
7337, 796, 3894, 1503, 4581
7338, 2144, 3944, 2145, 4582
7339, 512, 511, 3943, 4581
7340, 2620, 2619, 3840, 4605
7341, 3113, 3841, 2625, 4553
7342, 2209, 3884, 2430, 4530
7343, 576, 3885, 797, 4529
7344, 595, 3875, 597, 4601
7345, 2913, 2909, 3858, 4586
7346, 1692, 3848, 1012, 4573
7347, 2265, 2333, 3812, 4552
7348, 2320, 3782, 2321, 4597
7349, 577, 3797, 640, 4535
7350, 1402, 3802, 1443, 4538
7351, 2055, 3092, 3791, 4540
7352, 1489, 3801, 521, 4548
7353, 3122, 3800, 2154, 4547
7354, 684, 3850, 699, 4580
7355, 3006, 2179, 3798, 4536
7356, 2332, 2317, 3851, 4572
7357, 1274, 3830, 1273, 4560
7358, 2906, 2907, 3829, 4559
7359, 2885, 3881, 2318, 4589
7360, 469, 467, 3864, 4578
7361, 2100, 3863, 2102, 4577
7362, 1272, 3843, 1314, 4563
7363, 2947, 2905, 3842, 4562
7364, 2162, 3824, 2159, 4557
7365, 3206, 3804, 2716, 4585
7366, 1573, 3803, 1083, 4584
7367, 1546, 447, 3858, 4546
7368, 2080, 3857, 3179, 4545
7369, 3083, 3770, 2036, 4590
7370, 1450, 3771, 403, 4591
7371, 1584, 878, 3872, 4588
7372, 452, 3855, 453, 4555
7373, 1480, 3844, 1544, 4541
7374, 1606, 1623, 3823, 4583
7375, 460, 3866, 458, 4571
7376, 1669, 440, 3800, 4526
7377, 2073, 3801, 3302, 4525
7378, 3251, 2118, 3793, 4594
7379, 2887, 2579, 3786, 4589
7380, 1320, 1174, 3890, 4593
7381, 2953, 2807, 3891, 4592
7382, 2174, 3321, 3781, 4599
7383, 1688, 3782, 541, 4600
7384, 1279, 1277, 3918, 4587
7385, 2910, 3917, 2912, 4586
7386, 726, 3834, 727, 4558
7387, 1394, 3851, 1260, 4573
7388, 3306, 3812, 2333, 4598
7389, 1330, 3836, 929, 4593
7390, 2963, 3835, 2562, 4592
7391, 3116, 3308, 3919, 4598
7392, 2035, 3894, 2034, 4590
7393, 402, 3895, 401, 4591
7394, 433, 434, 3940, 4609
7395, 2655, 2654, 3941, 4595
7396, 724, 3931, 1429, 4574
7397, 3062, 2357, 3930, 4575
7398, 2693, 2840, 3943, 4604
7399, 1207, 3944, 1060, 4603
7400, 822, 923, 3932, 4602
7401, 2968, 3834, 2593, 4616
7402, 3077, 2233, 3818, 4616
7403, 2840, 2783, 3943, 4606
7404, 1207, 1150, 3944, 4607
7405, 695, 3923, 962, 4610
7406, 2595, 2328, 3924, 4611
7407, 1009, 3961, 1084, 4602
7408, 2652, 3959, 2779, 4595
7409, 2259, 2258, 3931, 4527
7410, 626, 625, 3930, 4528
7411, 1411, 3783, 1412, 4623
7412, 2266, 3978, 2355, 4552
7413, 3032, 3974, 2244, 4615
7414, 614, 3979, 611, 4612
7415, 618, 3934, 1477, 4608
7416, 609, 3760, 610, 4612
7417, 614, 613, 3979, 4608
7418, 1399, 3981, 1485, 4621
7419, 833, 3947, 851, 4618
7420, 2466, 3946, 2484, 4617
7421, 1232, 3954, 1233, 4613
7422, 2865, 3955, 2866, 4614
7423, 1604, 690, 3832, 4613
7424, 889, 3968, 1676, 4558
7425, 960, 662, 3822, 4627
7426, 2127, 2128, 3803, 4643
7427, 495, 3804, 494, 4644
7428, 570, 3799, 548, 4647
7429, 2645, 3849, 3330, 4645
7430, 676, 574, 3811, 4647
7431, 2262, 2339, 3816, 4628
7432, 2628, 3274, 3845, 4646
7433, 706, 3817, 629, 4629
7434, 1455, 3981, 1399, 4612
7435, 1378, 3980, 1381, 4619
7436, 651, 652, 3988, 4621
7437, 2243, 3973, 3072, 4615
7438, 2284, 2361, 3989, 4620
7439, 842, 4020, 728, 4621
7440, 381, 379, 3833, 4632
7441, 2010, 3954, 2009, 4648
7442, 727, 3834, 783, 4733
7443, 2576, 3825, 3165, 4648
7444, 726, 783, 3834, 4634
7445, 2838, 3987, 3204, 4624
7446, 4175, 3904, 4695, 4926
7447, 4174, 3905, 4694, 4925
7448, 724, 1473, 3931, 4631
7449, 1431, 836, 3971, 4623
7450, 1003, 3824, 1000, 4691
7451, 1674, 3827, 1677, 4691
7452, 3118, 3986, 2706, 4620
7453, 1326, 4037, 825, 4634
7454, 2578, 3992, 2601, 4624
7455, 1702, 4264, 3953, 5358
7456, 1643, 998, 1669, 5054
7457, 1000, 999, 998, 5054
7458, 3121, 2839, 3981, 4624
7459, 1488, 3986, 1206, 4625
7460, 1628, 660, 3758, 5488
7461, 2258, 2261, 3931, 4641
7462, 628, 3930, 625, 4642
7463, 2092, 2095, 3866, 4661
7464, 2914, 3855, 3066, 4662
7465, 829, 4261, 1649, 5507
7466, 2455, 2556, 3932, 4663
7467, 2439, 2438, 3847, 4660
7468, 3185, 3851, 2317, 4660
7469, 2083, 2086, 3854, 4662
7470, 2441, 3899, 2526, 4664
7471, 3815, 4541, 4433, 4896
7472, 1134, 5129, 4111, 5218
7473, 976, 4010, 977, 4649
7474, 2359, 2338, 3822, 4755
7475, 4055, 4366, 4220, 5181
7476, 972, 974, 3916, 4655
7477, 1549, 4000, 692, 4613
7478, 2325, 3182, 4001, 4614
7479, 4054, 4341, 3359, 4760
7480, 4053, 4340, 1726, 4759
7481, 3096, 3004, 3993, 4628
7482, 1463, 1371, 3999, 4629
7483, 1994, 2830, 2860, 4124
7484, 985, 3899, 890, 5391
7485, 3330, 3849, 4599, 4779
7486, 741, 4823, 3835, 4869
7487, 3836, 2374, 4822, 4868
7488, 3539, 3491, 3445, 4320
7489, 1833, 1853, 1909, 4321
7490, 722, 1368, 3975, 5186
7491, 646, 4001, 380, 4632
7492, 2013, 2279, 4000, 4633
7493, 3372, 2941, 2939, 5446
7494, 984, 3808, 1457, 5050
7495, 2028, 3889, 2026, 5051
7496, 395, 3888, 393, 5052
7497, 1520, 1280, 4378, 5088
7498, 828, 753, 3995, 4655
7499, 2461, 2386, 3994, 4656
7500, 3608, 3633, 3613, 4143
7501, 2503, 2712, 3988, 4638
7502, 2610, 4011, 2608, 4657
7503, 1523, 754, 3994, 4658
7504, 2387, 3995, 3156, 4659
7505, 2827, 2826, 3805, 5309
7506, 786, 3993, 1654, 5424
7507, 2725, 4010, 2726, 4653
7508, 1092, 4011, 1093, 4654
7509, 1070, 1126, 1053, 5297
7510, 2105, 3887, 2108, 4821
7511, 3883, 4297, 1269, 4894
7512, 3882, 4298, 2902, 4895
7513, 1251, 4014, 717, 4642
7514, 2895, 3939, 2176, 5508
7515, 2604, 3048, 3910, 5342
7516, 1415, 3909, 971, 5343
7517, 3140, 1950, 3450, 4684
7518, 892, 1706, 4328, 5242
7519, 3940, 4337, 4280, 4405
7520, 813, 809, 810, 4166
7521, 2443, 2446, 2442, 4165
7522, 1291, 1288, 1289, 4163
7523, 2924, 2921, 2922, 4164
7524, 3274, 2444, 3104, 4162
7525, 653, 1532, 1699, 4170
7526, 1471, 807, 992, 4161
7527, 2646, 3330, 3332, 4169
7528, 489, 1526, 495, 4156
7529, 2122, 3159, 2128, 4155
7530, 2218, 2191, 3200, 4172
7531, 558, 1567, 585, 4171
7532, 3129, 3060, 2448, 4158
7533, 1427, 815, 1496, 4157
7534, 3210, 2199, 3275, 4160
7535, 1577, 566, 1642, 4159
7536, 3289, 2728, 2626, 4168
7537, 2309, 3305, 3148, 4167
7538, 2385, 3023, 2388, 4175
7539, 752, 1390, 755, 4174
7540, 1726, 1727, 4053, 5507
7541, 3222, 3042, 3209, 4173
7542, 2292, 3817, 2290, 4666
7543, 659, 3816, 657, 4667
7544, 3722, 4264, 4103, 5304
7545, 1408, 3935, 794, 4739
7546, 375, 376, 374, 4176
7547, 2007, 2008, 2009, 4177
7548, 1299, 4053, 1727, 4872
7549, 2477, 2478, 2470, 4030
7550, 604, 603, 3809, 4973
7551, 311, 3459, 3484, 4356
7552, 3808, 4588, 1457, 5050
7553, 2028, 4525, 3889, 5051
7554, 395, 4526, 3888, 5052
7555, 1108, 3991, 1159, 4669
7556, 2741, 3990, 2792, 4670
7557, 1248, 3897, 1609, 5091
7558, 1517, 4297, 3897, 5503
7559, 2356, 3287, 3999, 4640
7560, 1855, 1840, 1944, 4357
7561, 1654, 3993, 723, 4639
7562, 824, 828, 3995, 4678
7563, 2457, 2461, 3994, 4677
7564, 1523, 3994, 898, 4680
7565, 3156, 3995, 2531, 4679
7566, 1662, 1093, 4011, 4665
7567, 1284, 1014, 3959, 5213
7568, 889, 3968, 4558, 4909
7569, 1306, 4029, 4636, 5388
7570, 2545, 4007, 2816, 4521
7571, 846, 913, 4505, 5195
7572, 4206, 4761, 1332, 4957
7573, 1217, 1889, 1798, 4355
7574, 3431, 2850, 3524, 4354
7575, 1332, 4761, 4206, 4864
7576, 2479, 2546, 4506, 5194
7577, 604, 3809, 605, 5365
7578, 3146, 3808, 3303, 4815
7579, 3735, 4103, 4369, 5196
7580, 741, 1496, 3835, 4823
7581, 2374, 3129, 3836, 4822
7582, 2456, 2462, 3965, 5046
7583, 4231, 4887, 1423, 5241
7584, 3056, 4230, 4886, 5240
7585, 1731, 1543, 4318, 5193
7586, 2927, 3590, 4319, 4419
7587, 3918, 4412, 4983, 4990
7588, 3353, 1948, 3352, 4215
7589, 3302, 3801, 3276, 4687
7590, 561, 3868, 1268, 4689
7591, 2194, 3867, 2901, 4688
7592, 1125, 4402, 4111, 4874
7593, 2249, 4074, 2248, 4775
7594, 3834, 2968, 4309, 4901
7595, 425, 1393, 3791, 5102
7596, 4072, 4774, 4512, 5452
7597, 2355, 3978, 3224, 4675
7598, 4639, 4806, 4221, 5171
7599, 843, 4023, 1384, 4639
7600, 2476, 4024, 3017, 4640
7601, 779, 4002, 780, 4627
7602, 3565, 4278, 4181, 5318
7603, 3936, 4605, 2832, 5423
7604, 3847, 4660, 4228, 4986
7605, 2793, 3956, 4515, 4915
7606, 3259, 3790, 4513, 4914
7607, 1626, 3789, 4514, 4913
7608, 596, 3875, 595, 5284
7609, 870, 3989, 1079, 4734
7610, 1564, 4021, 1128, 5190
7611, 3197, 4022, 2761, 5189
7612, 3343, 2780, 3957, 4852
7613, 973, 1524, 4017, 4655
7614, 891, 1014, 4237, 5141
7615, 3445, 1757, 326, 4320
7616, 1853, 3390, 1959, 4321
7617, 3295, 2726, 4010, 5273
7618, 4307, 4605, 3840, 5047
7619, 4002, 4366, 780, 4627
7620, 2416, 3761, 2471, 4816
7621, 2038, 3770, 3083, 4880
7622, 405, 3771, 1450, 4881
7623, 4064, 4819, 5176, 5222
7624, 4211, 4358, 4046, 4783
7625, 585, 710, 4976, 5245
7626, 2601, 3992, 2552, 5167
7627, 544, 4905, 1559, 5264
7628, 3767, 4151, 4434, 5180
7629, 3285, 3789, 4283, 4749
7630, 1652, 3790, 4284, 4748
7631, 2575, 4060, 2831, 4705
7632, 1608, 897, 5381, 5512
7633, 2475, 4026, 2474, 4620
7634, 3490, 3551, 4041, 5457
7635, 1901, 4042, 1856, 5456
7636, 3402, 4095, 1954, 4804
7637, 2606, 4018, 2672, 4657
7638, 1684, 3941, 1013, 4812
7639, 1739, 900, 4006, 4665
7640, 2965, 4765, 2892, 4948
7641, 774, 812, 3915, 5348
7642, 2407, 2445, 3916, 5347
7643, 2881, 3896, 3242, 4921
7644, 2845, 3398, 1993, 4076
7645, 1765, 360, 1212, 4077
7646, 2966, 2587, 3788, 4723
7647, 1333, 954, 3787, 4722
7648, 2964, 3873, 3297, 4724
7649, 3281, 2629, 3758, 4727
7650, 1648, 996, 3759, 4726
7651, 985, 744, 3899, 4719
7652, 1021, 1020, 3933, 4721
7653, 2655, 3941, 2656, 4720
7654, 2660, 2659, 3826, 4729
7655, 1026, 3825, 1027, 4728
7656, 1636, 3882, 1600, 5101
7657, 3269, 3883, 3233, 5100
7658, 4044, 5066, 4866, 5353
7659, 1295, 3939, 562, 4689
7660, 3343, 3957, 2649, 4682
7661, 2475, 2706, 4387, 4620
7662, 1261, 3867, 565, 4917
7663, 2894, 3868, 2198, 4918
7664, 1294, 3591, 3602, 4872
7665, 328, 1294, 3602, 4872
7666, 3703, 3721, 4264, 5134
7667, 3875, 2985, 4598, 4890
7668, 3877, 497, 4566, 4892
7669, 3876, 2130, 4565, 4893
7670, 1292, 4568, 3876, 4894
7671, 2925, 4567, 3877, 4895
7672, 3815, 2267, 4556, 4896
7673, 895, 3929, 4573, 4898
7674, 3829, 448, 4546, 4888
7675, 3830, 2081, 4545, 4889
7676, 1562, 4561, 3837, 4884
7677, 3891, 2953, 4592, 4891
7678, 3841, 2625, 4553, 4885
7679, 2331, 3833, 4597, 4899
7680, 4190, 4368, 2743, 5165
7681, 4189, 4367, 1110, 5166
7682, 2968, 3834, 4616, 4901
7683, 3800, 1669, 4526, 4897
7684, 3943, 4581, 511, 4887
7685, 3944, 4582, 2144, 4886
7686, 3321, 3781, 4599, 4900
7687, 3979, 614, 4608, 4902
7688, 4682, 4852, 4266, 4920
7689, 1455, 3981, 4612, 4903
7690, 4020, 4621, 842, 4906
7691, 3204, 4624, 3987, 4904
7692, 3986, 1206, 4625, 4905
7693, 1198, 942, 4059, 4690
7694, 1010, 1260, 3851, 4792
7695, 1677, 3827, 455, 4791
7696, 2877, 3848, 3244, 4793
7697, 1095, 993, 3881, 4792
7698, 423, 3791, 1393, 4794
7699, 387, 3786, 1681, 4791
7700, 2653, 3229, 3929, 4793
7701, 2994, 3961, 3340, 4795
7702, 2427, 3934, 3042, 4796
7703, 2734, 4031, 2673, 4677
7704, 1101, 4032, 1040, 4678
7705, 624, 5115, 4248, 5212
7706, 1678, 3938, 543, 4929
7707, 2699, 4048, 2820, 4914
7708, 2740, 2542, 4021, 4670
7709, 1107, 909, 4022, 4669
7710, 3489, 3449, 1996, 4684
7711, 4209, 4731, 2815, 5176
7712, 4065, 4673, 4452, 5316
7713, 4067, 4674, 4453, 5317
7714, 1160, 857, 3952, 4784
7715, 1020, 1019, 3933, 5089
7716, 2965, 4765, 4208, 4865
7717, 1555, 696, 3990, 4797
7718, 2329, 3991, 3188, 4798
7719, 3008, 1989, 3413, 4111
7720, 3296, 3873, 2964, 5320
7721, 1483, 3920, 1005, 5315
7722, 2638, 3116, 3919, 5314
7723, 851, 3947, 852, 5374
7724, 2484, 3946, 2485, 5373
7725, 1504, 3903, 413, 5043
7726, 1966, 4181, 3488, 4278
7727, 4088, 5199, 2732, 5382
7728, 1549, 4000, 4613, 4911
7729, 3182, 4001, 4614, 4912
7730, 2350, 2884, 4013, 5122
7731, 974, 3916, 4655, 4878
7732, 3084, 4004, 2363, 4798
7733, 1451, 4005, 730, 4797
7734, 1496, 810, 3835, 4828
7735, 3129, 2443, 3836, 4829
7736, 377, 3955, 376, 4831
7737, 4087, 5198, 1099, 5387
7738, 1540, 3828, 527, 4863
7739, 2424, 2990, 3764, 4840
7740, 2373, 3890, 2641, 4840
7741, 3900, 4411, 4258, 4501
7742, 1158, 5102, 4744, 5462
7743, 2988, 2065, 3940, 4745
7744, 1160, 3952, 1476, 4744
7745, 2195, 3938, 2201, 4746
7746, 1401, 3902, 650, 4842
7747, 3038, 3917, 2910, 4841
7748, 417, 3807, 988, 4842
7749, 3849, 3330, 4645, 4779
7750, 3536, 4079, 3454, 4764
7751, 941, 3859, 938, 4690
7752, 2965, 4208, 4765, 4948
7753, 962, 3923, 1518, 4845
7754, 2595, 3924, 3151, 4844
7755, 3979, 4310, 4125, 5272
7756, 946, 3785, 1254, 5082
7757, 3797, 640, 4535, 4866
7758, 4132, 4746, 2403, 4870
7759, 1072, 3992, 1221, 5484
7760, 960, 3822, 5112, 5251
7761, 3285, 2040, 3789, 4749
7762, 407, 3790, 1652, 4748
7763, 2610, 4011, 4657, 4879
7764, 3941, 4812, 4720, 4898
7765, 2675, 3171, 4009, 4677
7766, 1538, 4009, 1042, 4678
7767, 794, 3935, 1409, 4735
7768, 1264, 1222, 3987, 4750
7769, 2224, 4199, 4333, 5175
7770, 1701, 1702, 4264, 5134
7771, 1530, 4007, 1356, 5296
7772, 1045, 4012, 1046, 4932
7773, 504, 3773, 4346, 4963
7774, 2137, 3772, 4347, 4962
7775, 4196, 4106, 4953, 5065
7776, 2200, 2207, 2181, 4338
7777, 438, 1520, 436, 4337
7778, 1558, 3971, 836, 4751
7779, 427, 3926, 4763, 5099
7780, 649, 1286, 1161, 4336
7781, 3694, 1403, 3724, 4672
7782, 1911, 4496, 4451, 5216
7783, 1924, 1920, 1832, 4183
7784, 3376, 4009, 3171, 4659
7785, 3877, 4895, 4163, 5514
7786, 4170, 4899, 3833, 5518
7787, 3830, 4889, 4157, 5516
7788, 3829, 4888, 4158, 5515
7789, 1695, 3941, 1684, 4754
7790, 708, 3970, 1529, 4927
7791, 2574, 3860, 2571, 4705
7792, 2088, 3828, 3307, 5301
7793, 1185, 1186, 1682, 4339
7794, 2932, 3360, 1960, 4319
7795, 2234, 2236, 3811, 5290
7796, 1487, 3919, 598, 4716
7797, 704, 3847, 743, 4719
7798, 551, 553, 3883, 4717
7799, 2186, 3882, 2184, 4718
7800, 2877, 3245, 3848, 4720
7801, 445, 3917, 1372, 4725
7802, 2078, 3918, 3005, 4724
7803, 2588, 3900, 2561, 4723
7804, 928, 955, 3901, 4722
7805, 1702, 3953, 1023, 4721
7806, 758, 709, 3983, 4726
7807, 2391, 2342, 3982, 4727
7808, 878, 1547, 668, 4233
7809, 3056, 2142, 2144, 4230
7810, 509, 511, 1423, 4231
7811, 1593, 477, 458, 4224
7812, 453, 457, 456, 4223
7813, 450, 1546, 967, 4225
7814, 1394, 894, 745, 4228
7815, 1010, 819, 993, 4227
7816, 822, 747, 821, 4234
7817, 444, 441, 443, 4235
7818, 1596, 1018, 1020, 4226
7819, 670, 1420, 1419, 4229
7820, 2166, 2313, 2161, 4232
7821, 2612, 2611, 2610, 4251
7822, 1675, 1352, 1351, 4239
7823, 3145, 3170, 2263, 4241
7824, 1537, 630, 1512, 4240
7825, 1644, 1011, 1707, 4236
7826, 1687, 891, 1014, 4237
7827, 1527, 3503, 3446, 5215
7828, 2354, 2396, 2340, 4245
7829, 763, 707, 721, 4246
7830, 1026, 1190, 1024, 4244
7831, 537, 548, 3799, 5287
7832, 1232, 1604, 1190, 4244
7833, 1596, 1244, 699, 4226
7834, 2313, 2885, 3173, 4232
7835, 747, 994, 1562, 4234
7836, 457, 1433, 462, 4223
7837, 744, 743, 745, 4228
7838, 1281, 967, 1434, 4225
7839, 820, 819, 742, 4227
7840, 459, 1601, 1593, 4224
7841, 483, 1618, 670, 4229
7842, 441, 437, 439, 4235
7843, 507, 509, 1528, 4231
7844, 2142, 3161, 2140, 4230
7845, 1009, 1602, 1690, 4238
7846, 669, 857, 668, 4233
7847, 1352, 888, 1676, 4239
7848, 1082, 630, 1333, 4240
7849, 2966, 2715, 2263, 4241
7850, 3844, 3256, 4773, 4978
7851, 700, 633, 701, 4247
7852, 3286, 2516, 2949, 4242
7853, 1653, 883, 1316, 4243
7854, 1495, 638, 707, 4246
7855, 3128, 2271, 2340, 4245
7856, 2762, 4076, 1993, 5123
7857, 1129, 4077, 360, 5124
7858, 2240, 2238, 2239, 4249
7859, 1039, 4017, 1524, 4736
7860, 3303, 3808, 2203, 5182
7861, 1205, 1571, 1206, 4248
7862, 2611, 3271, 3261, 4251
7863, 3978, 3224, 4675, 5069
7864, 2068, 3940, 4405, 5090
7865, 472, 3886, 475, 5177
7866, 795, 669, 3793, 5077
7867, 2105, 4295, 3887, 4821
7868, 1121, 4806, 906, 5424
7869, 560, 4148, 4689, 5091
7870, 3906, 4703, 2923, 5100
7871, 3907, 4704, 1290, 5101
7872, 1092, 812, 883, 4243
7873, 2516, 2725, 2445, 4242
7874, 4744, 5102, 4134, 5462
7875, 2817, 2816, 4007, 5222
7876, 2151, 3774, 2153, 4965
7877, 520, 518, 3775, 4966
7878, 2993, 3961, 2994, 4920
7879, 2198, 3868, 2276, 5278
7880, 2632, 2633, 3810, 5128
7881, 2662, 2698, 3985, 4729
7882, 3641, 3643, 3595, 4053
7883, 3828, 4698, 1253, 5082
7884, 2256, 3837, 3267, 5403
7885, 3044, 3784, 3045, 5404
7886, 2873, 3979, 3124, 5407
7887, 1168, 4426, 4023, 4780
7888, 1663, 3874, 1331, 5340
7889, 3341, 2717, 3960, 4968
7890, 2193, 4147, 4688, 4921
7891, 2801, 4427, 4024, 4781
7892, 3594, 3640, 3642, 4054
7893, 3916, 4695, 4926, 5044
7894, 3915, 4694, 4925, 5045
7895, 1071, 1348, 1347, 5269
7896, 4993, 5073, 4250, 5186
7897, 2528, 3328, 3933, 5399
7898, 611, 3979, 613, 5272
7899, 1246, 1245, 3887, 4774
7900, 2227, 3891, 2807, 5259
7901, 4255, 4813, 4020, 4906
7902, 2284, 3989, 2285, 4775
7903, 1640, 3924, 386, 4777
7904, 2019, 3273, 3923, 4776
7905, 4211, 3952, 4784, 5102
7906, 3165, 3825, 2870, 5523
7907, 3530, 3455, 3495, 4071
7908, 1666, 1178, 3925, 4740
7909, 1619, 1397, 3892, 5311
7910, 2643, 3850, 3027, 5310
7911, 1396, 3908, 881, 5312
7912, 1558, 4734, 3971, 4751
7913, 2784, 3914, 2785, 5285
7914, 1152, 1151, 3913, 5286
7915, 1029, 1065, 3998, 5292
7916, 1284, 3959, 1685, 4969
7917, 2619, 3840, 4605, 5047
7918, 624, 3984, 5115, 5212
7919, 4242, 4326, 3906, 5208
7920, 4243, 4325, 3907, 5207
7921, 2936, 3958, 3322, 4979
7922, 4003, 4387, 2854, 5211
7923, 3970, 589, 4707, 5164
7924, 3780, 2056, 4308, 5378
7925, 3875, 4755, 4185, 5284
7926, 2623, 3879, 2560, 5327
7927, 1144, 3998, 1065, 4970
7928, 1134, 4111, 1125, 4402
7929, 672, 3908, 1396, 4714
7930, 3337, 3959, 2652, 5153
7931, 995, 3869, 811, 5256
7932, 2305, 3908, 3029, 5257
7933, 312, 5155, 4432, 5501
7934, 1242, 734, 4057, 4981
7935, 2875, 2367, 4056, 4980
7936, 507, 509, 4231, 5187
7937, 2142, 4230, 2140, 5188
7938, 2391, 3982, 2390, 4747
7939, 1737, 4018, 1534, 4654
7940, 2410, 3967, 2365, 4785
7941, 777, 3966, 732, 4787
7942, 2003, 4126, 2002, 4316
7943, 2170, 4463, 3146, 5417
7944, 370, 4127, 369, 4317
7945, 3260, 2832, 4605, 5423
7946, 855, 3880, 990, 4744
7947, 2832, 3936, 3316, 4745
7948, 834, 835, 4013, 5184
7949, 785, 3946, 738, 4788
7950, 2418, 3947, 2371, 4789
7951, 2370, 4051, 5147, 5282
7952, 737, 4050, 5146, 5283
7953, 1674, 3827, 4691, 5178
7954, 1268, 3868, 4299, 4689
7955, 2901, 3867, 4300, 4688
7956, 2556, 3932, 4663, 4838
7957, 3020, 2055, 3791, 5378
7958, 2625, 4885, 3841, 5403
7959, 3681, 3714, 3728, 4316
7960, 655, 3966, 777, 5352
7961, 1088, 1613, 3950, 5033
7962, 2721, 3246, 3951, 5034
7963, 483, 4229, 670, 5174
7964, 2349, 3975, 2412, 4790
7965, 3682, 3713, 3727, 4317
7966, 3202, 3984, 5072, 5290
7967, 2539, 4803, 5137, 5465
7968, 1575, 4131, 1647, 5307
7969, 1079, 3989, 871, 5383
7970, 843, 1168, 4023, 4780
7971, 2476, 2801, 4024, 4781
7972, 2900, 4283, 3820, 4749
7973, 1267, 4284, 3821, 4748
7974, 1740, 4019, 1741, 4967
7975, 1579, 1071, 4201, 4845
7976, 3212, 2704, 4202, 4844
7977, 2900, 3820, 2723, 4749
7978, 1090, 1267, 3821, 4748
7979, 2380, 3838, 2379, 5524
7980, 859, 3840, 933, 4802
7981, 418, 3942, 769, 5043
7982, 1942, 4110, 2976, 4709
7983, 1167, 4016, 1170, 4426
7984, 2800, 4015, 2803, 4427
7985, 1240, 5214, 3974, 5264
7986, 2801, 3017, 4024, 5168
7987, 1309, 348, 1310, 4139
7988, 728, 4621, 4020, 4786
7989, 2893, 3027, 3850, 5495
7990, 1135, 1134, 4402, 5218
7991, 1384, 4023, 1168, 5171
7992, 1515, 676, 4373, 4647
7993, 570, 1515, 4374, 4647
7994, 2525, 3899, 2441, 4986
7995, 2121, 3787, 2120, 4988
7996, 487, 488, 3788, 4987
7997, 1490, 3873, 814, 4990
7998, 2447, 3123, 3874, 4989
7999, 409, 3768, 410, 5321
8000, 2043, 2042, 3767, 5322
8001, 3261, 2293, 3759, 4991
8002, 3076, 2425, 3193, 5413
8003, 1532, 943, 3826, 4992
8004, 2875, 4441, 2749, 5084
8005, 1242, 4442, 1116, 5085
8006, 2638, 4165, 2446, 5314
8007, 1314, 3843, 4823, 4858
8008, 2947, 3842, 4822, 4859
8009, 3396, 4432, 2844, 4438
8010, 2949, 2920, 3906, 5347
8011, 1316, 1287, 3907, 5348
8012, 2973, 2549, 2972, 5409
8013, 4122, 4489, 3859, 5248
8014, 4121, 4488, 3860, 5249
8015, 4027, 4206, 4488, 5057
8016, 471, 473, 3896, 5244
8017, 960, 3822, 1444, 5112
8018, 1089, 3982, 1557, 5245
8019, 2257, 3987, 2838, 5113
8020, 2413, 2414, 2349, 4250
8021, 1221, 3992, 1073, 4750
8022, 2934, 4673, 4066, 4710
8023, 1301, 4674, 4068, 4711
8024, 528, 4257, 680, 5170
8025, 1752, 4090, 1078, 5125
8026, 3167, 4017, 3368, 4679
8027, 1534, 4018, 1735, 4680
8028, 901, 4144, 1345, 4447
8029, 3284, 2724, 4049, 4749
8030, 3143, 4084, 2809, 4870
8031, 641, 775, 3796, 5344
8032, 2148, 3921, 2149, 5246
8033, 515, 3922, 516, 5247
8034, 2276, 3868, 2894, 5248
8035, 643, 3867, 1261, 5249
8036, 1387, 876, 3926, 5234
8037, 3078, 2374, 2109, 4822
8038, 741, 476, 1445, 4823
8039, 423, 4305, 3791, 4794
8040, 3096, 3993, 2591, 5505
8041, 1718, 1036, 4033, 4811
8042, 4136, 4436, 4102, 4771
8043, 1463, 3999, 958, 5506
8044, 2738, 4078, 2737, 4353
8045, 1558, 1431, 3971, 4846
8046, 1689, 3957, 1015, 5391
8047, 575, 3984, 5073, 5206
8048, 2486, 2745, 2541, 4065
8049, 853, 1112, 908, 4067
8050, 2068, 5090, 4405, 5489
8051, 4221, 4974, 4109, 5424
8052, 2402, 4518, 4047, 5327
8053, 3488, 4181, 3565, 4278
8054, 952, 4055, 905, 4750
8055, 1491, 4073, 492, 4735
8056, 1373, 1404, 4149, 5103
8057, 3658, 4099, 3575, 4354
8058, 3576, 3659, 4100, 4355
8059, 2053, 2056, 3780, 5378
8060, 2644, 3932, 2556, 4838
8061, 3013, 3951, 3246, 4769
8062, 1380, 3950, 1613, 4768
8063, 4115, 4306, 3861, 5086
8064, 820, 3856, 1195, 5114
8065, 3205, 3984, 3202, 5116
8066, 542, 3973, 1571, 5115
8067, 3801, 4205, 4486, 5051
8068, 1503, 3894, 4286, 4581
8069, 3136, 3895, 4285, 4582
8070, 2028, 4288, 3889, 4525
8071, 395, 4287, 3888, 4526
8072, 3796, 2273, 4302, 4536
8073, 3798, 2164, 4301, 4557
8074, 2116, 3880, 4303, 4594
8075, 3938, 4929, 1678, 5341
8076, 3808, 4289, 1457, 4588
8077, 3035, 4290, 3815, 4539
8078, 1037, 823, 3964, 4759
8079, 3298, 2630, 3806, 5048
8080, 1095, 3881, 1656, 5463
8081, 1689, 1303, 3957, 5250
8082, 2456, 3965, 2670, 4760
8083, 779, 4313, 4002, 4627
8084, 693, 3765, 4311, 4610
8085, 2326, 3766, 4312, 4611
8086, 1631, 3972, 1186, 5341
8087, 3956, 4308, 2558, 4515
8088, 535, 477, 3893, 4883
8089, 1554, 3909, 1415, 5354
8090, 3187, 3910, 3048, 5355
8091, 1426, 4014, 1251, 4770
8092, 2072, 4762, 3898, 4849
8093, 3857, 4762, 2076, 4848
8094, 2211, 3802, 2210, 5422
8095, 1237, 3826, 943, 4771
8096, 2063, 2066, 4146, 5106
8097, 3272, 3814, 2822, 5364
8098, 2525, 2526, 3899, 5200
8099, 2428, 2302, 3792, 5201
8100, 488, 486, 3788, 5202
8101, 2121, 2119, 3787, 5203
8102, 574, 632, 3811, 5206
8103, 3153, 3898, 2069, 5204
8104, 2528, 3933, 2647, 5205
8105, 3221, 3759, 2293, 5207
8106, 660, 1588, 3758, 5208
8107, 2897, 3984, 3205, 5211
8108, 879, 3977, 1519, 5209
8109, 2512, 3976, 3152, 5210
8110, 1591, 3984, 624, 5212
8111, 884, 1090, 3821, 5397
8112, 586, 4424, 3969, 5076
8113, 1046, 4012, 1044, 4805
8114, 912, 4315, 4008, 4520
8115, 2545, 4314, 4007, 4521
8116, 3106, 3930, 2357, 5425
8117, 3235, 3175, 3869, 5524
8118, 2816, 2814, 5176, 5222
8119, 945, 3986, 1488, 5383
8120, 3044, 2138, 3784, 5473
8121, 505, 3783, 1411, 5472
8122, 703, 584, 3841, 5480
8123, 3251, 3793, 2124, 5474
8124, 3267, 3837, 3195, 5475
8125, 2693, 3943, 2783, 5477
8126, 1060, 3944, 1150, 5476
8127, 2091, 3865, 2089, 5470
8128, 2110, 3071, 3892, 5471
8129, 4251, 4665, 4011, 4879
8130, 3234, 3893, 3030, 5479
8131, 2229, 2226, 3968, 5478
8132, 2015, 2016, 3765, 5443
8133, 382, 383, 3766, 5444
8134, 466, 464, 3853, 5431
8135, 2097, 3852, 2099, 5430
8136, 580, 582, 3819, 5437
8137, 2165, 3215, 3823, 5435
8138, 2214, 3819, 2212, 5432
8139, 1407, 703, 3841, 5438
8140, 1428, 1574, 3852, 5427
8141, 3207, 3853, 3061, 5426
8142, 623, 3831, 1622, 5434
8143, 2256, 3195, 3837, 5436
8144, 3262, 3841, 3113, 5433
8145, 3045, 3784, 2138, 5439
8146, 1412, 3783, 505, 5440
8147, 467, 468, 3864, 5431
8148, 2101, 3863, 2100, 5430
8149, 381, 3833, 1498, 5444
8150, 2014, 3832, 3131, 5443
8151, 2180, 3802, 2211, 5432
8152, 1402, 578, 3802, 5437
8153, 2179, 2164, 3798, 5435
8154, 450, 3855, 452, 5429
8155, 2083, 3854, 2085, 5428
8156, 1582, 3815, 579, 5434
8157, 3215, 3177, 3823, 5433
8158, 3255, 3819, 2214, 5436
8159, 456, 3866, 460, 5427
8160, 2089, 3865, 2093, 5426
8161, 1623, 634, 3823, 5438
8162, 2180, 2210, 3802, 5435
8163, 3035, 3815, 2213, 5432
8164, 2212, 3819, 3255, 5433
8165, 580, 3819, 581, 5434
8166, 1606, 3823, 634, 5437
8167, 2215, 3831, 2216, 5436
8168, 1428, 3852, 1516, 5429
8169, 3061, 3853, 3149, 5428
8170, 1617, 3877, 465, 5431
8171, 3250, 3876, 2098, 5430
8172, 966, 478, 3876, 5427
8173, 1592, 1195, 3856, 5438
8174, 3046, 3779, 2289, 5439
8175, 1413, 3778, 656, 5440
8176, 1381, 3980, 620, 5481
8177, 626, 3930, 628, 5442
8178, 2259, 3931, 2261, 5441
8179, 638, 629, 3817, 5442
8180, 2271, 2262, 3816, 5441
8181, 2270, 3778, 3111, 5441
8182, 637, 3779, 1478, 5442
8183, 3062, 3930, 3106, 5439
8184, 1429, 3931, 1473, 5440
8185, 2174, 3781, 3319, 5443
8186, 541, 3782, 1686, 5444
8187, 2469, 3980, 3064, 5425
8188, 2855, 2854, 4387, 5211
8189, 2247, 3974, 3032, 4775
8190, 2273, 3796, 2274, 5422
8191, 2020, 2018, 3785, 4776
8192, 385, 3786, 387, 4777
8193, 2126, 3795, 2312, 5483
8194, 3076, 2425, 3797, 5422
8195, 1773, 336, 1803, 4451
8196, 1628, 3758, 1588, 4960
8197, 865, 3820, 1323, 5418
8198, 589, 3970, 708, 5490
8199, 2651, 3929, 3229, 5487
8200, 3277, 3845, 3274, 5486
8201, 3340, 3961, 2993, 5485
8202, 702, 3774, 1460, 5499
8203, 3365, 4029, 3176, 4657
8204, 3127, 2053, 3780, 5237
8205, 1555, 3990, 725, 5330
8206, 3188, 3991, 2358, 5331
8207, 2955, 1979, 3363, 4143
8208, 709, 757, 3983, 5490
8209, 1688, 1686, 3782, 5463
8210, 886, 792, 775, 4495
8211, 3185, 2332, 3851, 5487
8212, 3277, 2628, 3845, 5485
8213, 2455, 3932, 2644, 5486
8214, 2460, 3756, 2710, 5232
8215, 2502, 4062, 2799, 4781
8216, 869, 4063, 1166, 4780
8217, 827, 3757, 1077, 5231
8218, 1681, 3786, 385, 5463
8219, 787, 4013, 835, 4751
8220, 718, 3962, 782, 4780
8221, 2351, 3963, 2415, 4781
8222, 3301, 3872, 3299, 5483
8223, 2740, 4021, 2739, 5165
8224, 1107, 4022, 1106, 5166
8225, 2566, 2492, 3839, 4924
8226, 1121, 4806, 4639, 5171
8227, 2521, 3309, 3875, 4755
8228, 1616, 3997, 1173, 4922
8229, 3249, 3996, 2806, 4923
8230, 3965, 1043, 4335, 4811
8231, 2132, 2312, 3795, 4815
8232, 2350, 4013, 4641, 5122
8233, 2711, 3385, 4098, 5121
8234, 2505, 4020, 2504, 4638
8235, 3189, 3895, 2429, 4984
8236, 1556, 3894, 796, 4985
8237, 858, 933, 3840, 5172
8238, 2065, 2068, 3940, 5371
8239, 4323, 4381, 3846, 4700
8240, 3317, 3953, 2872, 5399
8241, 1838, 1877, 3147, 4804
8242, 3893, 4324, 4377, 4701
8243, 3310, 3828, 2088, 4947
8244, 3869, 4381, 4328, 4700
8245, 1273, 3830, 1275, 4941
8246, 2906, 3829, 2908, 4942
8247, 2923, 2949, 3906, 4944
8248, 1316, 3907, 1290, 4943
8249, 2449, 3861, 2986, 4950
8250, 3908, 4377, 4324, 4702
8251, 379, 1498, 3833, 4951
8252, 2320, 2319, 3782, 4955
8253, 1576, 4734, 4074, 4846
8254, 3011, 2253, 3971, 5028
8255, 861, 931, 3772, 5146
8256, 2494, 2564, 3773, 5147
8257, 950, 4030, 778, 4786
8258, 4031, 2734, 4497, 5509
8259, 1194, 1193, 3806, 5336
8260, 620, 3980, 1378, 5029
8261, 2469, 3191, 3980, 5027
8262, 587, 550, 4326, 4717
8263, 2220, 2183, 4325, 4718
8264, 2394, 3763, 2347, 4948
8265, 2980, 4202, 2704, 5385
8266, 561, 1437, 3868, 4976
8267, 3070, 3867, 2194, 4977
8268, 3077, 3818, 2230, 5478
8269, 2096, 2092, 3866, 5479
8270, 2356, 3999, 2419, 5023
8271, 2012, 3832, 2014, 4995
8272, 2085, 3854, 2086, 5470
8273, 2093, 3865, 2091, 5471
8274, 761, 3762, 714, 4957
8275, 502, 494, 3804, 5472
8276, 2127, 3803, 2135, 5473
8277, 2254, 3145, 3783, 5008
8278, 1512, 3784, 621, 5009
8279, 2268, 3838, 2380, 5475
8280, 579, 3815, 547, 5006
8281, 3112, 3856, 2166, 5007
8282, 3053, 3952, 2303, 5474
8283, 965, 3913, 1151, 5476
8284, 2784, 2598, 3914, 5477
8285, 641, 3796, 792, 5010
8286, 2290, 3817, 2291, 5018
8287, 657, 3816, 658, 5017
8288, 999, 1560, 3798, 5013
8289, 2037, 3885, 2087, 5011
8290, 404, 3884, 454, 5012
8291, 2483, 2482, 3928, 5016
8292, 849, 3927, 850, 5015
8293, 698, 3832, 690, 5014
8294, 2033, 3894, 2035, 5021
8295, 402, 400, 3895, 5020
8296, 2140, 2136, 3927, 4996
8297, 503, 3928, 507, 4997
8298, 584, 1407, 3841, 5002
8299, 463, 3865, 462, 4998
8300, 2095, 2096, 3866, 4999
8301, 1486, 3854, 1281, 5000
8302, 2914, 3119, 3855, 5001
8303, 687, 3781, 688, 5005
8304, 2324, 3766, 2322, 5004
8305, 689, 691, 3765, 5003
8306, 3015, 3772, 2137, 4962
8307, 1382, 3773, 504, 4963
8308, 716, 3978, 661, 5025
8309, 1368, 701, 3975, 5026
8310, 742, 3847, 704, 5480
8311, 786, 723, 3993, 5024
8312, 2668, 2665, 2667, 4272
8313, 652, 616, 3988, 5481
8314, 1035, 1032, 1034, 4273
8315, 2712, 2713, 3988, 5407
8316, 4813, 4906, 4255, 5484
8317, 2348, 2395, 3241, 4252
8318, 1448, 1140, 4083, 4454
8319, 564, 566, 3871, 5037
8320, 2199, 3870, 2197, 5036
8321, 3960, 4384, 4265, 5242
8322, 1599, 1293, 3863, 5288
8323, 2926, 3864, 3232, 5289
8324, 3121, 3981, 3194, 5030
8325, 3157, 2672, 4018, 5183
8326, 2789, 3900, 2588, 5157
8327, 955, 1156, 3901, 5156
8328, 2308, 3909, 3278, 5159
8329, 675, 3910, 1645, 5158
8330, 1487, 1321, 3919, 5160
8331, 1145, 1023, 3953, 5161
8332, 2006, 2004, 3998, 5162
8333, 371, 3985, 373, 5163
8334, 1187, 4510, 4049, 5067
8335, 650, 3902, 1595, 5197
8336, 2472, 2695, 3966, 4799
8337, 531, 3810, 4524, 5103
8338, 2625, 3841, 3262, 5403
8339, 3064, 3980, 3191, 5404
8340, 598, 3919, 1321, 5139
8341, 2777, 3985, 2698, 5075
8342, 4185, 4755, 4052, 5284
8343, 1689, 5213, 3957, 5391
8344, 2299, 2300, 4379, 4825
8345, 557, 3870, 558, 5063
8346, 2191, 2190, 3871, 5064
8347, 2607, 3915, 2605, 5031
8348, 3550, 4182, 3560, 5337
8349, 1561, 3974, 1240, 5214
8350, 2502, 4444, 4062, 4781
8351, 869, 4443, 4063, 4780
8352, 1716, 4129, 4753, 5195
8353, 2019, 3923, 2206, 5144
8354, 386, 3924, 573, 5145
8355, 4128, 4752, 3349, 5194
8356, 2574, 2929, 3860, 5142
8357, 2177, 3979, 2873, 5032
8358, 891, 3929, 895, 5141
8359, 958, 3999, 1371, 4971
8360, 1296, 3859, 941, 5140
8361, 1240, 3974, 544, 5264
8362, 2591, 3993, 3004, 4974
8363, 2692, 2709, 2586, 4214
8364, 3862, 816, 4348, 4949
8365, 2630, 2640, 3806, 5066
8366, 1189, 3814, 1188, 5067
8367, 2822, 3814, 2821, 5068
8368, 2881, 3150, 3896, 5138
8369, 923, 1011, 3932, 4956
8370, 3201, 2426, 3901, 5135
8371, 912, 4008, 1183, 5459
8372, 3238, 4002, 3001, 5022
8373, 3166, 2989, 4008, 4785
8374, 1356, 4007, 1533, 4787
8375, 2215, 2217, 3831, 5169
8376, 2825, 3878, 2453, 4773
8377, 1735, 4018, 1737, 4857
8378, 2675, 4009, 3376, 4843
8379, 1662, 4011, 1092, 5117
8380, 2364, 4004, 3084, 4789
8381, 731, 4005, 1451, 4788
8382, 3181, 4005, 2487, 5492
8383, 1548, 4004, 854, 5491
8384, 3265, 3964, 2676, 4778
8385, 4006, 4665, 4251, 4879
8386, 437, 3945, 649, 5074
8387, 2645, 3325, 3849, 5495
8388, 539, 500, 4147, 5119
8389, 2133, 4148, 2172, 5118
8390, 3993, 4974, 4221, 5424
8391, 2578, 3992, 4624, 4813
8392, 3979, 4796, 3124, 5407
8393, 750, 3912, 751, 5041
8394, 2383, 3912, 2384, 5040
8395, 2106, 3897, 2104, 4821
8396, 3879, 4392, 2623, 5201
8397, 2362, 2499, 2345, 5260
8398, 2060, 3948, 2061, 5109
8399, 2869, 3953, 3317, 5110
8400, 1323, 3820, 935, 4913
8401, 2956, 3821, 2568, 4914
8402, 2490, 2559, 3925, 4915
8403, 2011, 2009, 3954, 4980
8404, 378, 376, 3955, 4981
8405, 1344, 4096, 4919, 4954
8406, 2342, 2390, 3982, 5111
8407, 2240, 3973, 2243, 5081
8408, 2147, 3913, 3056, 4886
8409, 1423, 514, 3914, 4887
8410, 2893, 3850, 2643, 4900
8411, 997, 3805, 1665, 4897
8412, 2231, 3920, 2954, 4891
8413, 1372, 3917, 444, 4888
8414, 3005, 3918, 2077, 4889
8415, 2438, 2440, 3847, 4885
8416, 2229, 3968, 2967, 4901
8417, 3040, 3256, 3844, 4896
8418, 3244, 3848, 3245, 4899
8419, 2641, 3890, 2984, 4890
8420, 2184, 3882, 2902, 4895
8421, 551, 3883, 1269, 4894
8422, 3234, 3252, 3893, 4893
8423, 1619, 3892, 1601, 4892
8424, 1013, 3941, 1695, 4898
8425, 756, 3915, 812, 5045
8426, 2445, 2389, 3916, 5044
8427, 616, 651, 3988, 4902
8428, 1545, 3842, 803, 5288
8429, 3178, 3843, 2436, 5289
8430, 2175, 3760, 3192, 4904
8431, 1506, 4051, 5374, 5494
8432, 4050, 5373, 3138, 5493
8433, 428, 3948, 426, 5099
8434, 2282, 3949, 2794, 5090
8435, 2679, 4019, 3361, 5258
8436, 793, 3900, 1568, 5097
8437, 2621, 3807, 2047, 5096
8438, 988, 3807, 414, 5095
8439, 650, 4842, 3902, 4876
8440, 3162, 3241, 3135, 4252
8441, 2717, 2642, 3960, 4838
8442, 1554, 971, 3909, 5097
8443, 1315, 1594, 3769, 5095
8444, 3227, 3769, 2948, 5096
8445, 1439, 3987, 1222, 4903
8446, 1387, 3926, 427, 5099
8447, 1306, 4029, 1738, 5468
8448, 2988, 3940, 2068, 5090
8449, 3842, 2947, 4562, 4859
8450, 3843, 1314, 4563, 4858
8451, 2954, 3920, 3120, 5461
8452, 3089, 4745, 4133, 5255
8453, 4133, 4745, 3089, 4873
8454, 2310, 3926, 2059, 5109
8455, 2870, 3825, 2576, 5110
8456, 2341, 3969, 3162, 5111
8457, 1196, 4059, 942, 5445
8458, 3023, 3904, 4695, 4702
8459, 2054, 2052, 3942, 5053
8460, 1337, 902, 3761, 5251
8461, 2241, 3799, 2238, 5081
8462, 1956, 4263, 2780, 4852
8463, 3660, 1940, 3587, 4355
8464, 1225, 4085, 1778, 5360
8465, 2858, 4086, 3411, 5359
8466, 1664, 1331, 1663, 5412
8467, 3187, 2604, 3910, 5135
8468, 2181, 3809, 3148, 5182
8469, 481, 3879, 483, 5174
8470, 2335, 3775, 3093, 5048
8471, 3666, 3744, 3729, 4135
8472, 2420, 4014, 2468, 5425
8473, 1311, 4031, 1736, 4680
8474, 2944, 4032, 3369, 4679
8475, 1685, 3959, 1014, 5141
8476, 2016, 2017, 3765, 5144
8477, 384, 3766, 383, 5145
8478, 1073, 3992, 1072, 4906
8479, 436, 3898, 439, 5074
8480, 975, 4010, 976, 4878
8481, 432, 433, 3940, 5087
8482, 1638, 1557, 3982, 4932
8483, 2440, 2439, 3847, 4986
8484, 3238, 2959, 4002, 4867
8485, 1454, 3900, 793, 4987
8486, 3087, 3901, 2426, 4988
8487, 2912, 3917, 3038, 4989
8488, 1279, 3918, 1405, 4990
8489, 2722, 3271, 3983, 4991
8490, 771, 3861, 1614, 5160
8491, 3085, 3278, 3909, 5157
8492, 1645, 3910, 1452, 5156
8493, 2087, 3885, 3054, 5159
8494, 454, 3884, 1421, 5158
8495, 1026, 1025, 3825, 5161
8496, 1550, 373, 3985, 4992
8497, 1739, 4006, 1722, 5468
8498, 1578, 972, 3916, 4926
8499, 3211, 2605, 3915, 4925
8500, 898, 3994, 754, 5045
8501, 2531, 3995, 2387, 5044
8502, 3058, 2238, 3799, 5058
8503, 1624, 3949, 1590, 5172
8504, 2879, 2878, 3886, 4870
8505, 543, 3938, 1262, 4917
8506, 2176, 3939, 2895, 4918
8507, 1731, 1730, 4025, 5078
8508, 4101, 4359, 2548, 4958
8509, 773, 3946, 785, 4922
8510, 2418, 2406, 3947, 4923
8511, 1474, 4030, 950, 4770
8512, 740, 1351, 3891, 4869
8513, 2984, 3890, 2373, 4868
8514, 2487, 4005, 2557, 4836
8515, 854, 4004, 924, 4837
8516, 2564, 4217, 5108, 5268
8517, 931, 4216, 5107, 5269
8518, 3041, 3042, 3934, 5203
8519, 1409, 3935, 1408, 5202
8520, 2623, 2488, 3879, 5201
8521, 2071, 3945, 3039, 5204
8522, 2524, 3911, 2378, 5205
8523, 522, 3889, 519, 4966
8524, 2155, 3888, 2152, 4965
8525, 587, 1585, 3906, 5208
8526, 3218, 3907, 2220, 5207
8527, 2649, 3957, 2780, 5200
8528, 2986, 3861, 2637, 5314
8529, 3286, 3758, 2629, 5019
8530, 1015, 3957, 1303, 5391
8531, 2351, 2352, 3963, 5210
8532, 719, 3962, 718, 5209
8533, 575, 624, 3984, 5206
8534, 863, 987, 3839, 5217
8535, 3281, 3758, 3286, 4944
8536, 1648, 3759, 1653, 4943
8537, 1278, 3843, 1272, 4941
8538, 2911, 3842, 2905, 4942
8539, 2143, 2145, 3944, 4945
8540, 512, 3943, 510, 4946
8541, 2334, 2359, 3822, 5022
8542, 2135, 3803, 2128, 4996
8543, 495, 502, 3804, 4997
8544, 3170, 2716, 3804, 5008
8545, 1083, 3803, 1537, 5009
8546, 1433, 3854, 1486, 4998
8547, 3119, 3066, 3855, 4999
8548, 546, 3797, 577, 5006
8549, 1276, 1434, 3857, 5000
8550, 2909, 3067, 3858, 5001
8551, 635, 3837, 583, 5002
8552, 2036, 3770, 2038, 5011
8553, 403, 3771, 405, 5012
8554, 2162, 2161, 3824, 5007
8555, 946, 1392, 3785, 5005
8556, 2020, 3785, 3314, 4947
8557, 1509, 540, 3776, 5017
8558, 3142, 2173, 3777, 5018
8559, 887, 3798, 1560, 5010
8560, 735, 3777, 963, 5015
8561, 2368, 3776, 2596, 5016
8562, 1001, 1000, 3824, 5013
8563, 1611, 3849, 1612, 5014
8564, 817, 814, 3873, 4949
8565, 2447, 3874, 2450, 4950
8566, 1531, 3921, 398, 5020
8567, 2031, 3164, 3922, 5021
8568, 601, 3812, 600, 5025
8569, 2006, 3998, 3183, 4928
8570, 3025, 3786, 2579, 4955
8571, 658, 3816, 659, 5024
8572, 2291, 3817, 2292, 5023
8573, 4208, 4489, 4028, 5055
8574, 1085, 3872, 878, 4994
8575, 700, 705, 3818, 5026
8576, 980, 3789, 1581, 4985
8577, 3214, 2613, 3790, 4984
8578, 1081, 3956, 1419, 5234
8579, 2593, 3834, 2970, 4826
8580, 2578, 2552, 3992, 4813
8581, 619, 621, 3784, 5029
8582, 2254, 3783, 2252, 5028
8583, 2517, 3820, 2900, 4832
8584, 2140, 3927, 2141, 5188
8585, 507, 3928, 508, 5187
8586, 710, 711, 3969, 5245
8587, 1276, 3857, 1280, 5088
8588, 1702, 1145, 3953, 5134
8589, 3254, 2788, 3950, 4855
8590, 1155, 3951, 1621, 4856
8591, 1089, 1638, 3982, 4960
8592, 824, 3995, 753, 5041
8593, 2457, 3994, 2386, 5040
8594, 3826, 4436, 4136, 4771
8595, 692, 4000, 1300, 5003
8596, 2325, 4001, 2933, 5004
8597, 2974, 4038, 4708, 5410
8598, 2843, 2707, 2705, 4107
8599, 2589, 2590, 4023, 5505
8600, 1029, 3998, 1144, 5402
8601, 957, 4024, 956, 5506
8602, 2662, 3985, 2777, 5401
8603, 3370, 4017, 3167, 5273
8604, 1722, 4428, 4006, 5079
8605, 3772, 4118, 4347, 5269
8606, 846, 3756, 1255, 5195
8607, 2479, 3757, 2888, 5194
8608, 2608, 4011, 2609, 5031
8609, 1533, 4007, 1530, 5140
8610, 2555, 3756, 2460, 4860
8611, 827, 922, 3757, 4861
8612, 3166, 4008, 3163, 5142
8613, 3935, 4635, 4074, 4735
8614, 2011, 3954, 2010, 4995
8615, 377, 378, 3955, 4951
8616, 1587, 4003, 970, 5212
8617, 729, 3763, 1418, 5231
8618, 3051, 2362, 3762, 5232
8619, 2677, 4006, 2671, 4975
8620, 1216, 1215, 1219, 4100
8621, 2849, 2848, 2852, 4099
8622, 2612, 2671, 4006, 4879
8623, 2353, 3075, 3962, 4833
8624, 720, 1442, 3963, 4834
8625, 3774, 4409, 702, 5522
8626, 3775, 4408, 2335, 5521
8627, 790, 4050, 1379, 4768
8628, 2423, 4051, 3012, 4769
8629, 2585, 4003, 2854, 5211
8630, 3157, 4018, 2606, 5035
8631, 3887, 4512, 2108, 4821
8632, 3744, 4135, 3666, 5134
8633, 2503, 3988, 2713, 5027
8634, 1714, 4124, 4766, 5306
8635, 2536, 3757, 2479, 4948
8636, 903, 3756, 846, 4957
8637, 1743, 1042, 4009, 5179
8638, 949, 4027, 1317, 4761
8639, 2942, 4269, 2943, 5500
8640, 733, 706, 1463, 4254
8641, 3096, 2366, 2339, 4253
8642, 1057, 4056, 1035, 5093
8643, 2668, 2690, 4057, 5094
8644, 2506, 2504, 4020, 5030
8645, 3661, 3572, 3461, 4354
8646, 2582, 4028, 2950, 4765
8647, 883, 4243, 812, 5348
8648, 2516, 4242, 2445, 5347
8649, 3355, 4012, 2674, 5098
8650, 1061, 1063, 1181, 4069
8651, 3997, 4363, 1173, 4922
8652, 3996, 4364, 2806, 4923
8653, 2814, 2694, 2696, 4064
8654, 4031, 1311, 4676, 5458
8655, 1040, 4032, 1721, 4736
8656, 2353, 2366, 2589, 4253
8657, 733, 956, 720, 4254
8658, 1006, 1002, 934, 4730
8659, 1202, 4046, 1086, 4994
8660, 1465, 4056, 1057, 4911
8661, 3098, 4057, 2690, 4912
8662, 2700, 4972, 4048, 5068
8663, 956, 4024, 1097, 4834
8664, 728, 4020, 841, 4786
8665, 2589, 4023, 2730, 4833
8666, 1743, 4009, 1538, 5039
8667, 650, 1398, 4258, 5197
8668, 2470, 4030, 2478, 4638
8669, 1900, 1850, 1821, 5526
8670, 534, 4498, 4191, 5287
8671, 4305, 4308, 3926, 5378
8672, 3239, 2632, 2634, 4978
8673, 3239, 3256, 2267, 4978
8674, 922, 1077, 3757, 5125
8675, 2710, 3756, 2555, 5121
8676, 392, 504, 390, 4346
8677, 2023, 2025, 2137, 4347
8678, 394, 392, 393, 4346
8679, 2025, 2026, 2027, 4347
8680, 3027, 4706, 3850, 5495
8681, 770, 4072, 563, 5452
8682, 2248, 4074, 2249, 5454
8683, 3948, 4133, 5087, 5255
8684, 2535, 4058, 4826, 4862
8685, 1183, 4008, 1184, 4839
8686, 3154, 3966, 4483, 4756
8687, 1962, 3375, 3622, 5143
8688, 1740, 1041, 4019, 4732
8689, 3372, 2941, 4025, 5098
8690, 589, 5164, 3970, 5490
8691, 4003, 968, 4817, 5361
8692, 3897, 4295, 2104, 4821
8693, 3356, 4053, 2733, 5389
8694, 1100, 1723, 4054, 5390
8695, 2703, 4069, 2481, 4820
8696, 2875, 2781, 2749, 4441
8697, 1148, 1116, 1242, 4442
8698, 3492, 3459, 311, 4356
8699, 1683, 1199, 1627, 5464
8700, 2922, 3904, 4701, 4703
8701, 2970, 2535, 4826, 4862
8702, 3364, 4029, 3365, 5131
8703, 1070, 4064, 848, 4819
8704, 3059, 2350, 4013, 4974
8705, 1426, 717, 4014, 4971
8706, 2857, 4086, 3411, 5061
8707, 1224, 4085, 1778, 5062
8708, 2417, 4756, 4052, 4816
8709, 825, 4037, 1325, 5150
8710, 4077, 4710, 1918, 5124
8711, 4076, 4711, 3556, 5123
8712, 3950, 5033, 4423, 5285
8713, 3951, 5034, 4422, 5286
8714, 4133, 4763, 3926, 5099
8715, 2944, 2946, 4032, 5080
8716, 3579, 1962, 3622, 5143
8717, 4137, 4948, 3757, 5231
8718, 3763, 4948, 4137, 5231
8719, 1354, 1063, 4140, 5265
8720, 1738, 4029, 1307, 4857
8721, 866, 712, 729, 5271
8722, 3948, 5106, 2062, 5255
8723, 957, 1097, 4024, 5219
8724, 2730, 4023, 2590, 5220
8725, 4010, 977, 4649, 5193
8726, 2447, 3874, 4829, 4989
8727, 3873, 4828, 814, 4990
8728, 1532, 3826, 4831, 4992
8729, 1725, 4034, 1580, 4759
8730, 3859, 938, 4690, 5055
8731, 3752, 3434, 1938, 4260
8732, 3751, 1801, 3571, 4259
8733, 1862, 1839, 3410, 4709
8734, 2175, 2167, 3192, 5417
8735, 2441, 3899, 4664, 4986
8736, 3908, 1396, 4714, 5312
8737, 3376, 4009, 4659, 4843
8738, 3690, 341, 3682, 4317
8739, 3681, 3688, 2842, 4316
8740, 341, 3690, 1209, 4317
8741, 2842, 1974, 3681, 4316
8742, 4012, 5098, 4105, 5400
8743, 422, 420, 421, 5415
8744, 1855, 1944, 1824, 4357
8745, 1024, 1022, 4721, 5313
8746, 3956, 4814, 1419, 5234
8747, 2360, 4052, 2522, 4755
8748, 1832, 4183, 1920, 5526
8749, 2549, 2972, 4037, 4790
8750, 3358, 4033, 3213, 4760
8751, 2669, 4506, 4034, 5368
8752, 2974, 4708, 2978, 5410
8753, 2811, 2810, 2594, 4404
8754, 2535, 4058, 2971, 4826
8755, 4074, 4635, 2248, 4775
8756, 3925, 4327, 1666, 4740
8757, 594, 1174, 1176, 4494
8758, 750, 4714, 3912, 5041
8759, 3480, 3562, 3544, 3754
8760, 1851, 1925, 1913, 3753
8761, 1723, 1741, 4335, 5375
8762, 1945, 4070, 2752, 5386
8763, 1805, 4481, 3467, 5215
8764, 767, 768, 3996, 4618
8765, 2400, 2401, 3997, 4617
8766, 1317, 4027, 830, 4930
8767, 2950, 4028, 2463, 4931
8768, 3762, 4957, 4138, 5232
8769, 4138, 4957, 3756, 5232
8770, 961, 4045, 1177, 5419
8771, 2810, 2594, 4046, 5420
8772, 3878, 4468, 682, 4698
8773, 3230, 4697, 2718, 5274
8774, 3546, 4481, 4493, 5215
8775, 4054, 4319, 3640, 5375
8776, 3530, 3568, 4699, 5300
8777, 4092, 4786, 4255, 5450
8778, 3175, 4713, 3869, 5524
8779, 3499, 3541, 4089, 5293
8780, 4104, 4393, 3653, 5221
8781, 3360, 4054, 3359, 5448
8782, 3562, 3463, 3544, 3754
8783, 1925, 1830, 1913, 3753
8784, 4296, 4858, 472, 5244
8785, 3792, 4379, 4229, 5201
8786, 1400, 419, 417, 4184
8787, 3362, 4019, 2679, 4975
8788, 3312, 3313, 2990, 4185
8789, 925, 4211, 4784, 5102
8790, 1969, 3436, 3406, 4493
8791, 4003, 4817, 4107, 5361
8792, 3780, 4435, 5237, 5469
8793, 4026, 872, 4402, 4671
8794, 1935, 4275, 1891, 5356
8795, 1098, 4034, 1725, 5104
8796, 1244, 3849, 4580, 5229
8797, 3845, 1602, 4602, 5230
8798, 1232, 3954, 4613, 5226
8799, 426, 4358, 425, 5099
8800, 1543, 977, 975, 5193
8801, 3559, 3548, 3501, 3755
8802, 3712, 2992, 3675, 4920
8803, 3548, 3559, 3450, 3755
8804, 3334, 2778, 4102, 5513
8805, 1059, 951, 4130, 4854
8806, 2617, 3058, 4375, 4953
8807, 1146, 1019, 1704, 5358
8808, 1325, 4037, 1326, 4824
8809, 4029, 4665, 1738, 5468
8810, 1637, 4963, 4346, 5350
8811, 3270, 4962, 4347, 5349
8812, 2594, 4783, 4046, 5420
8813, 3939, 4689, 4148, 5091
8814, 1125, 4111, 1134, 5129
8815, 1038, 4025, 1730, 4805
8816, 2831, 4060, 2829, 4820
8817, 1504, 1157, 1441, 4218
8818, 1198, 4059, 1196, 4819
8819, 818, 1004, 816, 4348
8820, 2101, 4562, 2947, 4859
8821, 468, 4563, 1314, 4858
8822, 3860, 2571, 4705, 5057
8823, 1539, 4040, 4491, 5298
8824, 3172, 4039, 4492, 5299
8825, 2731, 4033, 3358, 5105
8826, 2669, 4034, 3351, 4882
8827, 4069, 4785, 2481, 4820
8828, 3299, 3872, 4404, 5483
8829, 780, 4002, 916, 4919
8830, 2520, 5066, 4687, 5413
8831, 3773, 4508, 1382, 5323
8832, 2201, 2195, 2928, 5405
8833, 1283, 345, 3701, 4969
8834, 3696, 1283, 3701, 4969
8835, 2256, 4549, 3837, 5403
8836, 3784, 4622, 3045, 5404
8837, 3828, 4863, 1540, 5170
8838, 3966, 4756, 3154, 4816
8839, 3968, 889, 4782, 4909
8840, 544, 1559, 534, 5264
8841, 3601, 3595, 3643, 4340
8842, 4185, 4270, 5284, 5352
8843, 758, 4726, 3983, 5079
8844, 2299, 4825, 4379, 5453
8845, 3952, 3053, 4404, 5474
8846, 3944, 4607, 4470, 4945
8847, 3943, 4606, 4469, 4946
8848, 954, 1493, 1333, 5408
8849, 1202, 4784, 4046, 4994
8850, 3810, 5128, 4149, 5413
8851, 2949, 4242, 2516, 5347
8852, 1316, 4243, 883, 5348
8853, 2966, 2587, 3126, 5406
8854, 3642, 3599, 3594, 4341
8855, 4636, 5460, 4143, 5468
8856, 4064, 4787, 848, 4819
8857, 2528, 3933, 4645, 5399
8858, 361, 1227, 5120, 5445
8859, 3707, 1698, 1711, 4970
8860, 3707, 3669, 1698, 4970
8861, 3446, 4089, 3541, 5120
8862, 3450, 3755, 3559, 4684
8863, 3960, 4400, 4265, 4968
8864, 3981, 3121, 4624, 5030
8865, 1718, 4033, 1717, 5126
8866, 4032, 4269, 2944, 5080
8867, 4229, 4814, 3956, 4915
8868, 1036, 4505, 4033, 5381
8869, 1860, 1861, 1932, 4038
8870, 1737, 4018, 4654, 4857
8871, 710, 3969, 4976, 5245
8872, 3925, 4814, 4229, 4915
8873, 2095, 3866, 4661, 4999
8874, 2914, 3855, 4662, 5001
8875, 3991, 4093, 4742, 5331
8876, 3990, 4094, 4741, 5330
8877, 2673, 4031, 3354, 5035
8878, 3820, 4457, 935, 4913
8879, 2937, 4072, 2930, 4821
8880, 873, 872, 4026, 5383
8881, 3825, 4928, 2576, 5110
8882, 1732, 4318, 4104, 5221
8883, 4139, 5035, 4018, 5183
8884, 2157, 4256, 2156, 4485
8885, 3769, 4279, 4434, 5364
8886, 2581, 2622, 2508, 4345
8887, 2576, 3825, 4648, 4928
8888, 1079, 4625, 3989, 5383
8889, 3161, 4851, 3777, 5240
8890, 3776, 1528, 4850, 5241
8891, 1966, 2768, 4181, 4278
8892, 3350, 3351, 4034, 5127
8893, 2630, 4687, 3806, 5048
8894, 3226, 4324, 5471, 5479
8895, 1895, 4097, 1929, 5306
8896, 368, 4259, 1801, 5376
8897, 3434, 2001, 4260, 5377
8898, 961, 1177, 4045, 4814
8899, 564, 3871, 4477, 5037
8900, 2197, 3870, 4476, 5036
8901, 3638, 4801, 4099, 5395
8902, 3639, 4800, 4100, 5394
8903, 576, 3885, 4529, 4946
8904, 2209, 3884, 4530, 4945
8905, 3829, 2906, 4559, 4942
8906, 3830, 1273, 4560, 4941
8907, 1334, 4052, 1335, 5284
8908, 1107, 4022, 4367, 4669
8909, 2740, 4021, 4368, 4670
8910, 379, 3833, 4632, 4951
8911, 3087, 3901, 4388, 5042
8912, 2686, 2481, 2703, 5396
8913, 1343, 4082, 1340, 4429
8914, 1573, 4370, 3803, 4584
8915, 3206, 4371, 3804, 4585
8916, 3497, 3496, 4112, 5293
8917, 2674, 4012, 4747, 5400
8918, 3939, 5056, 5091, 5508
8919, 3109, 2623, 4392, 5201
8920, 2484, 4617, 3946, 5373
8921, 3947, 851, 4618, 5374
8922, 3939, 4123, 4314, 5296
8923, 2413, 3186, 4075, 4790
8924, 3693, 3746, 4400, 4968
8925, 2202, 2403, 4746, 4870
8926, 2320, 3782, 4597, 4955
8927, 862, 772, 863, 5281
8928, 3445, 1501, 3483, 4320
8929, 1853, 3134, 1829, 4321
8930, 884, 1435, 776, 4445
8931, 776, 864, 865, 4445
8932, 1637, 504, 4346, 4963
8933, 2137, 4347, 3270, 4962
8934, 2593, 4616, 3834, 4826
8935, 2542, 2739, 4021, 5492
8936, 909, 1106, 4022, 5491
8937, 1910, 4766, 4095, 4916
8938, 4280, 3945, 4446, 5371
8939, 2364, 5282, 4179, 5328
8940, 731, 5283, 4180, 5329
8941, 1838, 3147, 1954, 4804
8942, 3892, 2168, 4570, 5514
8943, 3842, 648, 4544, 5515
8944, 3843, 2281, 4543, 5516
8945, 684, 3850, 4580, 5517
8946, 2865, 3955, 4614, 5518
8947, 3993, 723, 4639, 5024
8948, 3959, 1014, 5141, 5213
8949, 2356, 4640, 3999, 5023
8950, 4326, 4717, 550, 5510
8951, 3885, 4946, 576, 5343
8952, 2209, 3884, 4945, 5342
8953, 2525, 4646, 3899, 4986
8954, 488, 4644, 3788, 4987
8955, 2121, 4643, 3787, 4988
8956, 915, 4092, 1374, 5379
8957, 3881, 4791, 1656, 5463
8958, 2946, 3369, 4032, 4843
8959, 757, 4927, 3983, 5490
8960, 4137, 4252, 3964, 5368
8961, 4017, 4653, 3167, 5273
8962, 4138, 4957, 3762, 5512
8963, 1383, 1506, 4051, 4963
8964, 3138, 4050, 3016, 4962
8965, 3073, 4408, 3789, 4590
8966, 1440, 4409, 3790, 4591
8967, 4057, 4442, 4093, 5346
8968, 4056, 4441, 4094, 5345
8969, 3817, 2290, 4666, 5018
8970, 3816, 657, 4667, 5017
8971, 374, 4981, 1241, 5360
8972, 2007, 4980, 2874, 5359
8973, 646, 4413, 4001, 4632
8974, 2279, 4414, 4000, 4633
8975, 3276, 2727, 4205, 5253
8976, 4105, 4012, 4805, 5098
8977, 1398, 5197, 1454, 5262
8978, 2408, 3068, 4044, 4832
8979, 2492, 4875, 3839, 4924
8980, 480, 650, 1398, 4258
8981, 2159, 2158, 2157, 4256
8982, 2158, 2160, 2156, 4256
8983, 680, 528, 533, 4257
8984, 4242, 4653, 3916, 4878
8985, 1313, 1736, 4031, 5039
8986, 3372, 5098, 4490, 5525
8987, 1369, 4062, 840, 5466
8988, 3002, 4063, 2473, 5467
8989, 3267, 4830, 3837, 5475
8990, 3044, 3784, 4827, 5473
8991, 3072, 4615, 3973, 5502
8992, 4086, 5061, 4268, 5084
8993, 4085, 5062, 4267, 5085
8994, 2971, 2535, 2978, 4058
8995, 2518, 2723, 2517, 5393
8996, 1920, 4183, 1924, 5372
8997, 3546, 4481, 3506, 4493
8998, 320, 4969, 4263, 5213
8999, 4124, 4448, 2860, 4650
9000, 2380, 4663, 3838, 5524
9001, 2814, 4064, 2696, 5223
9002, 3921, 4285, 2149, 5246
9003, 3922, 4286, 516, 5247
9004, 3925, 2559, 4697, 5384
9005, 4164, 4883, 536, 5510
9006, 3759, 1648, 4726, 5037
9007, 3281, 4727, 3758, 5036
9008, 2518, 2724, 2723, 4262
9009, 2820, 2518, 2956, 4262
9010, 795, 855, 5077, 5408
9011, 2001, 3752, 3715, 5377
9012, 1137, 4101, 1424, 5421
9013, 1991, 4071, 2758, 4847
9014, 3266, 3138, 5373, 5493
9015, 1506, 5374, 1633, 5494
9016, 3845, 4830, 3274, 5486
9017, 4003, 4993, 970, 5212
9018, 3530, 4699, 4071, 5300
9019, 3763, 4865, 2347, 4948
9020, 1383, 4051, 1506, 5494
9021, 3138, 3016, 4050, 5493
9022, 333, 1135, 1136, 4454
9023, 4060, 2831, 4705, 5142
9024, 2359, 3822, 4458, 4755
9025, 3762, 4864, 714, 4957
9026, 3578, 3377, 4801, 5389
9027, 3580, 1744, 4800, 5390
9028, 3780, 421, 5415, 5469
9029, 4255, 4786, 4020, 5450
9030, 1068, 4080, 1163, 5326
9031, 2701, 4081, 2796, 5325
9032, 4083, 5133, 1761, 5526
9033, 2051, 4184, 5053, 5237
9034, 2674, 5098, 4012, 5400
9035, 2591, 2861, 2592, 4221
9036, 4150, 3771, 4881, 5068
9037, 4151, 3770, 4880, 5067
9038, 3797, 5066, 4516, 5413
9039, 1494, 769, 418, 5462
9040, 3954, 2009, 4648, 4980
9041, 1371, 3999, 4629, 4971
9042, 4149, 5066, 3797, 5413
9043, 1228, 959, 958, 4222
9044, 2424, 3764, 4512, 4840
9045, 2949, 3906, 4944, 5347
9046, 1316, 3907, 4943, 5348
9047, 3808, 4484, 3303, 4815
9048, 3140, 3387, 1950, 4684
9049, 2539, 5137, 4108, 5465
9050, 3948, 5087, 4146, 5255
9051, 3356, 2733, 4053, 4882
9052, 4059, 1198, 4690, 5140
9053, 4667, 4850, 678, 5209
9054, 4666, 4851, 2311, 5210
9055, 3004, 3993, 4628, 4974
9056, 1264, 606, 4200, 5332
9057, 1100, 4054, 1723, 4811
9058, 3311, 2895, 2176, 5508
9059, 2541, 4065, 2745, 4673
9060, 908, 4067, 1112, 4674
9061, 2477, 4030, 2470, 4668
9062, 2666, 3172, 4039, 5401
9063, 1539, 4040, 1033, 5402
9064, 1842, 1920, 1863, 4183
9065, 2534, 2978, 2535, 4862
9066, 1688, 3782, 4792, 5463
9067, 3824, 1000, 4691, 5054
9068, 3450, 3548, 3755, 4772
9069, 501, 791, 4084, 5451
9070, 3872, 4484, 4210, 5050
9071, 477, 4571, 3893, 4883
9072, 3277, 3845, 4795, 5485
9073, 2332, 4793, 3851, 5487
9074, 3932, 4795, 2644, 5486
9075, 2495, 2404, 2405, 4196
9076, 2614, 3228, 3231, 4194
9077, 2513, 2614, 3231, 4194
9078, 981, 1598, 880, 4195
9079, 3257, 2563, 3039, 4197
9080, 3236, 2581, 3231, 4193
9081, 1603, 948, 1598, 4192
9082, 1401, 1603, 1598, 4192
9083, 3034, 3236, 3231, 4193
9084, 1569, 606, 603, 4200
9085, 2072, 2074, 2070, 4198
9086, 3822, 4458, 4313, 5022
9087, 1569, 1264, 606, 4200
9088, 1073, 4750, 3992, 4906
9089, 442, 4047, 479, 5469
9090, 3369, 4679, 4032, 4843
9091, 2005, 4040, 2856, 5162
9092, 372, 4039, 1223, 5163
9093, 2729, 2550, 2471, 4144
9094, 1450, 3771, 4591, 4881
9095, 3083, 3770, 4590, 4880
9096, 1724, 4099, 1713, 5104
9097, 1327, 4110, 1328, 4459
9098, 3978, 4627, 4366, 4675
9099, 829, 1647, 1649, 4261
9100, 2423, 4051, 4769, 5147
9101, 790, 4050, 4768, 5146
9102, 4028, 2950, 4765, 4871
9103, 3357, 4100, 3346, 5105
9104, 791, 5380, 4084, 5451
9105, 2930, 2106, 4821, 5508
9106, 780, 4366, 4002, 4919
9107, 4006, 4732, 1722, 5468
9108, 2825, 4334, 3878, 4773
9109, 2748, 4042, 2750, 4441
9110, 1115, 4041, 1117, 4442
9111, 4103, 5089, 3933, 5358
9112, 1711, 1700, 4135, 5292
9113, 1752, 1078, 4481, 5125
9114, 3509, 3545, 3470, 5198
9115, 4154, 4469, 2841, 5159
9116, 1208, 4153, 4470, 5158
9117, 1875, 1914, 1837, 5199
9118, 4010, 4653, 4242, 4878
9119, 816, 4949, 3862, 5315
9120, 2813, 3937, 4924, 5449
9121, 3886, 2879, 4870, 5138
9122, 4513, 4881, 3771, 5068
9123, 4514, 4880, 3770, 5067
9124, 902, 4447, 3761, 5251
9125, 3087, 2117, 2115, 4388
9126, 2381, 4219, 4933, 5046
9127, 2691, 2795, 3063, 4093
9128, 1058, 1162, 1430, 4094
9129, 3926, 4873, 4133, 5109
9130, 2719, 2835, 4045, 5384
9131, 2112, 4134, 2114, 5191
9132, 4248, 5115, 3984, 5212
9133, 1181, 4069, 1063, 4767
9134, 4687, 5066, 4149, 5413
9135, 3184, 2785, 4385, 5285
9136, 1551, 1152, 4386, 5286
9137, 1685, 4754, 3959, 5141
9138, 749, 827, 4137, 4861
9139, 2460, 4138, 2382, 4860
9140, 4210, 4404, 3872, 4994
9141, 2053, 3780, 4540, 5378
9142, 4268, 5061, 2751, 5084
9143, 4267, 5062, 1118, 5085
9144, 1179, 1180, 1422, 5419
9145, 3055, 2812, 2813, 5420
9146, 1411, 3783, 4623, 4846
9147, 1791, 3458, 3482, 4764
9148, 1282, 4198, 4983, 5088
9149, 1607, 1085, 4210, 5281
9150, 4178, 4649, 4010, 5019
9151, 2711, 4098, 2834, 5121
9152, 1508, 4095, 1876, 4766
9153, 4064, 4819, 4209, 5176
9154, 3438, 4496, 1835, 5216
9155, 3220, 2603, 4055, 5167
9156, 4021, 4673, 2739, 5165
9157, 4022, 4674, 1106, 5166
9158, 2813, 4446, 3937, 5449
9159, 3758, 4649, 1588, 4960
9160, 3744, 3729, 4135, 4480
9161, 3854, 4545, 4225, 5000
9162, 4225, 4545, 3857, 5000
9163, 4232, 4583, 3824, 5007
9164, 3856, 4583, 4232, 5007
9165, 4247, 4616, 3975, 5026
9166, 3818, 4616, 4247, 5026
9167, 829, 1575, 1647, 5307
9168, 632, 633, 4247, 5206
9169, 624, 4248, 1205, 5212
9170, 2414, 3205, 4250, 5211
9171, 4126, 4316, 2003, 5162
9172, 4127, 4317, 370, 5163
9173, 1631, 4929, 3972, 5341
9174, 2046, 3902, 4499, 4518
9175, 1448, 4083, 1761, 5526
9176, 2976, 2974, 1990, 4709
9177, 4206, 4488, 5057, 5260
9178, 4205, 4486, 5051, 5253
9179, 3539, 3551, 3491, 4041
9180, 1901, 1833, 1909, 4042
9181, 4055, 4737, 905, 4750
9182, 1120, 1467, 313, 5133
9183, 3453, 3487, 1949, 4758
9184, 1820, 1873, 316, 4757
9185, 3230, 3813, 4697, 5274
9186, 3950, 4212, 4363, 4692
9187, 3951, 4213, 4364, 4693
9188, 3793, 5077, 4303, 5408
9189, 1201, 1078, 4090, 5125
9190, 3166, 4820, 4008, 5142
9191, 2211, 4539, 3802, 5422
9192, 492, 4735, 4073, 4739
9193, 813, 4166, 810, 4828
9194, 2446, 4165, 2443, 4829
9195, 653, 1532, 4170, 4831
9196, 3600, 3640, 3594, 4319
9197, 1533, 4819, 4007, 5140
9198, 3407, 2803, 4015, 4758
9199, 1170, 4016, 1774, 4757
9200, 3349, 4087, 3378, 5194
9201, 1716, 4088, 1745, 5195
9202, 3989, 1079, 4734, 5214
9203, 2242, 3114, 4191, 5453
9204, 569, 5056, 571, 5452
9205, 642, 4044, 864, 5344
9206, 1317, 4761, 4027, 4877
9207, 3339, 4682, 2649, 5200
9208, 855, 3880, 4744, 5077
9209, 3583, 3650, 4139, 5388
9210, 2154, 4547, 3800, 4965
9211, 521, 4548, 3801, 4966
9212, 4224, 5471, 4324, 5479
9213, 2711, 4496, 3385, 5121
9214, 4009, 4658, 1538, 5039
9215, 1550, 1234, 1235, 4482
9216, 3362, 2927, 3361, 4419
9217, 2478, 4030, 2477, 5243
9218, 2245, 2242, 2244, 4191
9219, 2456, 2382, 4138, 5276
9220, 749, 4137, 823, 5275
9221, 2091, 4661, 3865, 5470
9222, 3752, 1938, 1826, 4260
9223, 3751, 3571, 3677, 4259
9224, 546, 5006, 547, 5103
9225, 3930, 4630, 2357, 5425
9226, 1409, 4738, 3935, 5202
9227, 2848, 3629, 3575, 4354
9228, 3628, 3576, 1215, 4355
9229, 3939, 5056, 4123, 5296
9230, 2788, 2786, 3203, 5285
9231, 1155, 1153, 1570, 5286
9232, 3659, 3639, 3576, 4100
9233, 3575, 3658, 3638, 4099
9234, 1940, 1827, 3587, 4355
9235, 3461, 3588, 3661, 4354
9236, 3952, 4233, 5077, 5474
9237, 1898, 1908, 1869, 4110
9238, 3992, 1072, 4906, 5484
9239, 3844, 4433, 1544, 4541
9240, 3893, 4701, 4883, 4893
9241, 4431, 4722, 3901, 4988
9242, 3831, 2217, 4569, 5169
9243, 563, 4072, 770, 5091
9244, 4256, 5052, 3800, 5054
9245, 3480, 3754, 3544, 4758
9246, 1851, 3753, 1913, 4757
9247, 2680, 4847, 4092, 5414
9248, 2015, 3765, 4633, 5443
9249, 382, 3766, 4632, 5444
9250, 3758, 4242, 4649, 5019
9251, 3148, 4167, 3305, 5182
9252, 1320, 4593, 3890, 5139
9253, 3793, 4637, 2124, 5474
9254, 3930, 4629, 628, 5442
9255, 3931, 4628, 2261, 5441
9256, 3643, 4053, 3641, 5389
9257, 3642, 4054, 3640, 5390
9258, 3833, 4600, 1498, 5444
9259, 3832, 4599, 3131, 5443
9260, 1066, 4049, 1187, 5418
9261, 464, 4566, 3853, 5431
9262, 2097, 4565, 3852, 5430
9263, 3784, 4551, 2138, 5439
9264, 3783, 4550, 505, 5440
9265, 582, 4564, 3819, 5437
9266, 703, 4579, 3841, 5438
9267, 1574, 4568, 3852, 5427
9268, 3207, 4567, 3853, 5426
9269, 2214, 4556, 3819, 5432
9270, 3215, 4537, 3823, 5435
9271, 3195, 4569, 3837, 5436
9272, 623, 4561, 3831, 5434
9273, 3262, 4549, 3841, 5433
9274, 638, 3817, 4533, 5442
9275, 2271, 3816, 4534, 5441
9276, 3035, 4539, 3815, 5432
9277, 2210, 4536, 3802, 5435
9278, 1606, 4538, 3823, 5437
9279, 2212, 4537, 3819, 5433
9280, 580, 4542, 3819, 5434
9281, 1617, 4578, 3877, 5431
9282, 3250, 4577, 3876, 5430
9283, 1428, 4555, 3852, 5429
9284, 3061, 4554, 3853, 5428
9285, 2215, 4556, 3831, 5436
9286, 478, 4571, 3876, 5427
9287, 1195, 4583, 3856, 5438
9288, 3779, 4575, 2289, 5439
9289, 3778, 4574, 656, 5440
9290, 2164, 4557, 3798, 5435
9291, 1582, 4541, 3815, 5434
9292, 3177, 4553, 3823, 5433
9293, 3255, 4549, 3819, 5436
9294, 2180, 4537, 3802, 5432
9295, 578, 4542, 3802, 5437
9296, 634, 4564, 3823, 5438
9297, 2083, 4545, 3854, 5428
9298, 450, 4546, 3855, 5429
9299, 2089, 4554, 3865, 5426
9300, 456, 4555, 3866, 5427
9301, 2101, 4562, 3863, 5430
9302, 468, 4563, 3864, 5431
9303, 3589, 1322, 319, 5078
9304, 3867, 4477, 565, 4917
9305, 3868, 4476, 2198, 4918
9306, 3931, 4623, 1473, 5440
9307, 3930, 4622, 3106, 5439
9308, 3778, 4527, 3111, 5441
9309, 3980, 4622, 3064, 5425
9310, 3779, 4528, 1478, 5442
9311, 4353, 4993, 4075, 5324
9312, 1048, 4109, 5184, 5424
9313, 3782, 4523, 1686, 5444
9314, 3781, 4522, 3319, 5443
9315, 4405, 5090, 3940, 5489
9316, 3424, 3009, 4275, 5356
9317, 3894, 4529, 796, 4985
9318, 3895, 4530, 2429, 4984
9319, 2273, 4536, 3796, 5422
9320, 2651, 4664, 3929, 5487
9321, 3247, 3862, 5320, 5461
9322, 1960, 2927, 3590, 4319
9323, 2791, 4047, 2402, 5237
9324, 1091, 4048, 1651, 5397
9325, 3011, 3971, 4641, 5028
9326, 2319, 4572, 3782, 4955
9327, 3980, 4642, 1378, 5029
9328, 2469, 3980, 4668, 5027
9329, 2126, 4637, 3795, 5483
9330, 4018, 4656, 2606, 5035
9331, 1589, 4074, 1080, 5214
9332, 2584, 2548, 2766, 4101
9333, 912, 4520, 4008, 5459
9334, 3100, 1946, 2753, 5137
9335, 3650, 4401, 4139, 5388
9336, 3821, 4262, 4914, 5393
9337, 351, 1146, 1703, 4264
9338, 3107, 4061, 2583, 5122
9339, 1368, 3975, 4634, 5026
9340, 3832, 4633, 2014, 4995
9341, 1787, 4110, 1327, 4824
9342, 3999, 4630, 2419, 5023
9343, 3488, 3561, 3565, 4181
9344, 2495, 4196, 2405, 5274
9345, 716, 4627, 3978, 5025
9346, 579, 4542, 3815, 5006
9347, 3112, 4553, 3856, 5007
9348, 2254, 3783, 4527, 5008
9349, 3784, 4528, 621, 5009
9350, 3885, 4606, 2087, 5011
9351, 3884, 4607, 454, 5012
9352, 786, 3993, 4631, 5024
9353, 2140, 3927, 4532, 4996
9354, 3928, 4531, 507, 4997
9355, 1486, 4560, 3854, 5000
9356, 3119, 4559, 3855, 5001
9357, 1407, 4564, 3841, 5002
9358, 463, 4566, 3865, 4998
9359, 2096, 4565, 3866, 4999
9360, 3832, 4596, 690, 5014
9361, 641, 4535, 3796, 5010
9362, 1560, 4538, 3798, 5013
9363, 3781, 4596, 688, 5005
9364, 402, 3895, 4607, 5020
9365, 3894, 4606, 2035, 5021
9366, 3927, 4584, 850, 5015
9367, 2483, 3928, 4585, 5016
9368, 3816, 4574, 658, 5017
9369, 3817, 4575, 2291, 5018
9370, 3766, 4597, 2322, 5004
9371, 689, 3765, 4596, 5003
9372, 3981, 4626, 3194, 5030
9373, 3770, 4514, 798, 4985
9374, 3771, 4513, 2431, 4984
9375, 2425, 4516, 3797, 5422
9376, 4087, 4752, 4187, 5198
9377, 4088, 4753, 4186, 5199
9378, 4240, 5009, 1537, 5228
9379, 3170, 4241, 5008, 5227
9380, 1027, 1025, 1700, 5292
9381, 4322, 4696, 4380, 4773
9382, 2359, 4458, 3822, 5022
9383, 864, 4457, 4044, 5353
9384, 3849, 1612, 5014, 5313
9385, 3590, 3600, 1960, 4319
9386, 3720, 3687, 4266, 4672
9387, 4014, 2467, 4681, 5338
9388, 3488, 3494, 3412, 4278
9389, 734, 1148, 4057, 4686
9390, 2367, 2781, 4056, 4685
9391, 3786, 4523, 385, 5463
9392, 2572, 4027, 2859, 4705
9393, 1683, 3937, 4372, 5464
9394, 939, 4028, 1226, 4690
9395, 917, 4140, 4391, 5447
9396, 677, 4358, 1456, 4372
9397, 834, 4013, 4631, 5424
9398, 1832, 313, 1467, 5526
9399, 3490, 3551, 3539, 4041
9400, 1901, 1909, 1856, 4042
9401, 1689, 1015, 5213, 5391
9402, 4024, 4652, 1097, 4834
9403, 1324, 4058, 838, 5150
9404, 4023, 4651, 2730, 4833
9405, 3959, 2779, 4595, 5254
9406, 2707, 4107, 2843, 4438
9407, 4208, 4489, 5055, 5271
9408, 3955, 376, 4831, 4981
9409, 3991, 4742, 2358, 5331
9410, 725, 3990, 4741, 5330
9411, 2869, 1963, 4480, 5110
9412, 2816, 4521, 4007, 5222
9413, 3837, 5002, 4472, 5403
9414, 3761, 4447, 4144, 4816
9415, 2481, 2686, 5305, 5396
9416, 1629, 4541, 3831, 5224
9417, 3919, 3116, 4598, 5225
9418, 3989, 4439, 2285, 4775
9419, 545, 3775, 4449, 4548
9420, 2178, 3774, 4450, 4547
9421, 3202, 5116, 3984, 5290
9422, 2114, 3880, 4594, 5191
9423, 4046, 4404, 4210, 4994
9424, 961, 4763, 4045, 5419
9425, 4448, 4767, 4069, 4820
9426, 1326, 4037, 4634, 5186
9427, 2094, 4423, 3922, 4604
9428, 461, 4422, 3921, 4603
9429, 561, 3868, 4689, 5063
9430, 2194, 3867, 4688, 5064
9431, 2111, 5426, 4570, 5514
9432, 451, 5429, 4544, 5515
9433, 2084, 5428, 4543, 5516
9434, 1876, 1508, 363, 5265
9435, 783, 3834, 4634, 5150
9436, 995, 5242, 3869, 5256
9437, 3875, 596, 4576, 5112
9438, 2836, 4045, 4873, 5423
9439, 2332, 4572, 3851, 5261
9440, 785, 4456, 3946, 4788
9441, 2418, 4455, 3947, 4789
9442, 2601, 4624, 3992, 5113
9443, 1403, 1693, 1084, 4672
9444, 3801, 3302, 4525, 5048
9445, 3881, 2318, 4589, 4955
9446, 2139, 3779, 4551, 4996
9447, 506, 3778, 4550, 4997
9448, 3853, 464, 4560, 4998
9449, 3852, 2097, 4559, 4999
9450, 3830, 1274, 4587, 5000
9451, 3829, 2907, 4586, 5001
9452, 582, 4561, 3819, 5002
9453, 3111, 3778, 4585, 5008
9454, 1478, 3779, 4584, 5009
9455, 689, 3765, 4610, 5005
9456, 578, 4535, 3802, 5006
9457, 3823, 3177, 4557, 5007
9458, 2035, 3894, 4590, 5011
9459, 402, 3895, 4591, 5012
9460, 688, 3781, 4580, 5014
9461, 1443, 4538, 3802, 5010
9462, 1606, 4583, 3823, 5013
9463, 801, 3779, 4533, 5015
9464, 2434, 3778, 4534, 5016
9465, 656, 3778, 4531, 5017
9466, 2289, 3779, 4532, 5018
9467, 1207, 3944, 4603, 5020
9468, 2840, 3943, 4604, 5021
9469, 3822, 662, 4576, 5025
9470, 3978, 2355, 4552, 5022
9471, 690, 3832, 4613, 5003
9472, 2323, 3833, 4614, 5004
9473, 724, 3931, 4574, 5024
9474, 2357, 3930, 4575, 5023
9475, 726, 3834, 4558, 5026
9476, 625, 3930, 4528, 5029
9477, 2258, 3931, 4527, 5028
9478, 2848, 1999, 3629, 4354
9479, 3628, 1215, 365, 4355
9480, 3915, 4656, 2605, 5031
9481, 1101, 4032, 4678, 5179
9482, 1916, 1859, 1915, 4036
9483, 2712, 3988, 4638, 5030
9484, 3028, 2590, 4221, 5220
9485, 4126, 5149, 2003, 5377
9486, 370, 4127, 5148, 5376
9487, 2967, 3968, 4309, 4901
9488, 2915, 4841, 4849, 5204
9489, 2860, 4124, 4650, 5130
9490, 4374, 4375, 3799, 4953
9491, 1854, 1916, 1915, 4036
9492, 2013, 4000, 4685, 4995
9493, 3946, 785, 4922, 5326
9494, 3947, 2418, 4923, 5325
9495, 1193, 4548, 3806, 5336
9496, 1395, 957, 4222, 5219
9497, 2391, 5019, 3982, 5525
9498, 3953, 4519, 2872, 5399
9499, 4014, 4668, 2468, 5425
9500, 537, 570, 1513, 4498
9501, 1513, 679, 499, 4498
9502, 1201, 4208, 1213, 5231
9503, 2668, 4057, 4344, 5094
9504, 4056, 4343, 1035, 5093
9505, 446, 1461, 411, 5321
9506, 3094, 2044, 2079, 5322
9507, 2712, 3988, 4626, 5407
9508, 411, 412, 413, 5321
9509, 2046, 2044, 2045, 5322
9510, 1291, 4163, 1289, 5311
9511, 4570, 5426, 3877, 5514
9512, 2626, 4168, 2728, 5310
9513, 1872, 4451, 1911, 4496
9514, 1390, 4174, 752, 5312
9515, 4544, 5429, 3829, 5515
9516, 4543, 5428, 3830, 5516
9517, 2869, 2868, 1963, 5110
9518, 3616, 4104, 3653, 5233
9519, 3961, 4682, 2993, 5485
9520, 2834, 4206, 2846, 5232
9521, 320, 5213, 4263, 5250
9522, 598, 4601, 3919, 5139
9523, 714, 3762, 4707, 4864
9524, 3979, 4626, 2873, 5032
9525, 2924, 4164, 2922, 4701
9526, 1471, 807, 4161, 4700
9527, 3023, 4175, 2385, 4702
9528, 4059, 4819, 4521, 5176
9529, 4479, 5029, 3784, 5404
9530, 3238, 4675, 4002, 5022
9531, 4124, 4766, 4448, 4767
9532, 2926, 4567, 3864, 5289
9533, 1293, 4568, 3863, 5288
9534, 3861, 2986, 4950, 5314
9535, 3327, 4127, 3664, 5363
9536, 3665, 1694, 4126, 5362
9537, 3801, 3276, 4687, 5128
9538, 2386, 3994, 4656, 4925
9539, 753, 3995, 4655, 4926
9540, 3996, 4397, 767, 4618
9541, 3997, 4396, 2400, 4617
9542, 4017, 4318, 4878, 5273
9543, 1728, 1649, 1046, 4261
9544, 2461, 3994, 4677, 5035
9545, 3037, 4301, 2157, 5309
9546, 3939, 4314, 4123, 5092
9547, 1313, 315, 1720, 4676
9548, 1823, 1891, 1935, 4275
9549, 2855, 5211, 4387, 5502
9550, 1523, 3994, 4680, 5039
9551, 3295, 4010, 4490, 5273
9552, 555, 556, 557, 4350
9553, 2188, 2189, 2190, 4351
9554, 495, 4156, 1526, 5354
9555, 3159, 2128, 4155, 5355
9556, 1177, 4740, 4045, 4814
9557, 2093, 4570, 3865, 5471
9558, 2085, 4554, 3854, 5470
9559, 502, 3804, 4550, 5472
9560, 3803, 4551, 2135, 5473
9561, 2268, 4569, 3838, 5475
9562, 3952, 4594, 2303, 5474
9563, 3913, 4603, 1151, 5476
9564, 2784, 3914, 4604, 5477
9565, 1121, 906, 1654, 5424
9566, 1472, 4044, 4866, 5353
9567, 742, 4579, 3847, 5480
9568, 652, 3988, 4619, 5481
9569, 2239, 5072, 4249, 5290
9570, 2505, 4020, 4638, 5450
9571, 1561, 4625, 3974, 5214
9572, 2238, 5058, 4249, 5081
9573, 3946, 4456, 785, 5326
9574, 3947, 4455, 2418, 5325
9575, 2951, 4089, 2952, 4871
9576, 2648, 3320, 4277, 5192
9577, 2523, 4277, 3320, 5192
9578, 3945, 4841, 3039, 5204
9579, 4250, 4790, 4075, 5186
9580, 3042, 4827, 3934, 5203
9581, 2658, 2778, 3333, 4436
9582, 1506, 4856, 4051, 4963
9583, 3138, 4855, 4050, 4962
9584, 2745, 4065, 2486, 5266
9585, 1112, 4067, 853, 5267
9586, 2971, 4058, 2978, 4708
9587, 3274, 4162, 3104, 5403
9588, 3209, 4173, 3042, 5404
9589, 1619, 4376, 1397, 5311
9590, 2643, 3027, 4380, 5310
9591, 3495, 3530, 4071, 5300
9592, 1396, 881, 4376, 5312
9593, 756, 4694, 3915, 5045
9594, 2389, 4695, 3916, 5044
9595, 1374, 4092, 915, 4786
9596, 3789, 4590, 4408, 4985
9597, 3790, 4591, 4409, 4984
9598, 3861, 5086, 2637, 5314
9599, 911, 1102, 4060, 5459
9600, 3356, 4053, 4778, 4882
9601, 2735, 4059, 2544, 5176
9602, 2011, 3954, 4685, 4980
9603, 378, 3955, 4686, 4981
9604, 4477, 4147, 4917, 5064
9605, 4476, 4148, 4918, 5063
9606, 5052, 5054, 4256, 5178
9607, 553, 3883, 4717, 5497
9608, 2186, 3882, 4718, 5496
9609, 3274, 4830, 4162, 5403
9610, 4173, 4827, 3042, 5404
9611, 3353, 2734, 4215, 5509
9612, 976, 4010, 4649, 4878
9613, 1856, 4042, 331, 5456
9614, 3490, 4041, 1964, 5457
9615, 945, 4507, 3986, 5383
9616, 3949, 4605, 2794, 5090
9617, 2919, 4198, 2074, 4412
9618, 3641, 4053, 3595, 4872
9619, 2519, 5066, 4044, 5277
9620, 3836, 4361, 4204, 4822
9621, 3835, 4362, 4203, 4823
9622, 2480, 2685, 4067, 5189
9623, 847, 1052, 4065, 5190
9624, 2446, 4165, 4950, 5314
9625, 2606, 4018, 4657, 5031
9626, 3589, 5078, 319, 5221
9627, 2694, 4064, 2814, 5222
9628, 3941, 4436, 2656, 4720
9629, 3174, 1997, 3419, 4114
9630, 1541, 364, 1786, 4113
9631, 1322, 3589, 3607, 5078
9632, 3357, 5236, 4100, 5394
9633, 1724, 5235, 4099, 5395
9634, 3791, 1393, 4794, 5462
9635, 3744, 4480, 4135, 5134
9636, 1205, 5212, 4248, 5361
9637, 2191, 4172, 2218, 5064
9638, 558, 4171, 585, 5063
9639, 3912, 4659, 2384, 5040
9640, 3912, 4658, 751, 5041
9641, 928, 3901, 4431, 4722
9642, 1024, 4244, 1190, 5313
9643, 3372, 3355, 5098, 5525
9644, 2391, 3982, 4747, 5525
9645, 1331, 4474, 3874, 4725
9646, 2964, 4473, 3873, 4724
9647, 2659, 4475, 3826, 4729
9648, 1845, 312, 4432, 5501
9649, 3940, 4146, 5087, 5255
9650, 716, 780, 4366, 4627
9651, 3788, 2966, 4723, 5227
9652, 3787, 1333, 4722, 5228
9653, 2369, 4179, 2364, 5282
9654, 736, 4180, 731, 5283
9655, 3899, 985, 4719, 5230
9656, 1020, 3933, 4721, 5229
9657, 4000, 4633, 4414, 5003
9658, 4001, 4632, 4413, 5004
9659, 1026, 3825, 4728, 5226
9660, 2470, 4030, 4638, 5027
9661, 2976, 4708, 4709, 5409
9662, 3193, 4290, 4539, 5413
9663, 2696, 4064, 2694, 4799
9664, 584, 5002, 3841, 5480
9665, 1318, 4097, 1319, 4877
9666, 4061, 4359, 2411, 5416
9667, 2366, 4253, 3096, 5505
9668, 3582, 4143, 4636, 5460
9669, 4279, 4434, 4151, 5180
9670, 1463, 733, 4254, 5506
9671, 3980, 5029, 620, 5481
9672, 3783, 4738, 1411, 5472
9673, 3396, 4432, 4078, 5482
9674, 563, 4072, 5056, 5452
9675, 2445, 3916, 4653, 5044
9676, 3915, 4654, 812, 5045
9677, 2016, 3765, 4522, 5144
9678, 3766, 4523, 383, 5145
9679, 3582, 4636, 1305, 5460
9680, 2293, 4464, 3759, 4991
9681, 696, 3990, 4797, 5329
9682, 2329, 3991, 4798, 5328
9683, 3903, 4504, 413, 5043
9684, 2495, 2405, 2496, 5274
9685, 4443, 4780, 3962, 5467
9686, 4444, 4781, 3963, 5466
9687, 3688, 4395, 4316, 4970
9688, 4092, 4959, 1374, 5379
9689, 2930, 4821, 4072, 5508
9690, 2366, 2589, 4253, 5505
9691, 1754, 4038, 4398, 5447
9692, 733, 956, 4254, 5506
9693, 3826, 943, 4771, 4992
9694, 4237, 4595, 3929, 5141
9695, 3959, 4595, 4237, 5141
9696, 1738, 4665, 4029, 4857
9697, 1640, 4508, 3924, 4777
9698, 3273, 4509, 3923, 4776
9699, 4433, 4541, 3844, 4896
9700, 387, 3786, 4791, 5263
9701, 3557, 3560, 3508, 5132
9702, 1663, 986, 1249, 5412
9703, 1587, 5212, 1205, 5361
9704, 3301, 4815, 3872, 5483
9705, 4055, 4440, 3978, 5069
9706, 2710, 2834, 2846, 5232
9707, 2473, 4063, 4396, 5467
9708, 840, 4062, 4397, 5466
9709, 4172, 4464, 4991, 5037
9710, 1573, 3803, 4370, 5228
9711, 3206, 3804, 4371, 5227
9712, 2425, 4516, 5066, 5413
9713, 1264, 3987, 4440, 4750
9714, 4037, 4790, 2972, 4826
9715, 4008, 4339, 1184, 4839
9716, 376, 374, 4176, 4981
9717, 2009, 2007, 4177, 4980
9718, 3949, 4609, 1590, 5172
9719, 3613, 4143, 3633, 4419
9720, 3608, 4143, 2955, 5131
9721, 2714, 2594, 2509, 4783
9722, 2944, 4679, 3368, 5500
9723, 1787, 1468, 1327, 4110
9724, 1967, 1825, 3080, 4432
9725, 3181, 4670, 4005, 5492
9726, 1548, 4669, 4004, 5491
9727, 1807, 4035, 1230, 5337
9728, 2239, 3202, 5072, 5290
9729, 1061, 917, 1063, 4391
9730, 445, 3917, 4725, 5412
9731, 418, 4743, 3942, 5043
9732, 1663, 3874, 4306, 5412
9733, 2541, 2486, 4065, 5492
9734, 908, 853, 4067, 5491
9735, 1843, 1904, 1937, 5302
9736, 3444, 3558, 3570, 5303
9737, 1341, 3755, 4429, 4818
9738, 2242, 4191, 2245, 5453
9739, 1354, 1063, 917, 4140
9740, 3844, 4696, 3040, 5169
9741, 651, 4621, 3988, 4902
9742, 3835, 4473, 4157, 4828
9743, 3836, 4474, 4158, 4829
9744, 3171, 4009, 4677, 5040
9745, 1538, 4009, 4678, 5041
9746, 1723, 5375, 4054, 5390
9747, 838, 1096, 4391, 5447
9748, 1201, 1213, 1077, 5231
9749, 2534, 4140, 5305, 5396
9750, 3957, 2649, 4682, 5200
9751, 3975, 4790, 4250, 5186
9752, 3991, 4367, 4093, 5331
9753, 3990, 4368, 4094, 5330
9754, 2364, 4004, 4789, 5282
9755, 731, 4005, 4788, 5283
9756, 3084, 4004, 4798, 5189
9757, 1451, 4005, 4797, 5190
9758, 2714, 3052, 2594, 4211
9759, 4121, 4707, 3762, 4864
9760, 572, 569, 571, 5452
9761, 572, 592, 1510, 5452
9762, 3011, 2253, 3014, 5454
9763, 2242, 2245, 3114, 5453
9764, 3180, 3114, 2299, 5453
9765, 1731, 1038, 1543, 5193
9766, 3848, 3244, 4793, 5261
9767, 3275, 4160, 2199, 5036
9768, 1642, 4159, 566, 5037
9769, 424, 426, 425, 5099
9770, 1181, 1061, 4069, 5459
9771, 2176, 3939, 4918, 5508
9772, 3900, 4411, 2561, 4723
9773, 2078, 4412, 3918, 4724
9774, 4103, 4277, 3933, 5089
9775, 1016, 1017, 4328, 5351
9776, 3962, 4667, 718, 5209
9777, 2351, 3963, 4666, 5210
9778, 2054, 3942, 4540, 5053
9779, 1257, 4129, 1716, 5195
9780, 3349, 2890, 4128, 5194
9781, 2830, 4448, 4124, 4916
9782, 2465, 2997, 4080, 4808
9783, 1364, 4081, 832, 4807
9784, 1956, 4263, 3710, 5455
9785, 3523, 1747, 364, 4259
9786, 3380, 1997, 1887, 4260
9787, 4104, 2940, 5446, 5500
9788, 551, 4717, 3883, 4894
9789, 2184, 4718, 3882, 4895
9790, 2402, 2790, 4518, 5327
9791, 3848, 4720, 3245, 4899
9792, 3005, 4724, 3918, 4889
9793, 1372, 4725, 3917, 4888
9794, 2976, 4110, 1942, 5409
9795, 2293, 5207, 4464, 5496
9796, 660, 5208, 4465, 5497
9797, 1650, 1639, 654, 4881
9798, 3283, 3272, 2287, 4880
9799, 3332, 4169, 3330, 4779
9800, 472, 3886, 5177, 5244
9801, 923, 3932, 4602, 4956
9802, 3265, 3964, 4778, 5291
9803, 1761, 1448, 1140, 4083
9804, 4126, 2003, 5149, 5162
9805, 4261, 5143, 4105, 5507
9806, 4127, 370, 5148, 5163
9807, 473, 3896, 5244, 5411
9808, 1702, 3953, 4721, 5358
9809, 3706, 3736, 3699, 4274
9810, 1614, 5160, 3861, 5340
9811, 3972, 4199, 4339, 5392
9812, 4170, 4812, 3826, 4831
9813, 2621, 3236, 3034, 5096
9814, 4171, 3969, 4976, 5278
9815, 948, 4192, 1603, 5180
9816, 2474, 2411, 2361, 4359
9817, 1111, 1563, 1109, 4093
9818, 2744, 3196, 2742, 4094
9819, 2421, 3254, 4692, 5370
9820, 1621, 4693, 788, 5369
9821, 1934, 4124, 4766, 4916
9822, 3518, 3550, 3476, 4182
9823, 2739, 4673, 4021, 5492
9824, 1106, 4674, 4022, 5491
9825, 3167, 4017, 4679, 5044
9826, 1534, 4018, 4680, 5045
9827, 2561, 2789, 3074, 4501
9828, 928, 1156, 1441, 4500
9829, 2207, 2309, 3148, 4503
9830, 444, 445, 441, 4502
9831, 2050, 2048, 2047, 4499
9832, 1441, 446, 1504, 4500
9833, 3139, 3074, 2079, 4501
9834, 437, 441, 1286, 4502
9835, 4218, 4383, 3903, 5043
9836, 1790, 4766, 4124, 4767
9837, 775, 4495, 3796, 5344
9838, 1211, 1763, 4070, 5504
9839, 1575, 5245, 4131, 5307
9840, 2857, 2858, 3411, 5359
9841, 1225, 1778, 1224, 5360
9842, 2362, 3762, 5232, 5260
9843, 2410, 3967, 4785, 5305
9844, 2347, 3763, 4712, 4865
9845, 1866, 1921, 1924, 5136
9846, 4133, 3926, 4763, 4873
9847, 436, 4337, 3898, 5074
9848, 3358, 3359, 4341, 4760
9849, 859, 4730, 3840, 4802
9850, 2989, 4008, 4785, 5392
9851, 1725, 1726, 4340, 4759
9852, 729, 3763, 5231, 5271
9853, 2181, 4338, 3809, 4463
9854, 4072, 5091, 5056, 5508
9855, 3709, 3674, 3740, 4265
9856, 1408, 3935, 4739, 5202
9857, 4093, 4367, 4189, 5331
9858, 4094, 4368, 4190, 5330
9859, 3363, 4143, 1979, 4419
9860, 3911, 4706, 2378, 5205
9861, 3365, 4029, 4657, 5183
9862, 2809, 4870, 4084, 5259
9863, 3440, 4043, 2863, 5372
9864, 1426, 4770, 953, 4854
9865, 1956, 3710, 3336, 5455
9866, 4421, 5142, 4315, 5405
9867, 2677, 4715, 4006, 4975
9868, 2718, 4152, 3240, 5274
9869, 2020, 4947, 2088, 5301
9870, 3839, 863, 5217, 5281
9871, 4171, 4976, 4476, 5278
9872, 3356, 5143, 4053, 5389
9873, 3578, 4801, 4340, 5389
9874, 3366, 3354, 1983, 4497
9875, 3580, 4800, 4341, 5390
9876, 1148, 4057, 4686, 5346
9877, 2781, 4056, 4685, 5345
9878, 3708, 2935, 3685, 4979
9879, 2935, 1953, 3685, 4979
9880, 665, 771, 664, 4352
9881, 3960, 4838, 4236, 4956
9882, 2594, 2510, 4783, 5420
9883, 4104, 4318, 4017, 5273
9884, 3434, 3752, 2001, 5377
9885, 1837, 1977, 3430, 5199
9886, 608, 4289, 1457, 5365
9887, 2829, 4060, 4448, 4820
9888, 3470, 344, 1797, 5198
9889, 1119, 1759, 4036, 4874
9890, 567, 4647, 5115, 5206
9891, 3552, 3485, 4070, 4699
9892, 3940, 5087, 4745, 5255
9893, 4069, 4767, 4448, 5396
9894, 3020, 3791, 4430, 5378
9895, 4112, 4731, 3497, 5038
9896, 1931, 1507, 1896, 4398
9897, 641, 3796, 4866, 5344
9898, 3162, 4712, 3969, 5278
9899, 3892, 4471, 2168, 5514
9900, 3842, 4466, 648, 5515
9901, 3843, 4467, 2281, 5516
9902, 684, 4468, 3850, 5517
9903, 2865, 4475, 3955, 5518
9904, 2204, 4421, 3972, 4746
9905, 3957, 5153, 2780, 5200
9906, 3894, 4408, 4286, 5521
9907, 3895, 4409, 4285, 5522
9908, 4019, 4319, 3361, 5258
9909, 3670, 3336, 3710, 5455
9910, 834, 5184, 4013, 5424
9911, 1514, 1475, 1054, 4818
9912, 4305, 4794, 422, 5415
9913, 1803, 4097, 1318, 5306
9914, 4319, 4335, 4019, 4967
9915, 2391, 4727, 3982, 5019
9916, 3858, 4848, 4225, 5001
9917, 4246, 4851, 3777, 5018
9918, 4245, 4850, 3776, 5017
9919, 2004, 4316, 3998, 5162
9920, 371, 4317, 3985, 5163
9921, 872, 4671, 4026, 5383
9922, 2767, 2768, 4278, 4847
9923, 4171, 4727, 3982, 5111
9924, 4224, 3865, 4892, 5471
9925, 768, 4618, 851, 5374
9926, 2484, 2401, 4617, 5373
9927, 4035, 4356, 1807, 5219
9928, 1038, 4805, 1044, 5193
9929, 3460, 3677, 3571, 4259
9930, 1826, 3676, 3752, 4260
9931, 1637, 394, 1154, 5350
9932, 3270, 2027, 2787, 5349
9933, 1155, 1154, 1153, 5350
9934, 2786, 2788, 2787, 5349
9935, 4043, 4357, 3440, 5220
9936, 3346, 4100, 3357, 5236
9937, 1713, 4099, 1724, 5235
9938, 624, 5115, 3984, 5206
9939, 3730, 3684, 4136, 5357
9940, 3316, 4873, 3936, 5423
9941, 995, 4236, 5242, 5256
9942, 1309, 4139, 1310, 5388
9943, 1619, 3892, 4892, 5311
9944, 3850, 2643, 4900, 5310
9945, 5273, 5446, 2940, 5500
9946, 3639, 4100, 3659, 5236
9947, 3638, 4099, 3658, 5235
9948, 3733, 3699, 4102, 5513
9949, 2811, 2639, 2810, 4404
9950, 2594, 3052, 2811, 4404
9951, 2381, 4933, 2344, 5046
9952, 3997, 4443, 4396, 5326
9953, 3996, 4444, 4397, 5325
9954, 969, 4817, 4107, 5155
9955, 3891, 4869, 4203, 5451
9956, 4484, 4210, 5050, 5281
9957, 1228, 1076, 4108, 4971
9958, 3739, 3673, 3709, 4265
9959, 2696, 4064, 4799, 5223
9960, 1910, 1906, 1838, 4916
9961, 2224, 2288, 4199, 5392
9962, 4032, 4736, 4679, 5500
9963, 1356, 4007, 4787, 5083
9964, 525, 4524, 526, 5170
9965, 4040, 5149, 2856, 5162
9966, 4039, 5148, 1223, 5163
9967, 3264, 2819, 5092, 5335
9968, 3820, 4283, 2900, 5277
9969, 2709, 4109, 2861, 4974
9970, 1577, 538, 566, 5119
9971, 3210, 2171, 2199, 5118
9972, 3961, 4672, 4207, 4920
9973, 632, 575, 633, 5206
9974, 1587, 624, 1205, 5212
9975, 2414, 2585, 3205, 5211
9976, 3339, 2649, 2525, 5200
9977, 2766, 4101, 2548, 4958
9978, 2352, 3152, 2501, 5210
9979, 868, 719, 1519, 5209
9980, 1315, 5095, 3769, 5180
9981, 3074, 2560, 4411, 5327
9982, 901, 4144, 4447, 5297
9983, 2641, 4840, 3890, 4890
9984, 3493, 3469, 3555, 4342
9985, 2832, 3936, 4745, 5090
9986, 3129, 4822, 2911, 4942
9987, 1496, 4823, 1278, 4941
9988, 1626, 1191, 1581, 4449
9989, 3214, 3259, 2824, 4450
9990, 1373, 640, 546, 5103
9991, 1373, 531, 1404, 5103
9992, 1605, 4075, 1114, 5186
9993, 4063, 4780, 4443, 5467
9994, 4062, 4781, 4444, 5466
9995, 2573, 5057, 2500, 5260
9996, 5178, 5263, 4119, 5323
9997, 1680, 4199, 4782, 4909
9998, 3954, 4648, 2010, 4995
9999, 3643, 4340, 4053, 5389
10000, 3642, 4341, 4054, 5390
10001, 2063, 3055, 2066, 5106
10002, 1466, 1370, 1788, 4356
10003, 4233, 3793, 5077, 5474
10004, 3920, 4511, 3120, 5461
10005, 884, 3821, 4445, 5397
10006, 3003, 3421, 3099, 4357
10007, 1180, 3936, 4802, 5172
10008, 823, 3964, 4759, 5275
10009, 2456, 3965, 4760, 5276
10010, 3072, 3973, 5072, 5502
10011, 3264, 3315, 2819, 5335
10012, 3420, 4096, 4365, 4867
10013, 1787, 355, 1468, 4276
10014, 749, 748, 823, 5307
10015, 2928, 4688, 4300, 5405
10016, 3980, 5027, 3191, 5404
10017, 1276, 4587, 3857, 5088
10018, 491, 4739, 4399, 5520
10019, 2018, 3785, 4776, 5144
10020, 385, 3786, 4777, 5145
10021, 3562, 3463, 3754, 4937
10022, 1830, 3753, 1925, 4939
10023, 4411, 4723, 3900, 4987
10024, 3918, 4724, 4412, 4990
10025, 546, 547, 532, 5103
10026, 3763, 4712, 4424, 5076
10027, 3524, 3569, 3461, 5152
10028, 1936, 1827, 1889, 5151
10029, 3151, 4179, 2369, 4844
10030, 736, 1518, 4180, 4845
10031, 4197, 4306, 3874, 5412
10032, 4146, 4446, 3937, 5106
10033, 1264, 4200, 4440, 5332
10034, 940, 5055, 867, 5271
10035, 1745, 913, 4088, 5126
10036, 1554, 5097, 3909, 5354
10037, 2546, 4087, 3378, 5127
10038, 1839, 1942, 3410, 4709
10039, 4459, 4708, 4038, 5447
10040, 4239, 4891, 3891, 5173
10041, 310, 3458, 1791, 4764
10042, 4104, 5273, 4017, 5500
10043, 2175, 4338, 3760, 4904
10044, 347, 1691, 1708, 4266
10045, 2815, 4731, 4209, 5223
10046, 4169, 4244, 3825, 5161
10047, 3862, 4511, 4373, 5315
10048, 1216, 4100, 1219, 5126
10049, 4119, 4346, 3888, 5052
10050, 4118, 4347, 3889, 5051
10051, 3066, 4662, 3855, 4999
10052, 2849, 4099, 2852, 5127
10053, 3841, 4162, 4885, 5480
10054, 4100, 4355, 3659, 5236
10055, 4099, 4354, 3658, 5235
10056, 3637, 4340, 3578, 4801
10057, 761, 4957, 846, 5512
10058, 4277, 4328, 3911, 5089
10059, 3580, 3636, 4341, 4800
10060, 3187, 5135, 3910, 5355
10061, 4140, 5265, 4398, 5447
10062, 1638, 4932, 3982, 4960
10063, 3943, 4469, 2783, 5477
10064, 3944, 4470, 1150, 5476
10065, 1324, 4058, 5150, 5447
10066, 4052, 4816, 4447, 5251
10067, 3071, 3226, 4324, 5471
10068, 2989, 4421, 4008, 5392
10069, 4284, 4394, 3805, 4495
10070, 3030, 4324, 3226, 5479
10071, 3892, 4324, 4224, 5471
10072, 4224, 4324, 3893, 5479
10073, 2242, 3114, 2241, 5081
10074, 2583, 2586, 2884, 5416
10075, 1241, 4981, 5085, 5360
10076, 4980, 5084, 2874, 5359
10077, 2713, 3209, 4173, 5407
10078, 4190, 5280, 1123, 5330
10079, 4189, 5279, 2756, 5331
10080, 4058, 4391, 838, 4733
10081, 832, 4397, 4081, 4618
10082, 2465, 4396, 4080, 4617
10083, 1446, 3473, 3568, 4699
10084, 1119, 4036, 1447, 5155
10085, 4245, 4850, 4667, 5209
10086, 4246, 4851, 4666, 5210
10087, 979, 4178, 978, 5193
10088, 659, 3816, 4667, 5024
10089, 2292, 3817, 4666, 5023
10090, 2956, 4262, 2518, 5393
10091, 2524, 2647, 4277, 5205
10092, 2547, 4088, 2732, 5382
10093, 914, 4087, 1099, 5387
10094, 2193, 4688, 2195, 4921
10095, 3332, 4169, 3317, 5399
10096, 839, 4391, 1061, 4839
10097, 3968, 4333, 4239, 5478
10098, 2226, 2228, 4333, 5478
10099, 865, 4445, 3820, 5418
10100, 2066, 4146, 4446, 5371
10101, 3391, 1968, 3435, 4183
10102, 3912, 5257, 4714, 5312
10103, 4167, 4352, 3861, 5086
10104, 4206, 4864, 4488, 5260
10105, 3660, 1798, 1940, 4355
10106, 3661, 3431, 3572, 4354
10107, 335, 1802, 1758, 4182
10108, 4248, 4905, 3973, 5115
10109, 1310, 1311, 4139, 5458
10110, 4221, 4639, 3993, 5424
10111, 4236, 4838, 3932, 4956
10112, 3077, 4901, 3818, 5478
10113, 2096, 3866, 4893, 5479
10114, 2524, 2647, 3320, 4277
10115, 3210, 3275, 3233, 4160
10116, 1577, 1642, 1600, 4159
10117, 1699, 1697, 653, 4170
10118, 2638, 2442, 2446, 4165
10119, 2388, 2387, 2385, 4175
10120, 755, 754, 752, 4174
10121, 2007, 2006, 2008, 4177
10122, 3807, 4743, 4184, 4842
10123, 844, 4061, 837, 5319
10124, 3396, 2737, 4078, 4438
10125, 3843, 4563, 1272, 4941
10126, 2905, 3842, 4562, 4942
10127, 2145, 4582, 3944, 4945
10128, 512, 4581, 3943, 4946
10129, 2106, 2133, 2129, 5118
10130, 2133, 2172, 2171, 5118
10131, 539, 538, 500, 5119
10132, 378, 4686, 3955, 4951
10133, 3736, 3733, 3699, 5498
10134, 332, 3503, 1527, 5215
10135, 3645, 3581, 3617, 4271
10136, 3982, 1089, 4960, 5488
10137, 4253, 4780, 4023, 4833
10138, 4254, 4781, 4024, 4834
10139, 3793, 4293, 4125, 4853
10140, 4210, 4875, 2567, 4924
10141, 2065, 5255, 2063, 5371
10142, 3025, 4611, 3786, 4955
10143, 4268, 4417, 1902, 5061
10144, 3532, 4267, 4418, 5062
10145, 1895, 5130, 4097, 5306
10146, 2856, 5149, 4040, 5359
10147, 3144, 4212, 3254, 5370
10148, 1621, 1511, 4213, 5369
10149, 1223, 5148, 4039, 5360
10150, 1134, 4111, 4402, 5218
10151, 1772, 1500, 4068, 4938
10152, 3405, 3133, 4066, 4940
10153, 2853, 5236, 3357, 5394
10154, 1220, 5235, 1724, 5395
10155, 1713, 1715, 4187, 5152
10156, 3346, 3348, 4186, 5151
10157, 3210, 4160, 3233, 4810
10158, 1600, 1577, 4159, 4809
10159, 1041, 4428, 4019, 4732
10160, 3436, 4089, 2951, 5293
10161, 3375, 3622, 5143, 5389
10162, 1229, 1802, 1230, 4182
10163, 3992, 4737, 1221, 5484
10164, 2020, 4776, 3785, 4947
10165, 3435, 2863, 2862, 4183
10166, 1047, 1125, 918, 4402
10167, 3135, 4747, 5111, 5291
10168, 1807, 1395, 1230, 5219
10169, 2440, 3847, 4885, 4986
10170, 3440, 3028, 2863, 5220
10171, 768, 851, 1511, 5374
10172, 2484, 3144, 2401, 5373
10173, 1048, 4109, 5133, 5184
10174, 2068, 4405, 3940, 5371
10175, 4082, 2960, 4365, 4867
10176, 4125, 4310, 3795, 5272
10177, 2667, 2763, 2771, 4085
10178, 1138, 1034, 1130, 4086
10179, 4270, 5083, 655, 5352
10180, 397, 4287, 3774, 5522
10181, 2030, 4288, 3775, 5521
10182, 485, 3792, 4304, 5520
10183, 1953, 3685, 4979, 5196
10184, 3980, 4173, 5027, 5404
10185, 1766, 4076, 4320, 5166
10186, 3399, 4077, 4321, 5165
10187, 3184, 3155, 2396, 4385
10188, 1551, 1522, 763, 4386
10189, 2241, 3090, 3058, 4375
10190, 2301, 3180, 2299, 4379
10191, 2232, 2230, 2233, 4382
10192, 1396, 881, 1391, 4376
10193, 622, 671, 549, 4377
10194, 739, 1546, 443, 4378
10195, 2643, 3027, 2452, 4380
10196, 2523, 2377, 2378, 4381
10197, 2621, 3033, 2050, 4383
10198, 2617, 3058, 3090, 4375
10199, 3114, 3090, 2241, 4375
10200, 2299, 2300, 2301, 4379
10201, 2231, 2230, 2232, 4382
10202, 3180, 2301, 2511, 4379
10203, 2233, 2234, 2232, 4382
10204, 881, 1397, 1391, 4376
10205, 535, 622, 549, 4377
10206, 739, 443, 439, 4378
10207, 671, 622, 672, 4377
10208, 3128, 2396, 3155, 4385
10209, 1522, 1495, 763, 4386
10210, 3027, 2376, 2452, 4380
10211, 2377, 2376, 2378, 4381
10212, 739, 1434, 1546, 4378
10213, 3184, 2785, 3155, 4385
10214, 1522, 1551, 1152, 4386
10215, 3033, 2621, 3034, 4383
10216, 2052, 2050, 3033, 4383
10217, 2936, 3323, 2648, 4384
10218, 3341, 3323, 2936, 4384
10219, 2075, 2052, 3033, 4383
10220, 2283, 3033, 3034, 4383
10221, 2337, 2376, 2377, 4381
10222, 622, 535, 1438, 4377
10223, 439, 1520, 739, 4378
10224, 2452, 2376, 2375, 4380
10225, 1619, 1391, 1397, 4376
10226, 622, 881, 672, 4377
10227, 2377, 2618, 3175, 4381
10228, 1391, 1289, 1390, 4376
10229, 1280, 1434, 739, 4378
10230, 2452, 2453, 2626, 4380
10231, 2232, 3120, 2231, 4382
10232, 3217, 2617, 3090, 4375
10233, 3114, 3180, 3090, 4375
10234, 2302, 2301, 2300, 4379
10235, 2301, 2490, 2511, 4379
10236, 2232, 2234, 2235, 4382
10237, 2618, 3323, 3235, 4384
10238, 3341, 2642, 3323, 4384
10239, 2283, 2075, 3033, 4383
10240, 3175, 2337, 2377, 4381
10241, 1438, 881, 622, 4377
10242, 2452, 2375, 2453, 4380
10243, 1280, 739, 1520, 4378
10244, 3323, 2642, 3235, 4384
10245, 3180, 3217, 3090, 4375
10246, 2302, 2490, 2301, 4379
10247, 2235, 3120, 2232, 4382
10248, 1522, 963, 1495, 4386
10249, 3155, 2596, 3128, 4385
10250, 1522, 1152, 965, 4386
10251, 3155, 2785, 2598, 4385
10252, 1522, 965, 963, 4386
10253, 3155, 2598, 2596, 4385
10254, 3988, 5027, 4173, 5407
10255, 1529, 4219, 1608, 5398
10256, 3962, 4780, 4253, 4833
10257, 4319, 4419, 3590, 4967
10258, 3963, 4781, 4254, 4834
10259, 3842, 4562, 4461, 4859
10260, 3843, 4563, 4462, 4858
10261, 1918, 1829, 1885, 4710
10262, 3483, 3521, 3556, 4711
10263, 3689, 4135, 3729, 4480
10264, 3246, 4217, 2565, 4769
10265, 932, 1613, 4216, 4768
10266, 4208, 4865, 4489, 5271
10267, 3552, 3485, 3555, 4070
10268, 845, 4671, 4061, 5421
10269, 3983, 4487, 4120, 4715
10270, 4235, 4849, 4841, 5204
10271, 3101, 4365, 3451, 4772
10272, 4125, 3795, 4853, 5272
10273, 4053, 4872, 3641, 5143
10274, 3916, 4326, 1578, 4926
10275, 3915, 4325, 3211, 4925
10276, 2534, 2687, 2978, 4140
10277, 2711, 3385, 2834, 4098
10278, 4059, 1196, 4819, 5445
10279, 4172, 4477, 3871, 5037
10280, 4171, 4476, 3870, 5036
10281, 4115, 4306, 3839, 5281
10282, 663, 4608, 4125, 5272
10283, 677, 426, 1456, 4358
10284, 2744, 2742, 2743, 4368
10285, 1109, 1110, 1111, 4367
10286, 3312, 4185, 2990, 4840
10287, 4058, 4733, 838, 5150
10288, 3983, 4715, 4428, 5079
10289, 4205, 4863, 4486, 5253
10290, 4283, 4449, 3806, 4457
10291, 2063, 5255, 4146, 5371
10292, 2293, 3218, 5207, 5496
10293, 1585, 5208, 660, 5497
10294, 3973, 5072, 4249, 5081
10295, 4036, 4403, 4107, 4874
10296, 1908, 4110, 1898, 5270
10297, 847, 4065, 4788, 5190
10298, 2480, 4067, 4789, 5189
10299, 1439, 3987, 4903, 5332
10300, 3325, 4900, 3849, 5495
10301, 4635, 4735, 3974, 5214
10302, 2965, 4865, 4208, 4948
10303, 3608, 3646, 4143, 5131
10304, 858, 3840, 4307, 5172
10305, 4130, 5243, 4092, 5414
10306, 445, 4502, 3917, 5412
10307, 3840, 4348, 4196, 4730
10308, 4452, 4673, 4065, 5190
10309, 4453, 4674, 4067, 5189
10310, 1760, 4071, 1124, 5519
10311, 3546, 3503, 3467, 5215
10312, 4147, 4477, 3871, 5064
10313, 4148, 4476, 3870, 5063
10314, 3759, 4726, 4251, 4991
10315, 3644, 4872, 4105, 5143
10316, 3455, 3494, 3495, 4278
10317, 1752, 1201, 1078, 4090
10318, 1649, 4261, 1728, 5507
10319, 4055, 4675, 4366, 5181
10320, 4002, 3238, 4867, 5181
10321, 2584, 4101, 2766, 5049
10322, 3996, 4364, 4282, 4444
10323, 3997, 4363, 4281, 4443
10324, 2604, 3910, 4291, 5342
10325, 3909, 4292, 971, 5343
10326, 4027, 4650, 2859, 4705
10327, 1006, 1666, 4327, 4740
10328, 1135, 1424, 1137, 4101
10329, 1140, 1761, 4083, 5133
10330, 2306, 4478, 2305, 5257
10331, 2828, 2634, 2636, 4978
10332, 3811, 2236, 5058, 5290
10333, 3617, 3610, 3647, 4271
10334, 2737, 2738, 3396, 4078
10335, 4251, 4726, 3983, 4991
10336, 1327, 1468, 1328, 4110
10337, 1119, 4874, 4036, 5155
10338, 2293, 4464, 2187, 5496
10339, 660, 4465, 554, 5497
10340, 2962, 3755, 3387, 4910
10341, 391, 5178, 4119, 5323
10342, 525, 4863, 4205, 5170
10343, 501, 4084, 791, 5177
10344, 995, 1644, 4236, 5256
10345, 4028, 4517, 1226, 4690
10346, 4060, 4820, 2831, 5142
10347, 1050, 1114, 4993, 5324
10348, 4474, 4725, 4158, 4829
10349, 4473, 4724, 4157, 4828
10350, 3820, 2900, 4832, 5277
10351, 1332, 4864, 4206, 4957
10352, 1050, 1114, 1605, 4993
10353, 1631, 3972, 4929, 5380
10354, 515, 1615, 5033, 5247
10355, 3248, 5034, 2148, 5246
10356, 1543, 975, 1039, 4318
10357, 2065, 4745, 2064, 5255
10358, 4217, 4769, 4051, 5147
10359, 4216, 4768, 4050, 5146
10360, 3385, 4952, 4098, 5216
10361, 2763, 2771, 4085, 4418
10362, 1138, 4086, 1130, 4417
10363, 3892, 4224, 4892, 5471
10364, 4059, 4819, 1198, 5140
10365, 4117, 4347, 3889, 5107
10366, 4116, 4346, 3888, 5108
10367, 2439, 4660, 3847, 4986
10368, 4036, 4874, 4107, 5155
10369, 717, 4642, 4014, 4971
10370, 1663, 4306, 3874, 5340
10371, 1099, 4087, 914, 5104
10372, 2547, 2732, 4088, 5105
10373, 2462, 5258, 3282, 5448
10374, 4059, 4517, 4112, 4871
10375, 4197, 4306, 3839, 5185
10376, 3693, 3036, 3324, 4968
10377, 1675, 4239, 5173, 5239
10378, 827, 1418, 749, 5231
10379, 471, 3896, 4296, 5244
10380, 3498, 4460, 4365, 4954
10381, 2650, 5153, 4664, 5200
10382, 1160, 4744, 1535, 5102
10383, 1015, 1303, 1690, 5391
10384, 3998, 1065, 4970, 5292
10385, 2828, 4334, 2825, 4773
10386, 4262, 4749, 3820, 5418
10387, 388, 4508, 4777, 5323
10388, 4162, 3847, 4885, 5480
10389, 817, 3873, 4348, 4949
10390, 390, 392, 4346, 5323
10391, 2350, 4641, 4013, 4974
10392, 3920, 4891, 4239, 5173
10393, 1752, 4961, 4090, 5215
10394, 3051, 2382, 2460, 5232
10395, 1805, 3467, 3503, 5215
10396, 337, 3481, 3465, 4267
10397, 1831, 1970, 1852, 4268
10398, 3877, 5311, 4892, 5514
10399, 4900, 5310, 3781, 5517
10400, 1446, 3568, 357, 4699
10401, 734, 1148, 1242, 4057
10402, 2367, 2781, 2875, 4056
10403, 4184, 4499, 3807, 4842
10404, 2252, 3783, 4349, 5028
10405, 3937, 4924, 4210, 5420
10406, 2155, 4485, 3888, 4965
10407, 522, 4486, 3889, 4966
10408, 3972, 4339, 4421, 5392
10409, 1895, 4451, 4097, 5216
10410, 1180, 4609, 3936, 5172
10411, 4456, 4836, 4065, 5266
10412, 4455, 4837, 4067, 5267
10413, 4152, 4802, 4740, 5419
10414, 2746, 4096, 5181, 5339
10415, 317, 1896, 1507, 4398
10416, 4131, 4252, 3969, 5111
10417, 3312, 4185, 2522, 4756
10418, 2125, 4796, 4125, 5366
10419, 2592, 3028, 2590, 4221
10420, 4049, 4749, 4262, 5418
10421, 434, 436, 435, 5074
10422, 3756, 5121, 4098, 5333
10423, 1102, 4767, 4060, 5459
10424, 1545, 4461, 3842, 5288
10425, 3178, 4462, 3843, 5289
10426, 4132, 2403, 4921, 5138
10427, 1558, 3971, 4734, 4846
10428, 4167, 5086, 3305, 5182
10429, 1395, 957, 959, 4222
10430, 3883, 4160, 5100, 5497
10431, 3882, 4159, 5101, 5496
10432, 3440, 3379, 1944, 4357
10433, 1746, 311, 1807, 4356
10434, 1108, 1109, 1149, 4367
10435, 2741, 2742, 2782, 4368
10436, 4007, 4314, 4123, 5296
10437, 3601, 3593, 1298, 5395
10438, 3835, 4823, 4203, 4869
10439, 3836, 4822, 4204, 4868
10440, 3592, 2931, 3599, 5394
10441, 3966, 4447, 777, 5352
10442, 2293, 2187, 3218, 5496
10443, 1585, 660, 554, 5497
10444, 2220, 3218, 2185, 5496
10445, 1585, 552, 587, 5497
10446, 2738, 3396, 4078, 5482
10447, 430, 1422, 433, 5087
10448, 2181, 4463, 3809, 5182
10449, 2573, 4027, 2572, 5057
10450, 3698, 3693, 3324, 4968
10451, 1836, 3108, 4804, 5410
10452, 3528, 3479, 1957, 5123
10453, 1897, 1848, 324, 5124
10454, 3684, 3730, 4136, 4482
10455, 3762, 4707, 4425, 4933
10456, 4249, 5058, 2236, 5290
10457, 2023, 3015, 2021, 4509
10458, 1838, 1906, 1877, 4804
10459, 419, 417, 4184, 4743
10460, 1749, 3463, 3519, 4937
10461, 1882, 3382, 1830, 4939
10462, 1113, 1049, 4078, 5324
10463, 1139, 1138, 4417, 5456
10464, 2772, 2771, 4418, 5457
10465, 1357, 5380, 791, 5451
10466, 3874, 4306, 4197, 5185
10467, 940, 4028, 939, 5055
10468, 1751, 4451, 4098, 4761
10469, 3879, 4047, 4392, 5174
10470, 3037, 2157, 3122, 5309
10471, 3313, 4185, 3312, 4756
10472, 1013, 4812, 3941, 4898
10473, 4383, 5043, 4218, 5295
10474, 4032, 4269, 4736, 5500
10475, 4221, 5220, 2590, 5505
10476, 2043, 4434, 2045, 5322
10477, 3991, 1108, 4367, 4669
10478, 3990, 2741, 4368, 4670
10479, 4000, 4741, 1300, 5003
10480, 4001, 4742, 2933, 5004
10481, 2195, 4746, 2196, 4921
10482, 3982, 4178, 4932, 5525
10483, 1991, 2767, 4278, 4847
10484, 4222, 5219, 957, 5506
10485, 2196, 4746, 2403, 4921
10486, 1723, 4335, 4054, 5375
10487, 1727, 4872, 4053, 5507
10488, 4176, 4272, 4039, 5401
10489, 4177, 4273, 4040, 5402
10490, 3946, 4416, 2485, 5373
10491, 3947, 4415, 852, 5374
10492, 2175, 3760, 4338, 5417
10493, 837, 4734, 1558, 4751
10494, 1325, 4459, 4037, 4824
10495, 1954, 3402, 2759, 4095
10496, 782, 4443, 869, 4780
10497, 2502, 2415, 4444, 4781
10498, 4359, 4620, 4026, 4671
10499, 1947, 2992, 2994, 4920
10500, 1038, 4025, 4805, 5193
10501, 4515, 4763, 3926, 4873
10502, 1915, 4036, 1859, 5129
10503, 4011, 5031, 4243, 5071
10504, 1382, 4508, 388, 5323
10505, 4060, 4650, 4124, 4877
10506, 4181, 4278, 4092, 5318
10507, 3917, 4841, 3038, 4989
10508, 3582, 3633, 4143, 5460
10509, 2062, 3948, 4783, 5106
10510, 2960, 4082, 2958, 4867
10511, 352, 1710, 1360, 4265
10512, 1612, 3849, 5229, 5313
10513, 1030, 1033, 1032, 4273
10514, 2663, 2666, 2665, 4272
10515, 4104, 2940, 4393, 5446
10516, 632, 3811, 5206, 5308
10517, 2685, 4067, 5189, 5317
10518, 1052, 4065, 5190, 5316
10519, 1351, 3891, 4869, 5173
10520, 390, 1382, 388, 5323
10521, 4253, 4628, 3993, 5024
10522, 4254, 4629, 3999, 5023
10523, 4094, 4441, 2744, 5345
10524, 1111, 4093, 4442, 5346
10525, 3547, 4091, 3449, 4684
10526, 2483, 3095, 3216, 4371
10527, 850, 1462, 1583, 4370
10528, 1074, 4255, 5484, 5519
10529, 3118, 3088, 2706, 5502
10530, 3541, 4493, 4089, 5215
10531, 2053, 5053, 3780, 5237
10532, 4426, 4651, 4023, 4780
10533, 4427, 4652, 4024, 4781
10534, 1571, 3973, 4905, 5115
10535, 4452, 4673, 4066, 5316
10536, 4453, 4674, 4068, 5317
10537, 2695, 3966, 4799, 5222
10538, 1364, 1363, 4081, 5267
10539, 2996, 4080, 2997, 5266
10540, 1895, 1813, 4097, 5130
10541, 2680, 4092, 3057, 5414
10542, 4172, 4991, 4726, 5037
10543, 1957, 3404, 2760, 4068
10544, 1771, 1127, 324, 4066
10545, 3541, 5120, 4089, 5293
10546, 1365, 1772, 1112, 5267
10547, 2998, 3405, 2745, 5266
10548, 3384, 4493, 4090, 4765
10549, 4261, 4778, 5143, 5507
10550, 4315, 4421, 4008, 5142
10551, 1222, 3987, 4750, 4903
10552, 2506, 4020, 4813, 5030
10553, 1835, 1911, 1871, 5216
10554, 2773, 4079, 3081, 4964
10555, 2297, 2237, 2298, 4106
10556, 4398, 4804, 1899, 5265
10557, 1029, 3998, 4728, 5292
10558, 2483, 3928, 4371, 4585
10559, 3927, 4370, 850, 4584
10560, 1137, 5319, 5252, 5421
10561, 3135, 5111, 4131, 5291
10562, 4242, 4944, 3906, 5347
10563, 4243, 4943, 3907, 5348
10564, 3816, 4628, 4253, 5024
10565, 3817, 4629, 4254, 5023
10566, 4035, 4803, 3397, 5168
10567, 4113, 4418, 4085, 5062
10568, 4114, 4417, 4086, 5061
10569, 4119, 5178, 4256, 5385
10570, 1519, 1610, 1620, 4363
10571, 3152, 3243, 3253, 4364
10572, 3965, 4120, 5046, 5258
10573, 1764, 4043, 4806, 5171
10574, 2889, 2892, 3384, 4090
10575, 4244, 4613, 3832, 4995
10576, 3954, 4613, 4244, 4995
10577, 3757, 5125, 4090, 5334
10578, 4072, 4774, 770, 5091
10579, 3777, 4532, 4230, 5015
10580, 3776, 4531, 4231, 5016
10581, 4230, 4532, 3927, 5015
10582, 4231, 4531, 3928, 5016
10583, 4223, 4555, 3855, 4999
10584, 3866, 4555, 4223, 4999
10585, 3855, 4546, 4225, 5001
10586, 4225, 4546, 3858, 5001
10587, 4246, 4533, 3817, 5018
10588, 4245, 4534, 3816, 5017
10589, 3776, 4534, 4245, 5017
10590, 3777, 4533, 4246, 5018
10591, 4102, 2778, 4436, 5513
10592, 2416, 4458, 3761, 4816
10593, 3869, 5242, 4236, 5256
10594, 3849, 4645, 4169, 4779
10595, 2814, 5176, 4064, 5223
10596, 4075, 4824, 1114, 5186
10597, 4447, 4816, 4052, 5352
10598, 2532, 2674, 3355, 5525
10599, 601, 4973, 3812, 5025
10600, 3973, 5115, 542, 5287
10601, 4421, 4746, 3938, 5341
10602, 1132, 4114, 1130, 5298
10603, 2765, 4113, 2763, 5299
10604, 4003, 4817, 970, 4993
10605, 2919, 4198, 4412, 5489
10606, 4360, 4494, 3890, 4840
10607, 5056, 5092, 4123, 5452
10608, 2363, 4798, 4004, 5328
10609, 730, 4797, 4005, 5329
10610, 3760, 4835, 607, 5332
10611, 2555, 3756, 4860, 5382
10612, 2583, 2884, 5122, 5416
10613, 4239, 4382, 3818, 5478
10614, 3913, 4386, 4230, 5476
10615, 3914, 4385, 4231, 5477
10616, 2020, 2022, 4776, 5301
10617, 1105, 1553, 1344, 4096
10618, 3835, 4473, 4166, 4592
10619, 3836, 4474, 4165, 4593
10620, 3757, 4861, 922, 5387
10621, 3934, 4479, 4173, 4608
10622, 3067, 4848, 3858, 5001
10623, 3142, 3777, 4851, 5018
10624, 1509, 3776, 4850, 5017
10625, 2713, 5027, 3988, 5407
10626, 2815, 3141, 4731, 5223
10627, 4116, 5108, 3888, 5246
10628, 4117, 5107, 3889, 5247
10629, 3582, 4143, 3633, 4636
10630, 3555, 3469, 3552, 4070
10631, 2758, 4071, 3392, 5386
10632, 3941, 4754, 1695, 4898
10633, 953, 951, 4130, 4770
10634, 1259, 1751, 1256, 4098
10635, 3589, 3653, 4393, 5221
10636, 4130, 4764, 4181, 5379
10637, 1043, 1723, 4335, 4811
10638, 501, 1357, 791, 5451
10639, 4011, 4654, 4243, 5031
10640, 2797, 3754, 3125, 4758
10641, 1492, 1164, 3753, 4757
10642, 4484, 4875, 4210, 5281
10643, 4243, 4654, 3915, 5031
10644, 3593, 340, 1298, 5395
10645, 3338, 1956, 2780, 4852
10646, 1329, 4038, 1754, 5447
10647, 3592, 1973, 2931, 5394
10648, 3888, 4346, 4119, 5268
10649, 3889, 4347, 4118, 5269
10650, 1383, 1506, 1633, 5494
10651, 3138, 3266, 3016, 5493
10652, 4411, 4987, 3900, 5262
10653, 2889, 4090, 3384, 5334
10654, 3384, 4090, 2892, 4765
10655, 2382, 4138, 2459, 4860
10656, 749, 4137, 826, 4861
10657, 2018, 4522, 3785, 5144
10658, 385, 4523, 3786, 5145
10659, 1155, 3951, 4856, 5350
10660, 2788, 3950, 4855, 5349
10661, 1354, 4140, 917, 5447
10662, 2552, 3019, 2602, 4145
10663, 2974, 3388, 4038, 5410
10664, 3252, 4701, 3893, 4893
10665, 3735, 4369, 3685, 5196
10666, 3220, 4055, 5113, 5167
10667, 2674, 3373, 5098, 5400
10668, 4304, 5201, 4411, 5406
10669, 3547, 3511, 3533, 4091
10670, 4004, 4415, 924, 4837
10671, 4005, 4416, 2557, 4836
10672, 4777, 5263, 388, 5323
10673, 780, 1553, 4366, 4919
10674, 1043, 4811, 3965, 5381
10675, 1667, 1173, 4363, 4922
10676, 3300, 2806, 4364, 4923
10677, 671, 1536, 549, 5510
10678, 2866, 2865, 2664, 5511
10679, 3668, 3711, 3344, 5513
10680, 3668, 3344, 1961, 5513
10681, 2958, 2960, 2961, 4082
10682, 3870, 4350, 4160, 5118
10683, 3871, 4351, 4159, 5119
10684, 4193, 4194, 3903, 5321
10685, 4192, 4195, 3902, 5322
10686, 426, 3948, 4358, 5099
10687, 4111, 4958, 4402, 5218
10688, 1553, 1344, 4096, 4919
10689, 1066, 4913, 4049, 5418
10690, 1802, 1229, 1758, 4182
10691, 2784, 4423, 3914, 5285
10692, 1151, 4422, 3913, 5286
10693, 1336, 4447, 902, 5251
10694, 2829, 4448, 2703, 4820
10695, 4318, 4010, 4878, 5273
10696, 2215, 3831, 4896, 5169
10697, 934, 4152, 4730, 4802
10698, 3871, 4464, 4172, 5037
10699, 1259, 1751, 4098, 4761
10700, 4104, 5446, 5273, 5500
10701, 3799, 4375, 4374, 4498
10702, 2925, 2169, 2184, 5514
10703, 2925, 2599, 2111, 5514
10704, 2331, 3237, 2323, 5518
10705, 2823, 2331, 3245, 5518
10706, 946, 685, 687, 5517
10707, 686, 688, 687, 5517
10708, 2084, 2081, 2082, 5516
10709, 448, 449, 451, 5515
10710, 2081, 2280, 3005, 5516
10711, 647, 1372, 448, 5515
10712, 3344, 4136, 3333, 5513
10713, 3435, 2862, 3391, 4183
10714, 2684, 4455, 2480, 5317
10715, 847, 1051, 4456, 5316
10716, 1376, 1059, 951, 5379
10717, 2800, 3407, 2803, 4015
10718, 1167, 1774, 1170, 4016
10719, 1730, 346, 4805, 5078
10720, 4105, 4805, 4271, 5098
10721, 3140, 3489, 1996, 4684
10722, 2934, 4066, 3133, 4710
10723, 1500, 1301, 4068, 4711
10724, 2680, 2768, 4847, 5414
10725, 4079, 1059, 4764, 4854
10726, 2942, 1981, 2943, 4269
10727, 3385, 4098, 4496, 5216
10728, 351, 1701, 1702, 4264
10729, 961, 4045, 4763, 4814
10730, 961, 877, 4763, 5419
10731, 4236, 4384, 3869, 5524
10732, 2428, 3097, 4294, 4825
10733, 1492, 1164, 1756, 3753
10734, 3125, 2797, 3389, 3754
10735, 3039, 4197, 2563, 4841
10736, 1401, 1603, 4192, 4842
10737, 2984, 3890, 4868, 4890
10738, 2987, 4091, 3401, 5223
10739, 4222, 4971, 4108, 5465
10740, 3947, 4415, 4051, 5282
10741, 3946, 4416, 4050, 5283
10742, 3906, 5208, 1585, 5497
10743, 3907, 5207, 3218, 5496
10744, 4377, 4883, 4701, 5510
10745, 4090, 4481, 1752, 5215
10746, 4054, 5375, 3640, 5390
10747, 1264, 4200, 1569, 4440
10748, 3649, 4401, 4636, 5131
10749, 1398, 4258, 5197, 5262
10750, 635, 4472, 3837, 5002
10751, 1206, 945, 1205, 5361
10752, 3807, 4383, 4504, 5096
10753, 4197, 4336, 3945, 5449
10754, 3438, 1835, 1871, 5216
10755, 1404, 4149, 4524, 5336
10756, 370, 369, 4127, 5376
10757, 2002, 4126, 2003, 5377
10758, 4011, 2609, 5031, 5071
10759, 609, 4289, 608, 4835
10760, 3351, 4034, 4801, 4882
10761, 1751, 1256, 4098, 5333
10762, 1119, 1386, 4874, 5155
10763, 3791, 5102, 1393, 5462
10764, 2791, 4047, 4392, 5327
10765, 3784, 4479, 619, 5029
10766, 4082, 4437, 2958, 4867
10767, 901, 1345, 4144, 4818
10768, 4262, 4914, 4048, 5397
10769, 4194, 4500, 3903, 5321
10770, 4195, 4501, 3902, 5322
10771, 3902, 4499, 4192, 5322
10772, 585, 1089, 710, 5245
10773, 4681, 4770, 4014, 4854
10774, 3258, 2902, 4298, 4895
10775, 1625, 1269, 4297, 4894
10776, 2804, 4035, 3397, 5168
10777, 1021, 4721, 3933, 5358
10778, 4081, 4455, 4141, 5267
10779, 4080, 4456, 4142, 5266
10780, 3903, 4504, 4193, 5321
10781, 3924, 4331, 4179, 4508
10782, 3923, 4332, 4180, 4509
10783, 1764, 1171, 4043, 5171
10784, 3646, 4636, 4143, 5131
10785, 3373, 4271, 1982, 5098
10786, 4228, 4573, 3929, 5487
10787, 3845, 4602, 4234, 5486
10788, 3961, 4602, 4238, 5485
10789, 1579, 1071, 1347, 4201
10790, 3212, 2704, 2980, 4202
10791, 3851, 4573, 4228, 5487
10792, 4234, 4602, 3932, 5486
10793, 4238, 4602, 3845, 5485
10794, 3939, 5091, 4148, 5508
10795, 2640, 3806, 5066, 5277
10796, 2458, 4437, 2416, 4458
10797, 3313, 3312, 2522, 4756
10798, 1545, 4361, 3842, 4461
10799, 3178, 4362, 3843, 4462
10800, 3964, 4252, 4137, 5307
10801, 3821, 4914, 4262, 5397
10802, 5298, 5302, 4260, 5362
10803, 5299, 5303, 4259, 5363
10804, 4233, 4588, 3795, 5483
10805, 832, 1364, 1363, 4081
10806, 2996, 2465, 2997, 4080
10807, 3637, 3578, 3611, 4801
10808, 3872, 4588, 4233, 5483
10809, 3580, 3603, 3636, 4800
10810, 2198, 2221, 4476, 5278
10811, 3998, 4491, 1144, 5402
10812, 3985, 4492, 2777, 5401
10813, 4057, 4093, 4442, 5094
10814, 4056, 4094, 4441, 5093
10815, 4073, 4735, 3935, 4739
10816, 1005, 3920, 5173, 5315
10817, 2999, 3000, 3382, 3753
10818, 1367, 1749, 1366, 3754
10819, 702, 4409, 3774, 5499
10820, 3601, 1298, 4340, 5395
10821, 2931, 4341, 3599, 5394
10822, 1718, 4800, 4033, 5126
10823, 1297, 543, 500, 5411
10824, 4199, 4339, 3967, 4909
10825, 2844, 1967, 3080, 4432
10826, 2941, 1982, 4271, 5098
10827, 3016, 4962, 4050, 5493
10828, 1383, 4963, 4051, 5494
10829, 3015, 4509, 3772, 4962
10830, 1382, 4508, 3773, 4963
10831, 1355, 1683, 431, 5464
10832, 3873, 4412, 4307, 5047
10833, 1695, 4898, 4754, 5141
10834, 654, 4150, 1639, 5367
10835, 3351, 4801, 4034, 5127
10836, 3256, 3844, 4896, 4978
10837, 1124, 1760, 357, 4071
10838, 3392, 2758, 1991, 4071
10839, 3670, 3706, 1984, 5455
10840, 1984, 3336, 3670, 5455
10841, 2934, 3405, 3133, 4066
10842, 1301, 1772, 1500, 4068
10843, 3160, 1965, 1871, 5216
10844, 2687, 4140, 2534, 5396
10845, 3821, 4914, 2956, 5393
10846, 853, 4837, 4067, 5491
10847, 2486, 4836, 4065, 5492
10848, 470, 472, 4296, 4858
10849, 2103, 2105, 4295, 4859
10850, 3893, 4571, 4224, 5479
10851, 4239, 4558, 3968, 5478
10852, 3646, 3633, 3608, 4143
10853, 997, 4410, 3805, 4897
10854, 3000, 3753, 2999, 4808
10855, 1367, 3754, 1366, 4807
10856, 4224, 4571, 3866, 5479
10857, 3818, 4558, 4239, 5478
10858, 901, 4818, 4144, 5297
10859, 3836, 4466, 4361, 4822
10860, 3835, 4467, 4362, 4823
10861, 4210, 4924, 3937, 5217
10862, 3697, 3722, 3735, 5304
10863, 2239, 4249, 2236, 5290
10864, 311, 3484, 1466, 4356
10865, 4375, 4498, 3799, 5081
10866, 3633, 4143, 3646, 4636
10867, 1000, 3824, 5013, 5054
10868, 4184, 4518, 4499, 4842
10869, 1944, 1840, 3099, 4357
10870, 1296, 5140, 1530, 5296
10871, 4618, 4923, 3947, 5374
10872, 4617, 4922, 3946, 5373
10873, 3937, 4046, 4372, 5420
10874, 3284, 4749, 4049, 4880
10875, 1651, 4748, 4048, 4881
10876, 3771, 4407, 405, 5012
10877, 2038, 3770, 4406, 5011
10878, 2941, 3373, 1982, 5098
10879, 3745, 3720, 3687, 4266
10880, 2288, 2969, 4309, 4862
10881, 309, 1344, 1342, 4954
10882, 1327, 4110, 4459, 4824
10883, 1683, 1627, 1203, 4372
10884, 546, 3797, 5006, 5103
10885, 3800, 4410, 4301, 5054
10886, 4078, 4353, 4075, 5324
10887, 2450, 2449, 4950, 5185
10888, 2564, 4217, 2697, 5108
10889, 931, 4216, 1064, 5107
10890, 3351, 4801, 3377, 5389
10891, 1718, 4800, 1744, 5390
10892, 3101, 3514, 3451, 4365
10893, 991, 1632, 1635, 5398
10894, 2619, 2495, 2496, 5047
10895, 3809, 4503, 4167, 4973
10896, 1949, 3487, 2803, 4758
10897, 1873, 1170, 316, 4757
10898, 1711, 4970, 1065, 5292
10899, 1785, 1197, 361, 5038
10900, 3690, 1209, 4317, 4482
10901, 4168, 5005, 3781, 5517
10902, 2919, 2074, 4198, 5489
10903, 2058, 2558, 4308, 4515
10904, 3803, 1537, 5009, 5228
10905, 3170, 5008, 3804, 5227
10906, 953, 4130, 951, 4854
10907, 500, 4147, 543, 4917
10908, 4226, 4580, 3850, 5495
10909, 4048, 4748, 1651, 5397
10910, 2074, 4198, 2072, 4762
10911, 1036, 4033, 4811, 5381
10912, 1226, 939, 940, 4028
10913, 2572, 2573, 2859, 4027
10914, 2583, 5122, 4061, 5416
10915, 4104, 4017, 4736, 5500
10916, 1308, 5460, 1305, 5468
10917, 1436, 4935, 4151, 5067
10918, 3069, 4936, 4150, 5068
10919, 1115, 1757, 1117, 4041
10920, 2750, 2748, 3390, 4042
10921, 2450, 4950, 3874, 5185
10922, 4087, 4861, 914, 5104
10923, 4088, 4860, 2547, 5105
10924, 2238, 3799, 5058, 5081
10925, 3774, 4897, 1460, 5499
10926, 3863, 4295, 4297, 5503
10927, 4204, 4361, 3887, 4859
10928, 4203, 4362, 3886, 4858
10929, 3888, 4287, 4116, 5246
10930, 3889, 4288, 4117, 5247
10931, 1061, 4839, 4069, 5459
10932, 3859, 4299, 4122, 5248
10933, 3860, 4300, 4121, 5249
10934, 1027, 4728, 3825, 5292
10935, 545, 1417, 1581, 4449
10936, 3050, 3214, 2178, 4450
10937, 4688, 4917, 4147, 5064
10938, 4689, 4918, 4148, 5063
10939, 2832, 4605, 3936, 5090
10940, 3849, 4580, 4226, 5495
10941, 3999, 4640, 3287, 5465
10942, 3922, 2031, 5021, 5521
10943, 398, 5020, 3921, 5522
10944, 3488, 3412, 1966, 4278
10945, 2826, 4547, 3805, 5309
10946, 3949, 4337, 4198, 4983
10947, 4334, 4698, 3828, 4947
10948, 3970, 4487, 4219, 4927
10949, 1172, 4443, 3997, 5326
10950, 3996, 2805, 4444, 5325
10951, 913, 4505, 4088, 5126
10952, 643, 5164, 3867, 5249
10953, 1954, 4095, 2759, 4916
10954, 2546, 4506, 4087, 5127
10955, 2975, 4683, 2549, 5409
10956, 347, 4266, 1303, 5250
10957, 3820, 4832, 2517, 5393
10958, 2446, 4950, 2986, 5314
10959, 1996, 3401, 2987, 4091
10960, 3136, 4285, 2149, 4582
10961, 1503, 4286, 516, 4581
10962, 397, 4287, 395, 4526
10963, 2028, 2030, 4288, 4525
10964, 1481, 1457, 4289, 4588
10965, 3193, 4290, 3035, 4539
10966, 2159, 4301, 2164, 4557
10967, 3006, 4302, 2273, 4536
10968, 2116, 4303, 2118, 4594
10969, 912, 1565, 4315, 4520
10970, 2545, 3198, 4314, 4521
10971, 1069, 1163, 1068, 4080
10972, 2702, 2796, 2701, 4081
10973, 779, 960, 4313, 4627
10974, 3701, 4274, 3734, 4969
10975, 3693, 3694, 4207, 4400
10976, 695, 693, 4311, 4610
10977, 2326, 4312, 2328, 4611
10978, 1195, 3856, 4583, 5114
10979, 2224, 2223, 2288, 5392
10980, 2952, 4765, 2950, 4871
10981, 2150, 2149, 2151, 5246
10982, 517, 516, 518, 5247
10983, 2894, 2895, 2896, 5248
10984, 1261, 1262, 1263, 5249
10985, 4050, 4416, 3946, 5373
10986, 4051, 4415, 3947, 5374
10987, 1125, 4874, 4111, 5129
10988, 3899, 4719, 4228, 4986
10989, 946, 5005, 3785, 5082
10990, 3965, 4335, 4120, 5258
10991, 2546, 3349, 3378, 5194
10992, 913, 1716, 1745, 5195
10993, 1569, 4200, 603, 4973
10994, 4105, 5143, 4872, 5507
10995, 3056, 4886, 3913, 5240
10996, 3914, 1423, 4887, 5241
10997, 1201, 1077, 1078, 5125
10998, 3949, 5090, 2282, 5489
10999, 1758, 1059, 4079, 4854
11000, 2365, 4785, 3967, 5392
11001, 3228, 4194, 2614, 5042
11002, 1828, 1848, 1926, 4066
11003, 3462, 3479, 3563, 4068
11004, 4052, 5112, 1335, 5284
11005, 3918, 4983, 1405, 4990
11006, 358, 5129, 1134, 5218
11007, 3163, 2929, 5142, 5405
11008, 3952, 5077, 4594, 5474
11009, 3533, 3449, 3547, 4091
11010, 1140, 1712, 5184, 5252
11011, 4402, 4671, 872, 5421
11012, 1675, 5173, 3920, 5239
11013, 4159, 3907, 5101, 5496
11014, 4160, 3906, 5100, 5497
11015, 1666, 4327, 3925, 5238
11016, 3914, 4329, 1087, 5241
11017, 2720, 3913, 4330, 5240
11018, 2710, 3756, 5121, 5232
11019, 2710, 2711, 2834, 5121
11020, 2548, 4359, 4101, 5416
11021, 3945, 4336, 4197, 4502
11022, 4200, 4338, 3809, 4503
11023, 732, 4787, 3966, 5083
11024, 2566, 4924, 3839, 5449
11025, 1022, 5229, 4721, 5313
11026, 3757, 5125, 1077, 5231
11027, 1844, 1792, 1849, 4454
11028, 3009, 1943, 3424, 4275
11029, 3134, 1853, 1959, 4321
11030, 3445, 326, 1501, 4320
11031, 4228, 4719, 3847, 4986
11032, 1587, 4003, 5212, 5361
11033, 3982, 4727, 2342, 5111
11034, 4120, 4927, 991, 5398
11035, 4609, 4745, 3940, 5087
11036, 4892, 5311, 3892, 5514
11037, 3850, 5310, 4900, 5517
11038, 3587, 4355, 1827, 5151
11039, 1662, 4665, 4011, 5117
11040, 3588, 4354, 3461, 5152
11041, 2950, 4871, 4028, 4931
11042, 4302, 4410, 3805, 4495
11043, 3356, 3375, 5143, 5389
11044, 4141, 4937, 1365, 4938
11045, 4142, 4939, 2998, 4940
11046, 3955, 4831, 4176, 4981
11047, 4014, 4630, 2420, 5338
11048, 2533, 3372, 4490, 5525
11049, 1950, 3387, 2962, 3755
11050, 4056, 1057, 4911, 5093
11051, 4057, 2690, 4912, 5094
11052, 3140, 1996, 2987, 4684
11053, 309, 4460, 3498, 4954
11054, 455, 4791, 3827, 5263
11055, 4078, 4075, 4683, 5324
11056, 409, 406, 4407, 4908
11057, 2039, 4406, 2042, 4907
11058, 1769, 1514, 1054, 4091
11059, 2746, 4342, 4096, 5339
11060, 4111, 5129, 1907, 5218
11061, 3400, 3435, 4183, 5372
11062, 925, 425, 4358, 5102
11063, 1317, 4877, 4027, 4930
11064, 330, 3684, 3691, 5357
11065, 3684, 330, 1234, 5357
11066, 2224, 4199, 2223, 5392
11067, 4118, 4486, 1348, 4863
11068, 4012, 5098, 3355, 5525
11069, 1589, 4735, 4074, 5214
11070, 1957, 4068, 2760, 5123
11071, 324, 4066, 1127, 5124
11072, 3987, 4338, 4200, 5069
11073, 3886, 4858, 4296, 5244
11074, 1774, 4016, 4389, 4757
11075, 4015, 4390, 3407, 4758
11076, 2681, 2773, 4681, 5137
11077, 3810, 4524, 4205, 5170
11078, 3392, 4071, 1991, 5386
11079, 3409, 3451, 3512, 4772
11080, 4078, 2737, 4353, 4438
11081, 1188, 3814, 4510, 5067
11082, 2746, 4096, 2747, 5181
11083, 1329, 317, 1754, 4038
11084, 389, 388, 5263, 5323
11085, 1740, 4732, 4019, 4967
11086, 4340, 4801, 4034, 4882
11087, 2757, 4403, 4111, 4958
11088, 1769, 4091, 1054, 5297
11089, 4029, 4401, 3365, 5131
11090, 1119, 1759, 1447, 4036
11091, 1088, 3950, 4329, 5033
11092, 2721, 3951, 4330, 5034
11093, 2509, 2060, 4430, 4783
11094, 4121, 4488, 645, 4864
11095, 1479, 4322, 3844, 5224
11096, 2505, 4638, 5243, 5450
11097, 3797, 4539, 4290, 5413
11098, 2917, 2916, 5196, 5304
11099, 2728, 3314, 4168, 4947
11100, 715, 4219, 1608, 4707
11101, 4155, 4370, 3803, 5228
11102, 4156, 4371, 3804, 5227
11103, 4122, 4489, 2278, 4865
11104, 1236, 4102, 5357, 5498
11105, 1019, 3933, 5089, 5358
11106, 387, 4777, 3786, 5263
11107, 835, 4013, 5184, 5319
11108, 3941, 4595, 2654, 5254
11109, 1119, 1447, 312, 5155
11110, 2728, 4168, 3289, 4947
11111, 4052, 5284, 1334, 5352
11112, 4754, 4898, 3941, 5141
11113, 2563, 5185, 4197, 5449
11114, 3041, 5203, 3934, 5366
11115, 3780, 4794, 4305, 5415
11116, 1419, 1458, 670, 5174
11117, 596, 5112, 3875, 5284
11118, 2995, 4484, 4115, 4875
11119, 3762, 715, 4707, 5512
11120, 1437, 4424, 3868, 4976
11121, 3070, 4425, 3867, 4977
11122, 4336, 4446, 3945, 5449
11123, 1411, 4738, 3783, 4846
11124, 4261, 4747, 4012, 5400
11125, 1049, 1762, 1113, 4078
11126, 2674, 4747, 2624, 5400
11127, 1317, 1319, 4761, 4877
11128, 563, 562, 568, 5056
11129, 3958, 4369, 1147, 5351
11130, 2844, 3080, 3393, 4036
11131, 1990, 2974, 3388, 4038
11132, 4064, 5176, 2814, 5222
11133, 1454, 3900, 4987, 5262
11134, 4061, 4751, 837, 5319
11135, 433, 4609, 3940, 5087
11136, 3971, 4734, 4439, 4751
11137, 3964, 4261, 4131, 5307
11138, 3764, 4270, 4185, 5335
11139, 1879, 1907, 1905, 5218
11140, 3825, 5110, 2870, 5523
11141, 2253, 5028, 4349, 5454
11142, 715, 1608, 4219, 5512
11143, 1685, 3959, 4754, 4969
11144, 1304, 1297, 4132, 4929
11145, 4219, 4707, 715, 5512
11146, 3649, 4636, 3596, 5131
11147, 3497, 4112, 5120, 5293
11148, 1802, 4182, 1767, 5337
11149, 2043, 2041, 3065, 4434
11150, 2224, 4333, 2225, 5175
11151, 1828, 1848, 4066, 4940
11152, 3462, 3479, 4068, 4938
11153, 3549, 3543, 3505, 4481
11154, 3959, 2779, 5254, 5455
11155, 1981, 4269, 3584, 5080
11156, 1647, 4131, 1575, 4932
11157, 1816, 4398, 1899, 5265
11158, 4860, 5105, 4505, 5276
11159, 1762, 4078, 1049, 5155
11160, 906, 1048, 4109, 5133
11161, 655, 4270, 590, 5083
11162, 3879, 4392, 4047, 5327
11163, 1111, 4442, 1148, 5346
11164, 2781, 2744, 4441, 5345
11165, 2652, 3959, 4595, 5153
11166, 4047, 5237, 4435, 5469
11167, 2054, 4540, 3942, 5295
11168, 1135, 4101, 1137, 5252
11169, 4861, 5104, 4506, 5275
11170, 3999, 4971, 4222, 5465
11171, 1132, 1781, 343, 5302
11172, 2765, 3414, 1976, 5303
11173, 2817, 4007, 4483, 5222
11174, 3974, 4735, 4635, 5264
11175, 2601, 5113, 3992, 5167
11176, 4096, 4365, 4082, 4919
11177, 1797, 1271, 1715, 4187
11178, 3430, 2904, 3348, 4186
11179, 3649, 3596, 4401, 5131
11180, 4131, 5111, 4747, 5291
11181, 2410, 4862, 3967, 5305
11182, 979, 4178, 1638, 4960
11183, 4386, 4851, 4330, 5240
11184, 4385, 4850, 4329, 5241
11185, 3536, 4079, 4764, 4964
11186, 2717, 4838, 3960, 4968
11187, 3372, 4025, 4490, 5098
11188, 1211, 1763, 334, 4070
11189, 2864, 5279, 4022, 5331
11190, 1231, 5280, 4021, 5330
11191, 2669, 4034, 4882, 5368
11192, 2681, 4108, 2539, 5137
11193, 3843, 1278, 4823, 4941
11194, 3842, 2911, 4822, 4942
11195, 346, 133, 3591, 3612
11196, 1294, 346, 133, 3591
11197, 132, 1294, 3591, 3602
11198, 3593, 1298, 129, 3601
11199, 3599, 279, 2931, 3592
11200, 1294, 132, 328, 3602
11201, 330, 3684, 58, 3691
11202, 130, 1298, 1299, 3601
11203, 2932, 280, 2931, 3599
11204, 3595, 130, 1299, 3601
11205, 3701, 61, 1283, 3696
11206, 345, 61, 1283, 3701
11207, 3684, 330, 58, 1234
11208, 3690, 341, 56, 3682
11209, 1974, 3714, 205, 3681
11210, 70, 352, 3709, 1705
11211, 3334, 224, 3699, 3706
11212, 341, 3690, 56, 1209
11213, 224, 3334, 1984, 3706
11214, 3344, 226, 3711, 3668
11215, 226, 3344, 1961, 3668
11216, 3669, 1698, 77, 3707
11217, 3331, 227, 3667, 3711
11218, 206, 3681, 3688, 2842
11219, 1711, 77, 1698, 3707
11220, 227, 3331, 3344, 3711
11221, 206, 3681, 2842, 1974
11222, 3706, 1984, 223, 3670
11223, 3336, 223, 1984, 3670
11224, 3814, 4972, 2821, 5068
11225, 2533, 3355, 3372, 5525
11226, 4168, 3781, 5310, 5517
11227, 3877, 4163, 5311, 5514
11228, 979, 978, 4178, 4960
11229, 280, 2932, 3594, 3599
11230, 793, 4987, 3900, 5097
11231, 1529, 1608, 1502, 5398
11232, 3844, 3040, 4896, 5169
11233, 4196, 4348, 3840, 5047
11234, 4059, 4517, 942, 5445
11235, 897, 1632, 1608, 5398
11236, 2845, 4076, 2762, 4453
11237, 1129, 1212, 4077, 4452
11238, 2938, 3617, 296, 3581
11239, 4098, 4451, 4097, 4761
11240, 3030, 3252, 3024, 4701
11241, 808, 806, 807, 4700
11242, 811, 892, 808, 4700
11243, 3024, 4701, 2922, 4702
11244, 3024, 2922, 3023, 4702
11245, 3024, 3029, 2514, 4702
11246, 3617, 2938, 296, 1982
11247, 2759, 4095, 3402, 5396
11248, 852, 4415, 3947, 4837
11249, 2485, 4416, 3946, 4836
11250, 1607, 1597, 1085, 5281
11251, 4447, 4799, 4144, 4816
11252, 2060, 4430, 3948, 5109
11253, 1158, 1535, 4744, 5102
11254, 1340, 4082, 1342, 4919
11255, 3618, 348, 143, 3583
11256, 3583, 348, 143, 1309
11257, 3709, 3673, 70, 1705
11258, 2219, 3970, 4425, 4977
11259, 586, 3969, 4424, 4976
11260, 1048, 906, 4109, 5424
11261, 4120, 4335, 3965, 5398
11262, 2962, 1950, 3755, 4772
11263, 777, 848, 901, 4447
11264, 1717, 4033, 4505, 5126
11265, 4366, 4919, 4096, 5181
11266, 3919, 3116, 5225, 5314
11267, 3523, 3444, 3570, 4259
11268, 1887, 1843, 1937, 4260
11269, 2681, 2539, 4108, 5338
11270, 2047, 3807, 4499, 5096
11271, 1895, 1865, 5130, 5306
11272, 3807, 4504, 414, 5095
11273, 1447, 4036, 1759, 5129
11274, 1451, 4788, 4005, 5190
11275, 3084, 4789, 4004, 5189
11276, 4009, 5039, 1743, 5179
11277, 1143, 5302, 5298, 5362
11278, 2776, 5303, 5299, 5363
11279, 2943, 2940, 2942, 5500
11280, 1107, 4367, 4022, 5166
11281, 2740, 4368, 4021, 5165
11282, 961, 4814, 4763, 5234
11283, 3606, 4215, 3586, 4420
11284, 1982, 3610, 297, 3617
11285, 2780, 4263, 1956, 5153
11286, 529, 533, 4257, 4433
11287, 3793, 4125, 4293, 5366
11288, 3350, 4034, 4506, 5127
11289, 2845, 1993, 2762, 4076
11290, 1129, 1212, 360, 4077
11291, 4202, 4777, 4508, 5323
11292, 1608, 4219, 1529, 4707
11293, 3954, 4648, 4177, 4980
11294, 3610, 1982, 297, 2918
11295, 3616, 3584, 3615, 4269
11296, 423, 422, 4305, 4794
11297, 560, 4689, 562, 5091
11298, 3953, 3317, 5110, 5399
11299, 2563, 2491, 5185, 5449
11300, 3730, 4136, 3711, 5513
11301, 3897, 4350, 4148, 5118
11302, 3896, 4351, 4147, 5119
11303, 4090, 4493, 4089, 4765
11304, 1326, 4824, 4037, 5186
11305, 4189, 4442, 4093, 5094
11306, 4190, 4441, 4094, 5093
11307, 4148, 4350, 3870, 5118
11308, 4147, 4351, 3871, 5119
11309, 3361, 5258, 4319, 5448
11310, 3280, 4487, 4120, 5046
11311, 3655, 4319, 3590, 4967
11312, 2979, 3597, 287, 3620
11313, 3893, 4324, 4224, 4982
11314, 3892, 4224, 4324, 4982
11315, 2227, 4333, 3891, 5259
11316, 2586, 4214, 2584, 5049
11317, 3879, 4411, 4304, 5201
11318, 1340, 1339, 1338, 4429
11319, 4133, 5109, 3089, 5255
11320, 3958, 3322, 4979, 5196
11321, 979, 978, 977, 5193
11322, 1038, 1044, 979, 5193
11323, 3998, 4395, 3183, 4928
11324, 4178, 4012, 4932, 5525
11325, 434, 1590, 4337, 4609
11326, 1844, 333, 1792, 4454
11327, 3306, 3812, 4598, 5225
11328, 1480, 3844, 4541, 5224
11329, 4023, 2590, 5220, 5505
11330, 4024, 957, 5219, 5506
11331, 4145, 4255, 4071, 5519
11332, 3527, 5120, 3541, 5293
11333, 2506, 4813, 4020, 5450
11334, 3597, 2979, 287, 1983
11335, 2835, 4915, 4045, 5384
11336, 298, 3579, 3610, 2918
11337, 4133, 4873, 3089, 5109
11338, 1834, 1929, 1895, 4451
11339, 1398, 1568, 1454, 5197
11340, 4300, 4688, 3938, 5405
11341, 3181, 2792, 4332, 4670
11342, 1548, 1159, 4331, 4669
11343, 2544, 4059, 4521, 5176
11344, 1235, 4771, 4136, 5357
11345, 666, 663, 4853, 5272
11346, 3101, 3451, 3409, 4772
11347, 298, 3579, 2918, 1962
11348, 4018, 5035, 3157, 5183
11349, 358, 1125, 1134, 5129
11350, 4747, 5291, 2624, 5400
11351, 2496, 3240, 2620, 5274
11352, 3230, 2718, 3240, 5274
11353, 1530, 5140, 4007, 5296
11354, 3899, 985, 5230, 5391
11355, 2755, 2756, 2691, 4189
11356, 1058, 1122, 1123, 4190
11357, 1101, 4420, 4032, 5179
11358, 2249, 2285, 4439, 4775
11359, 783, 4733, 3834, 5150
11360, 4233, 5474, 4404, 5483
11361, 563, 5056, 569, 5452
11362, 4090, 4765, 4089, 4961
11363, 3377, 301, 3578, 1972
11364, 3580, 151, 339, 1744
11365, 1295, 1268, 4299, 4689
11366, 2901, 4300, 2928, 4688
11367, 2426, 4155, 3159, 4988
11368, 793, 4156, 1526, 4987
11369, 3104, 2440, 4162, 4986
11370, 1279, 1427, 4157, 4990
11371, 3060, 4158, 2912, 4989
11372, 2722, 4172, 2218, 4991
11373, 4219, 4927, 4487, 5398
11374, 374, 4176, 373, 4992
11375, 2426, 4988, 3901, 5135
11376, 331, 4042, 1753, 5456
11377, 1964, 4041, 3386, 5457
11378, 3337, 1956, 4263, 5153
11379, 2904, 4186, 3430, 5199
11380, 1271, 4187, 1797, 5198
11381, 1891, 4275, 1844, 4454
11382, 2846, 4206, 2573, 5260
11383, 3781, 5005, 687, 5517
11384, 2175, 4338, 4463, 5417
11385, 3276, 3290, 2727, 5253
11386, 2790, 3074, 3139, 5327
11387, 3801, 4687, 3302, 5048
11388, 4248, 3973, 4905, 5502
11389, 3898, 4405, 4337, 5489
11390, 301, 3611, 3578, 1972
11391, 3580, 339, 151, 3603
11392, 1988, 3420, 2746, 4342
11393, 3382, 3753, 3000, 5060
11394, 1367, 1749, 3754, 5059
11395, 3622, 1962, 299, 3375
11396, 2692, 3010, 3391, 4083
11397, 3363, 4143, 4419, 4975
11398, 3073, 2034, 4408, 4590
11399, 1440, 401, 4409, 4591
11400, 1758, 1059, 1377, 4079
11401, 1209, 371, 4317, 4482
11402, 2279, 2015, 4414, 4633
11403, 646, 382, 4413, 4632
11404, 3986, 4507, 4387, 4620
11405, 4098, 4761, 4097, 4952
11406, 2676, 4882, 3964, 5368
11407, 1319, 4451, 1751, 4761
11408, 3848, 4899, 3244, 5261
11409, 5252, 5319, 4101, 5421
11410, 2731, 5105, 4860, 5276
11411, 2917, 5196, 4103, 5304
11412, 3498, 4365, 3540, 4954
11413, 1722, 4006, 4428, 4732
11414, 498, 493, 492, 4399
11415, 1098, 5104, 4861, 5275
11416, 3349, 2890, 1975, 4752
11417, 1716, 1257, 342, 4753
11418, 3764, 4072, 4512, 5452
11419, 1962, 3622, 299, 3579
11420, 4132, 4870, 2403, 5138
11421, 2252, 4349, 2253, 5028
11422, 872, 1047, 918, 4402
11423, 1094, 5054, 1643, 5178
11424, 1721, 4736, 4032, 5154
11425, 3571, 1747, 3523, 4259
11426, 3380, 1887, 1938, 4260
11427, 4166, 4828, 813, 4949
11428, 2446, 4165, 4829, 4950
11429, 653, 4831, 4170, 4951
11430, 2462, 5046, 3280, 5258
11431, 1124, 4071, 357, 5300
11432, 3993, 4639, 1654, 5424
11433, 3828, 1540, 4698, 5170
11434, 491, 4399, 1655, 5238
11435, 2760, 4068, 3404, 5317
11436, 1127, 4066, 1771, 5316
11437, 3979, 4612, 4310, 5272
11438, 4034, 5104, 1098, 5275
11439, 3768, 4345, 4150, 5367
11440, 1942, 4110, 2975, 5409
11441, 279, 1973, 2931, 3592
11442, 1298, 129, 340, 3593
11443, 940, 1213, 4208, 5271
11444, 4025, 1731, 5078, 5221
11445, 1325, 4459, 1324, 5150
11446, 3205, 5116, 4250, 5211
11447, 3104, 4162, 2444, 4986
11448, 1151, 3913, 4422, 4603
11449, 2784, 3914, 4423, 4604
11450, 2122, 3159, 4155, 4988
11451, 489, 1526, 4156, 4987
11452, 815, 4157, 1427, 4990
11453, 2448, 4158, 3060, 4989
11454, 2218, 4172, 3200, 4991
11455, 2757, 1989, 3008, 4111
11456, 375, 4176, 374, 4992
11457, 1221, 4737, 3992, 4750
11458, 2639, 2811, 3299, 4404
11459, 2811, 3052, 3053, 4404
11460, 3388, 1990, 4038, 5410
11461, 3365, 4401, 4029, 5183
11462, 3794, 4399, 4073, 5453
11463, 1129, 4452, 4077, 5124
11464, 2762, 4453, 4076, 5123
11465, 1325, 4037, 4459, 5150
11466, 1471, 1629, 4161, 5224
11467, 3116, 4167, 3305, 5225
11468, 3975, 4250, 5073, 5186
11469, 4033, 5105, 2731, 5276
11470, 4106, 4373, 3811, 4647
11471, 3799, 4374, 4106, 4647
11472, 4464, 5207, 4943, 5496
11473, 4465, 5208, 4944, 5497
11474, 3800, 4547, 3122, 5309
11475, 3641, 3579, 3622, 5143
11476, 3337, 2780, 1956, 5153
11477, 995, 1641, 1644, 5256
11478, 2306, 2305, 2307, 5257
11479, 3800, 4410, 4897, 5309
11480, 3703, 3721, 3743, 4264
11481, 3586, 3652, 4420, 5080
11482, 3920, 4373, 1483, 5239
11483, 1926, 4066, 1848, 5124
11484, 3563, 4068, 3479, 5123
11485, 1182, 4095, 4766, 4767
11486, 1972, 302, 3611, 2848
11487, 3603, 339, 152, 1215
11488, 4261, 5291, 4747, 5400
11489, 4101, 5252, 4214, 5319
11490, 4135, 5134, 3953, 5161
11491, 1089, 4171, 585, 5488
11492, 4171, 4976, 585, 5063
11493, 4172, 4977, 2218, 5064
11494, 1156, 4500, 3901, 5156
11495, 2789, 4501, 3900, 5157
11496, 3131, 4599, 3832, 4779
11497, 2257, 5069, 3987, 5113
11498, 1763, 334, 4070, 5294
11499, 1277, 3918, 4587, 5088
11500, 2472, 4799, 3966, 4816
11501, 1874, 1917, 1912, 4496
11502, 3876, 4571, 478, 4883
11503, 561, 4976, 3868, 5063
11504, 2194, 4977, 3867, 5064
11505, 3881, 4572, 2318, 4955
11506, 2053, 4540, 3780, 5053
11507, 4149, 4524, 3810, 5103
11508, 3337, 3959, 5153, 5455
11509, 4424, 4712, 4122, 5278
11510, 1902, 4417, 1903, 5061
11511, 3532, 4418, 3537, 5062
11512, 302, 3575, 3611, 2848
11513, 152, 3576, 3603, 1215
11514, 3900, 4987, 4156, 5097
11515, 565, 4477, 3867, 5164
11516, 2303, 4594, 3952, 5191
11517, 945, 3986, 4507, 5361
11518, 3249, 3996, 4923, 5325
11519, 1616, 3997, 4922, 5326
11520, 1628, 3758, 4960, 5488
11521, 4123, 5056, 3939, 5092
11522, 3756, 4505, 4138, 4860
11523, 1264, 4440, 3987, 5332
11524, 373, 3985, 4992, 5163
11525, 4328, 4384, 3869, 5242
11526, 3757, 4506, 4137, 4861
11527, 3899, 4646, 2525, 5200
11528, 2692, 4083, 5049, 5356
11529, 3826, 4771, 1237, 4812
11530, 3725, 3688, 4316, 4970
11531, 738, 4788, 3946, 5283
11532, 2371, 4789, 3947, 5282
11533, 1368, 4634, 3975, 5186
11534, 1342, 1340, 1343, 4082
11535, 2819, 3279, 3311, 5092
11536, 786, 4631, 3993, 5424
11537, 3825, 3165, 4648, 5523
11538, 3692, 79, 1694, 3665
11539, 3664, 3327, 229, 3700
11540, 4315, 5142, 3860, 5405
11541, 1694, 338, 79, 3692
11542, 1971, 229, 3327, 3700
11543, 3757, 4948, 4208, 5231
11544, 357, 1760, 1446, 4699
11545, 2704, 5268, 2981, 5385
11546, 675, 4908, 3910, 5158
11547, 2308, 4907, 3909, 5159
11548, 3909, 5097, 4156, 5354
11549, 4159, 4351, 3871, 4464
11550, 4160, 4350, 3870, 4465
11551, 3623, 1981, 3584, 5080
11552, 1361, 4400, 3960, 4956
11553, 3541, 3466, 3499, 4493
11554, 1321, 5139, 3919, 5160
11555, 355, 1857, 4276, 5501
11556, 4066, 4452, 1127, 5124
11557, 4068, 4453, 2760, 5123
11558, 4439, 4734, 4074, 4775
11559, 3904, 4326, 1536, 5510
11560, 3583, 4401, 3650, 5388
11561, 740, 4869, 3891, 5451
11562, 4144, 4799, 4064, 5223
11563, 3906, 4326, 4242, 5347
11564, 3907, 4325, 4243, 5348
11565, 2800, 2798, 3407, 4390
11566, 1774, 1167, 1165, 4389
11567, 4329, 4692, 4385, 5285
11568, 4330, 4693, 4386, 5286
11569, 4028, 4765, 4089, 4871
11570, 3985, 4482, 4136, 5075
11571, 3545, 4752, 3470, 5198
11572, 2643, 4380, 2452, 5310
11573, 1391, 1396, 4376, 5312
11574, 500, 539, 4147, 4917
11575, 2133, 2172, 4148, 4918
11576, 3194, 4626, 3981, 5032
11577, 1914, 4753, 1837, 5199
11578, 1619, 1391, 4376, 5311
11579, 4038, 1329, 4459, 5447
11580, 1580, 4759, 4034, 5275
11581, 4035, 2804, 5132, 5168
11582, 3953, 5134, 1145, 5161
11583, 2249, 4775, 4439, 5454
11584, 3269, 2924, 4164, 5100
11585, 1636, 1291, 4163, 5101
11586, 2790, 3139, 4518, 5327
11587, 2258, 4641, 3931, 5028
11588, 625, 4642, 3930, 5029
11589, 4342, 4365, 4096, 4954
11590, 4330, 4386, 3976, 4851
11591, 4329, 4385, 3977, 4850
11592, 1171, 5136, 4043, 5171
11593, 3978, 4675, 2355, 5022
11594, 2815, 3401, 3141, 5223
11595, 3154, 4483, 2818, 4756
11596, 4242, 4326, 3916, 5347
11597, 4243, 4325, 3915, 5348
11598, 484, 4304, 483, 5262
11599, 3958, 4328, 4277, 5351
11600, 2747, 4096, 3420, 4867
11601, 999, 887, 998, 4410
11602, 2560, 2488, 2489, 4411
11603, 406, 408, 409, 4407
11604, 2041, 2042, 2039, 4406
11605, 2794, 2919, 2882, 4412
11606, 1751, 4098, 4451, 5333
11607, 4249, 5115, 4647, 5206
11608, 4101, 5319, 4214, 5416
11609, 3791, 4305, 4358, 4430
11610, 2253, 3971, 5028, 5454
11611, 726, 4634, 3834, 5026
11612, 1159, 1149, 1265, 4413
11613, 2792, 2782, 2898, 4414
11614, 2357, 4630, 3930, 5023
11615, 724, 4631, 3931, 5024
11616, 4570, 4892, 3865, 5471
11617, 3822, 4627, 662, 5025
11618, 689, 4596, 3765, 5005
11619, 2139, 4532, 3779, 4996
11620, 506, 4531, 3778, 4997
11621, 3853, 4566, 464, 4998
11622, 3852, 4565, 2097, 4999
11623, 3830, 4560, 1274, 5000
11624, 3829, 4559, 2907, 5001
11625, 582, 3819, 4564, 5002
11626, 578, 3802, 4542, 5006
11627, 3823, 4553, 3177, 5007
11628, 2035, 4606, 3894, 5011
11629, 402, 4607, 3895, 5012
11630, 688, 4596, 3781, 5014
11631, 3111, 4527, 3778, 5008
11632, 1478, 4528, 3779, 5009
11633, 1443, 3802, 4535, 5010
11634, 1606, 3823, 4538, 5013
11635, 801, 4584, 3779, 5015
11636, 2434, 4585, 3778, 5016
11637, 656, 4574, 3778, 5017
11638, 2289, 4575, 3779, 5018
11639, 2840, 4606, 3943, 5021
11640, 1207, 4607, 3944, 5020
11641, 690, 4596, 3832, 5003
11642, 2323, 4597, 3833, 5004
11643, 4353, 4438, 4003, 4817
11644, 3762, 4957, 761, 5512
11645, 4067, 4455, 2480, 4789
11646, 4065, 4456, 847, 4788
11647, 3213, 4760, 4033, 5276
11648, 3722, 3743, 3671, 4264
11649, 2712, 4626, 3988, 5030
11650, 3972, 5175, 4084, 5380
11651, 1510, 4360, 1245, 5452
11652, 4203, 4823, 4362, 4858
11653, 4204, 4822, 4361, 4859
11654, 3594, 2932, 281, 3600
11655, 3683, 3689, 208, 2867
11656, 1960, 281, 2932, 3600
11657, 1963, 208, 3689, 2867
11658, 3336, 222, 3670, 3710
11659, 3770, 798, 4529, 4985
11660, 3771, 2431, 4530, 4984
11661, 2013, 4633, 4000, 4995
11662, 676, 4373, 3811, 5308
11663, 1575, 4932, 4131, 5245
11664, 496, 5119, 3896, 5411
11665, 222, 3336, 1956, 3710
11666, 1350, 5107, 1615, 5247
11667, 2983, 5108, 3248, 5246
11668, 675, 1461, 1452, 4908
11669, 3085, 2308, 3094, 4907
11670, 2795, 2358, 4742, 5331
11671, 725, 4741, 1162, 5330
11672, 1680, 1521, 1185, 4909
11673, 4248, 4387, 4003, 5211
11674, 737, 5146, 736, 5283
11675, 2370, 5147, 2369, 5282
11676, 3451, 4365, 3534, 4772
11677, 1137, 5252, 4101, 5421
11678, 4387, 5211, 4248, 5502
11679, 1228, 1076, 1229, 4108
11680, 2934, 3422, 4673, 4710
11681, 1301, 1789, 4674, 4711
11682, 3514, 1988, 3493, 4342
11683, 2868, 4928, 4135, 5110
11684, 3898, 4405, 2069, 5204
11685, 3972, 4339, 4199, 5380
11686, 1534, 4654, 4018, 5045
11687, 3167, 4653, 4017, 5044
11688, 1564, 4797, 4021, 5190
11689, 3197, 4798, 4022, 5189
11690, 3305, 4167, 3116, 5314
11691, 3941, 4102, 4754, 5254
11692, 4090, 4493, 3384, 5334
11693, 4098, 4952, 4097, 5216
11694, 1470, 1578, 4326, 4926
11695, 3103, 3211, 4325, 4925
11696, 3171, 4659, 4009, 5040
11697, 1538, 4658, 4009, 5041
11698, 1425, 608, 1457, 5365
11699, 2819, 4483, 4123, 5335
11700, 1302, 347, 1303, 5250
11701, 4117, 5033, 1615, 5247
11702, 3248, 4116, 5034, 5246
11703, 4448, 4767, 4095, 5396
11704, 817, 4307, 858, 4348
11705, 356, 1777, 1343, 4460
11706, 3806, 4548, 4449, 5048
11707, 3458, 3561, 3482, 4764
11708, 1241, 4981, 1242, 5085
11709, 2875, 2874, 4980, 5084
11710, 2488, 5201, 2428, 5406
11711, 3009, 5049, 4275, 5356
11712, 2919, 4412, 3949, 5489
11713, 2761, 4022, 4453, 5189
11714, 4021, 4452, 1128, 5190
11715, 1476, 4744, 3952, 5077
11716, 3742, 4263, 3710, 4852
11717, 4138, 4219, 3965, 5381
11718, 2647, 2917, 3320, 4277
11719, 4220, 4366, 4096, 5181
11720, 1458, 3956, 4435, 5174
11721, 3808, 4352, 4115, 5050
11722, 414, 415, 4504, 4743
11723, 3757, 827, 4861, 5231
11724, 1818, 355, 1857, 4276
11725, 4211, 4404, 4046, 4784
11726, 4100, 5236, 3639, 5394
11727, 3638, 4099, 5235, 5395
11728, 3953, 4480, 4264, 5134
11729, 3914, 4887, 4231, 5241
11730, 3913, 4886, 4230, 5240
11731, 3756, 2460, 4860, 5232
11732, 1750, 1749, 3519, 4937
11733, 3383, 3382, 1882, 4939
11734, 1936, 4186, 1819, 4753
11735, 3452, 3569, 4187, 4752
11736, 2293, 3759, 4464, 5207
11737, 3758, 4465, 660, 5208
11738, 3420, 2747, 2746, 4096
11739, 2461, 4656, 3994, 5035
11740, 1094, 1643, 1657, 5178
11741, 1953, 212, 3685, 2916
11742, 3685, 3708, 213, 2935
11743, 2935, 213, 3685, 1953
11744, 3107, 4439, 4061, 5122
11745, 2861, 2709, 2862, 4109
11746, 3514, 4342, 3535, 4954
11747, 2809, 2878, 4870, 5259
11748, 3385, 2834, 4098, 4952
11749, 2762, 1993, 3417, 5123
11750, 1784, 1129, 360, 5124
11751, 2606, 4656, 4018, 5031
11752, 3975, 5073, 722, 5186
11753, 3846, 4380, 4322, 4696
11754, 3925, 4379, 4327, 4697
11755, 4327, 4375, 3813, 4697
11756, 3977, 4385, 4329, 4692
11757, 3976, 4386, 4330, 4693
11758, 3706, 4274, 1984, 5455
11759, 4272, 5085, 4981, 5360
11760, 4379, 4825, 4399, 5453
11761, 4273, 5084, 4980, 5359
11762, 3952, 4404, 4211, 4784
11763, 2957, 3761, 4437, 4910
11764, 2470, 4668, 4030, 5027
11765, 4090, 4961, 4089, 5215
11766, 1842, 1920, 4183, 5526
11767, 2987, 3387, 3140, 4684
11768, 4594, 5077, 3793, 5474
11769, 1570, 4693, 3951, 5286
11770, 3203, 4692, 3950, 5285
11771, 3362, 4419, 4019, 4975
11772, 2497, 2568, 2498, 4394
11773, 1523, 4658, 3994, 5039
11774, 825, 4634, 4037, 5150
11775, 1144, 338, 4491, 4970
11776, 4023, 4426, 1168, 5171
11777, 2568, 2577, 2824, 4394
11778, 2801, 4024, 4427, 5168
11779, 4045, 2719, 5384, 5423
11780, 2930, 4072, 5092, 5508
11781, 612, 609, 611, 5272
11782, 3502, 1796, 3498, 4954
11783, 667, 669, 668, 4853
11784, 1547, 666, 668, 4853
11785, 1157, 769, 4218, 5043
11786, 3481, 337, 1748, 4267
11787, 1970, 3381, 1852, 4268
11788, 3788, 5202, 486, 5520
11789, 3898, 4337, 4198, 5489
11790, 3845, 4472, 746, 5230
11791, 4308, 5234, 4435, 5415
11792, 1201, 4090, 1752, 4961
11793, 3205, 3984, 5116, 5211
11794, 1211, 4699, 1446, 5519
11795, 4130, 953, 4770, 4854
11796, 1047, 1134, 1125, 4402
11797, 2954, 4891, 3920, 5461
11798, 4069, 2481, 4785, 5305
11799, 1211, 5504, 4070, 5519
11800, 2332, 3851, 4793, 5261
11801, 3925, 4915, 2559, 5384
11802, 4377, 4701, 3904, 5510
11803, 1557, 3982, 4932, 5245
11804, 3811, 5058, 4249, 5290
11805, 3756, 4957, 4206, 5232
11806, 2419, 4630, 3999, 5465
11807, 3347, 4871, 4112, 5293
11808, 2975, 3186, 2549, 4683
11809, 4076, 4453, 2845, 5279
11810, 4077, 4452, 1212, 5280
11811, 3192, 4904, 3760, 5032
11812, 3059, 2709, 2861, 4974
11813, 352, 69, 3709, 3674
11814, 1377, 4079, 1059, 4764
11815, 925, 4784, 1160, 5102
11816, 2478, 4638, 4030, 5243
11817, 3805, 1665, 4897, 5499
11818, 3246, 2697, 2565, 4217
11819, 932, 1613, 1064, 4216
11820, 2088, 4947, 3828, 5301
11821, 2381, 2344, 3208, 5046
11822, 1543, 1039, 1732, 4318
11823, 4054, 4760, 3359, 5448
11824, 352, 69, 3674, 1359
11825, 3806, 1194, 5336, 5353
11826, 4124, 5130, 1934, 5306
11827, 1374, 4255, 920, 4959
11828, 4358, 4430, 4305, 5099
11829, 1128, 4452, 4021, 5280
11830, 2761, 4453, 4022, 5279
11831, 4272, 4981, 4176, 5360
11832, 4273, 4980, 4177, 5359
11833, 3953, 2869, 4480, 5110
11834, 3782, 4572, 2319, 5261
11835, 4027, 4761, 4097, 4877
11836, 2728, 3289, 3314, 4947
11837, 3129, 2911, 3060, 4942
11838, 1427, 1496, 1278, 4941
11839, 4256, 5178, 3827, 5385
11840, 2903, 2732, 5199, 5382
11841, 616, 4902, 3988, 5481
11842, 4312, 4331, 3991, 5328
11843, 4311, 4332, 3990, 5329
11844, 3934, 4293, 4125, 5366
11845, 3868, 5248, 2276, 5278
11846, 2405, 4953, 3230, 5274
11847, 4105, 4261, 4012, 5400
11848, 2560, 3879, 4411, 5327
11849, 2656, 4436, 3941, 5254
11850, 2751, 3411, 2858, 5084
11851, 1118, 1778, 1225, 5085
11852, 1483, 4373, 3920, 5315
11853, 2766, 4275, 3009, 5049
11854, 2681, 4108, 4681, 5338
11855, 1742, 5375, 1723, 5390
11856, 2587, 4723, 4411, 5406
11857, 3168, 2791, 3026, 4392
11858, 3820, 4913, 1323, 5418
11859, 1878, 1907, 5129, 5218
11860, 1270, 1099, 5198, 5387
11861, 3234, 4893, 3893, 5479
11862, 2229, 3968, 4901, 5478
11863, 3757, 4861, 4137, 5231
11864, 4033, 4505, 5105, 5276
11865, 3271, 4251, 2612, 4715
11866, 4703, 4717, 4326, 5510
11867, 1081, 5234, 1387, 5415
11868, 3756, 4860, 4138, 5232
11869, 2265, 4503, 3812, 5225
11870, 2893, 3850, 4900, 5495
11871, 4034, 4506, 5104, 5275
11872, 536, 1292, 478, 4883
11873, 2497, 2409, 2275, 4188
11874, 4029, 4879, 4665, 5468
11875, 1144, 4491, 3998, 4970
11876, 3864, 4462, 3232, 5289
11877, 3863, 4461, 1599, 5288
11878, 3822, 4576, 1444, 5112
11879, 2859, 4027, 2573, 4952
11880, 3987, 4624, 2838, 5113
11881, 2450, 2451, 2449, 5185
11882, 2492, 2451, 2491, 5185
11883, 1261, 3867, 4917, 5249
11884, 2894, 3868, 4918, 5248
11885, 1284, 3959, 4969, 5213
11886, 3963, 4834, 1442, 5466
11887, 3075, 3962, 4833, 5467
11888, 2463, 4028, 4489, 4931
11889, 830, 4027, 4488, 4930
11890, 2672, 4657, 4018, 5183
11891, 1228, 1426, 1076, 4971
11892, 2635, 2567, 2639, 4875
11893, 2975, 4110, 1942, 5270
11894, 3979, 611, 4612, 5272
11895, 940, 1226, 4028, 4961
11896, 4101, 5319, 5416, 5421
11897, 3541, 3503, 4493, 5215
11898, 2471, 4799, 2472, 4816
11899, 4173, 3980, 5027, 5481
11900, 875, 948, 989, 5180
11901, 3813, 4374, 4196, 4953
11902, 3967, 4733, 4309, 4909
11903, 525, 523, 524, 4863
11904, 2305, 4478, 3908, 5257
11905, 3957, 4682, 3343, 4852
11906, 3738, 4979, 3685, 5196
11907, 3002, 4833, 4063, 5467
11908, 1369, 4834, 4062, 5466
11909, 4261, 4105, 5143, 5400
11910, 3138, 3144, 4212, 4855
11911, 1511, 4213, 1506, 4856
11912, 3988, 4173, 5027, 5481
11913, 2662, 4729, 3985, 5401
11914, 1029, 4728, 3998, 5402
11915, 2691, 4093, 3063, 5094
11916, 1058, 4094, 1430, 5093
11917, 3738, 4369, 4979, 5196
11918, 4005, 4836, 2487, 5492
11919, 4004, 4837, 854, 5491
11920, 3384, 2952, 4493, 4765
11921, 76, 1711, 3666, 3707
11922, 3589, 135, 1322, 3607
11923, 2424, 4512, 2134, 4840
11924, 563, 5056, 4072, 5091
11925, 4503, 4167, 4973, 5225
11926, 4130, 4681, 4079, 4854
11927, 282, 1960, 3590, 3600
11928, 1711, 327, 76, 3666
11929, 1320, 3890, 4601, 5139
11930, 2927, 282, 1960, 3590
11931, 3589, 3648, 5078, 5221
11932, 476, 4203, 741, 4869
11933, 2109, 4204, 2374, 4868
11934, 933, 4802, 3840, 5172
11935, 319, 135, 1322, 3589
11936, 3811, 4382, 4247, 5308
11937, 3048, 3910, 5342, 5355
11938, 1415, 3909, 5343, 5354
11939, 2946, 4843, 4032, 5080
11940, 553, 554, 555, 5497
11941, 2186, 2187, 2188, 5496
11942, 3695, 1705, 3673, 4369
11943, 416, 1594, 412, 4934
11944, 3860, 4520, 831, 4930
11945, 3859, 4521, 2464, 4931
11946, 2676, 4778, 3964, 4882
11947, 4231, 3943, 4887, 5477
11948, 4230, 3944, 4886, 5476
11949, 3837, 4234, 4884, 5475
11950, 3959, 5141, 4237, 5213
11951, 2486, 4065, 4836, 5266
11952, 853, 4067, 4837, 5267
11953, 4128, 4481, 1141, 5125
11954, 3827, 5178, 1674, 5263
11955, 3770, 4406, 4151, 4880
11956, 3771, 4407, 4150, 4881
11957, 4249, 5058, 3799, 5081
11958, 2143, 4945, 3944, 5188
11959, 510, 4946, 3943, 5187
11960, 2692, 3010, 4083, 5356
11961, 323, 1705, 3695, 4369
11962, 2623, 4392, 3879, 5327
11963, 3694, 3719, 314, 4400
11964, 2539, 4803, 2753, 5137
11965, 548, 4647, 3799, 5287
11966, 911, 4060, 4520, 5459
11967, 2706, 4387, 3986, 5502
11968, 1354, 4398, 5265, 5447
11969, 2198, 4476, 3868, 5278
11970, 1342, 4082, 1343, 4460
11971, 2043, 3767, 4434, 5322
11972, 715, 1608, 1529, 4707
11973, 1042, 4678, 4009, 5179
11974, 3901, 4988, 4155, 5135
11975, 905, 4220, 1104, 4737
11976, 660, 4465, 3758, 5488
11977, 4001, 4413, 646, 5346
11978, 4000, 4414, 2279, 5345
11979, 1652, 4284, 1267, 4748
11980, 3285, 4283, 2900, 4749
11981, 641, 3796, 4535, 4866
11982, 3894, 4286, 5021, 5521
11983, 3895, 4285, 5020, 5522
11984, 2398, 4281, 2354, 5467
11985, 765, 4282, 721, 5466
11986, 3910, 5135, 4155, 5355
11987, 386, 4777, 3924, 5145
11988, 2019, 4776, 3923, 5144
11989, 3953, 5110, 4169, 5399
11990, 3828, 5253, 3307, 5301
11991, 2774, 4129, 4496, 5121
11992, 2427, 3934, 4796, 5366
11993, 3423, 2815, 4731, 5176
11994, 2348, 4252, 3162, 4712
11995, 1424, 4402, 872, 5421
11996, 4029, 1306, 4636, 5468
11997, 1700, 327, 4135, 5134
11998, 1568, 5097, 3900, 5197
11999, 2965, 2392, 2582, 4865
12000, 4510, 4972, 4049, 5067
12001, 3814, 4972, 4510, 5067
12002, 2112, 3091, 4134, 5191
12003, 2143, 2144, 2142, 5188
12004, 511, 509, 510, 5187
12005, 1332, 759, 949, 4864
12006, 1246, 4774, 3887, 5503
12007, 1899, 4398, 1836, 4804
12008, 4399, 4739, 3792, 5520
12009, 1183, 4008, 4839, 5459
12010, 876, 4763, 3926, 5234
12011, 3077, 4616, 3818, 4901
12012, 447, 3858, 4546, 4888
12013, 3857, 4545, 2080, 4889
12014, 3831, 4561, 623, 4884
12015, 3112, 3856, 4553, 4885
12016, 3774, 4526, 1460, 4897
12017, 3325, 4599, 3849, 4900
12018, 2146, 4582, 3921, 4886
12019, 513, 4581, 3922, 4887
12020, 3808, 4463, 2203, 5182
12021, 2321, 4597, 3782, 4899
12022, 2215, 3831, 4556, 4896
12023, 1012, 4573, 3848, 4898
12024, 3864, 4567, 2926, 4895
12025, 1293, 3863, 4568, 4894
12026, 2096, 3866, 4565, 4893
12027, 463, 3865, 4566, 4892
12028, 3308, 3919, 4598, 4890
12029, 610, 4612, 3760, 4903
12030, 1233, 4613, 3954, 4911
12031, 2866, 4614, 3955, 4912
12032, 1485, 4621, 3981, 4906
12033, 2839, 3981, 4624, 4904
12034, 1561, 3974, 4625, 4905
12035, 1694, 1143, 1696, 4126
12036, 3327, 2776, 3329, 4127
12037, 2993, 4682, 3961, 4920
12038, 2695, 4483, 3966, 5222
12039, 2667, 2665, 2666, 4272
12040, 1032, 1033, 1034, 4273
12041, 632, 5206, 4247, 5308
12042, 2744, 3196, 4094, 5345
12043, 1111, 1563, 4093, 5346
12044, 2863, 4183, 3435, 5372
12045, 4229, 4392, 3879, 5201
12046, 4097, 4650, 4027, 4877
12047, 2154, 3800, 4485, 4965
12048, 521, 3801, 4486, 4966
12049, 2367, 4685, 4056, 4980
12050, 734, 4686, 4057, 4981
12051, 3684, 3732, 3730, 4482
12052, 4167, 5225, 3116, 5314
12053, 4007, 5083, 1356, 5296
12054, 2572, 4027, 4705, 5057
12055, 4002, 4675, 3238, 5181
12056, 1120, 906, 4806, 5133
12057, 979, 1638, 978, 4960
12058, 4302, 4410, 3798, 5309
12059, 3967, 4391, 4839, 5305
12060, 3372, 4490, 4025, 5446
12061, 1966, 2767, 2768, 4278
12062, 4089, 4517, 4028, 4871
12063, 1895, 1871, 4451, 5216
12064, 1230, 4182, 1802, 5337
12065, 326, 1757, 1115, 4320
12066, 3390, 2748, 1959, 4321
12067, 2705, 2475, 2706, 4387
12068, 3773, 4844, 2494, 5147
12069, 861, 3772, 4845, 5146
12070, 939, 4028, 4690, 5055
12071, 4092, 915, 4786, 5379
12072, 2247, 4635, 3974, 4775
12073, 295, 2938, 3581, 4393
12074, 773, 1667, 1379, 4922
12075, 3012, 2406, 3300, 4923
12076, 3370, 4017, 5273, 5500
12077, 3621, 3615, 294, 1955
12078, 1956, 221, 3710, 3704
12079, 2988, 4745, 3940, 5090
12080, 944, 3806, 4457, 5353
12081, 2942, 294, 3615, 1955
12082, 221, 1956, 3338, 3704
12083, 1985, 3343, 4682, 4852
12084, 3221, 5071, 3759, 5207
12085, 2897, 5072, 3984, 5211
12086, 1591, 5073, 3984, 5212
12087, 2777, 4492, 3985, 5075
12088, 3775, 4525, 3093, 5048
12089, 4233, 4404, 3872, 5483
12090, 1304, 4132, 1297, 5411
12091, 1166, 1167, 1168, 4426
12092, 1608, 762, 897, 5512
12093, 4219, 4487, 5046, 5398
12094, 2800, 2801, 2799, 4427
12095, 931, 5107, 1349, 5269
12096, 2564, 5108, 2982, 5268
12097, 3153, 4849, 3898, 5204
12098, 3901, 5042, 3201, 5135
12099, 879, 4850, 3977, 5209
12100, 2512, 4851, 3976, 5210
12101, 1287, 4704, 3907, 5348
12102, 2920, 4703, 3906, 5347
12103, 3017, 4640, 4024, 5168
12104, 3891, 4592, 2807, 5259
12105, 1354, 5265, 4140, 5447
12106, 2061, 5109, 3948, 5255
12107, 3860, 4705, 2574, 5142
12108, 1384, 4639, 4023, 5171
12109, 2881, 3896, 4921, 5138
12110, 2925, 4895, 3877, 5514
12111, 448, 4888, 3829, 5515
12112, 2081, 4889, 3830, 5516
12113, 3833, 4899, 2331, 5518
12114, 895, 3929, 4898, 5141
12115, 4095, 4448, 2759, 4916
12116, 3957, 5213, 1689, 5250
12117, 4103, 3933, 4519, 5358
12118, 3859, 4690, 941, 5140
12119, 3900, 4723, 2588, 5157
12120, 3901, 4722, 955, 5156
12121, 1487, 3919, 4716, 5160
12122, 1023, 4721, 3953, 5161
12123, 3925, 4379, 4229, 5238
12124, 4239, 4382, 3920, 5239
12125, 4236, 4384, 3960, 5242
12126, 4230, 4386, 3913, 5240
12127, 4231, 4385, 3914, 5241
12128, 4195, 4292, 3909, 4907
12129, 4194, 4291, 3910, 4908
12130, 3867, 4477, 4977, 5164
12131, 4199, 4309, 3968, 4909
12132, 2390, 4747, 3982, 5111
12133, 2312, 3795, 4815, 5483
12134, 3172, 4492, 4039, 5401
12135, 1539, 4491, 4040, 5402
12136, 1400, 419, 4184, 4876
12137, 2945, 3586, 1948, 5080
12138, 3989, 4625, 1079, 5214
12139, 1730, 4805, 4025, 5078
12140, 4297, 4577, 3863, 4894
12141, 4298, 4578, 3864, 4895
12142, 613, 3979, 4608, 5272
12143, 3952, 4404, 4233, 5474
12144, 988, 4842, 3807, 5095
12145, 4126, 5298, 4260, 5362
12146, 4127, 5299, 4259, 5363
12147, 3296, 5047, 3873, 5320
12148, 4168, 4468, 3878, 4698
12149, 3849, 4645, 2645, 5495
12150, 1422, 4763, 877, 5419
12151, 4175, 4695, 3904, 4702
12152, 2526, 4664, 3899, 5200
12153, 3811, 4647, 574, 5206
12154, 3788, 4644, 488, 5202
12155, 3787, 4643, 2121, 5203
12156, 2528, 4645, 3933, 5205
12157, 1588, 4649, 3758, 5208
12158, 1584, 4588, 3872, 5050
12159, 3800, 4526, 440, 5052
12160, 3801, 4525, 2073, 5051
12161, 1726, 4053, 4759, 5507
12162, 942, 4517, 4059, 4690
12163, 838, 4391, 839, 4733
12164, 973, 4655, 4017, 4878
12165, 4366, 4627, 4002, 4675
12166, 1879, 1905, 1823, 4275
12167, 4257, 4334, 3878, 4698
12168, 826, 4137, 749, 5275
12169, 811, 3869, 4700, 5256
12170, 3029, 3908, 4702, 5257
12171, 2459, 4138, 2382, 5276
12172, 3316, 4745, 3936, 4873
12173, 1037, 4759, 3964, 5507
12174, 1335, 5112, 4052, 5251
12175, 295, 3581, 3621, 4393
12176, 2681, 4681, 4108, 5137
12177, 731, 4005, 5283, 5329
12178, 2364, 4004, 5282, 5328
12179, 1113, 4078, 1762, 5501
12180, 1733, 1346, 1732, 5233
12181, 1090, 4748, 3821, 5397
12182, 3799, 4498, 537, 5287
12183, 873, 4026, 4507, 5383
12184, 2964, 3873, 4473, 5320
12185, 1851, 1820, 316, 4757
12186, 3453, 1949, 3480, 4758
12187, 2447, 4829, 3874, 4950
12188, 814, 4828, 3873, 4949
12189, 377, 3955, 4831, 4951
12190, 3356, 2733, 3375, 5389
12191, 1100, 1742, 1723, 5390
12192, 2930, 2133, 2106, 5508
12193, 2575, 4650, 4060, 4705
12194, 3695, 323, 71, 1705
12195, 1114, 4824, 4075, 5324
12196, 3842, 4544, 803, 5288
12197, 3843, 4543, 2436, 5289
12198, 704, 3847, 4719, 5480
12199, 3281, 3758, 4944, 5036
12200, 3759, 4943, 1648, 5037
12201, 2254, 4527, 3783, 5028
12202, 621, 4528, 3784, 5029
12203, 980, 4514, 3789, 4985
12204, 2613, 4513, 3790, 4984
12205, 4010, 4649, 4178, 5193
12206, 3337, 4263, 1956, 5455
12207, 3980, 3064, 4622, 5404
12208, 3262, 3841, 4549, 5403
12209, 705, 4558, 3818, 5026
12210, 600, 3812, 4576, 5025
12211, 2716, 4585, 3804, 5008
12212, 1083, 4584, 3803, 5009
12213, 3797, 4535, 577, 5006
12214, 2036, 4590, 3770, 5011
12215, 403, 4591, 3771, 5012
12216, 2162, 3824, 4557, 5007
12217, 2291, 4575, 3817, 5023
12218, 2135, 4551, 3803, 4996
12219, 502, 4550, 3804, 4997
12220, 658, 4574, 3816, 5024
12221, 3837, 4561, 583, 5002
12222, 3854, 4560, 1486, 4998
12223, 3855, 4559, 3119, 4999
12224, 1276, 3857, 4587, 5000
12225, 2909, 3858, 4586, 5001
12226, 1392, 4610, 3785, 5005
12227, 1560, 3798, 4538, 5010
12228, 735, 4533, 3777, 5015
12229, 2368, 4534, 3776, 5016
12230, 540, 4531, 3776, 5017
12231, 2173, 4532, 3777, 5018
12232, 3824, 4583, 1001, 5013
12233, 1611, 4580, 3849, 5014
12234, 1531, 4603, 3921, 5020
12235, 3164, 4604, 3922, 5021
12236, 1515, 676, 1672, 4373
12237, 570, 1515, 1671, 4374
12238, 692, 4613, 4000, 5003
12239, 2325, 4614, 4001, 5004
12240, 2334, 3822, 4552, 5022
12241, 3838, 4663, 2380, 5475
12242, 2086, 3854, 4662, 5470
12243, 2091, 3865, 4661, 5471
12244, 2127, 4643, 3803, 5473
12245, 494, 4644, 3804, 5472
12246, 2092, 4661, 3866, 5479
12247, 3247, 4511, 3862, 5461
12248, 3786, 4589, 2579, 4955
12249, 3673, 3695, 71, 1705
12250, 3301, 4484, 3872, 4815
12251, 2503, 4638, 3988, 5027
12252, 3970, 4927, 708, 5490
12253, 3874, 4474, 1331, 5340
12254, 3767, 4292, 4195, 4907
12255, 3768, 4291, 4194, 4908
12256, 3967, 4309, 4199, 4909
12257, 3758, 4727, 2629, 5019
12258, 3925, 4740, 1178, 4814
12259, 2011, 4685, 3954, 4995
12260, 1681, 4791, 3786, 5463
12261, 2201, 4746, 3938, 5405
12262, 3809, 4835, 605, 5365
12263, 3983, 4726, 709, 5490
12264, 3277, 4795, 3845, 5486
12265, 3229, 3929, 4793, 5487
12266, 3340, 4795, 3961, 5485
12267, 2587, 2561, 4411, 4723
12268, 3297, 4412, 2078, 4724
12269, 1686, 4523, 3782, 5463
12270, 809, 4166, 813, 5173
12271, 3280, 5046, 4120, 5258
12272, 3176, 4657, 4029, 4879
12273, 2802, 2803, 3416, 5132
12274, 2058, 4308, 2056, 5378
12275, 3841, 4579, 703, 5480
12276, 2138, 4551, 3784, 5473
12277, 505, 4550, 3783, 5472
12278, 3251, 4594, 3793, 5474
12279, 3195, 3837, 4569, 5475
12280, 2693, 4604, 3943, 5477
12281, 3944, 1060, 4603, 5476
12282, 2089, 3865, 4554, 5470
12283, 2110, 3892, 4570, 5471
12284, 1381, 4619, 3980, 5481
12285, 3851, 4660, 3185, 5487
12286, 2455, 4663, 3932, 5486
12287, 2628, 4646, 3845, 5485
12288, 4061, 5319, 844, 5421
12289, 2274, 3796, 4516, 5422
12290, 1124, 4959, 4071, 5300
12291, 1780, 3531, 3458, 5318
12292, 2504, 4638, 4020, 5030
12293, 1666, 1655, 4327, 5238
12294, 1586, 1087, 4329, 5241
12295, 2720, 4330, 3219, 5240
12296, 2608, 4657, 4011, 5031
12297, 3797, 4539, 3076, 5422
12298, 3697, 3685, 212, 2916
12299, 2469, 4668, 3980, 5425
12300, 2174, 4599, 3781, 5443
12301, 541, 4600, 3782, 5444
12302, 3062, 4575, 3930, 5439
12303, 1429, 4574, 3931, 5440
12304, 467, 3864, 4578, 5431
12305, 2100, 3863, 4577, 5430
12306, 3866, 4571, 460, 5427
12307, 3865, 4570, 2093, 5426
12308, 452, 3855, 4555, 5429
12309, 2085, 3854, 4554, 5428
12310, 1402, 3802, 4538, 5437
12311, 3802, 4539, 2211, 5432
12312, 3823, 4583, 1623, 5438
12313, 2179, 3798, 4536, 5435
12314, 3815, 4542, 579, 5434
12315, 3819, 4556, 2214, 5436
12316, 3215, 3823, 4537, 5433
12317, 637, 4533, 3779, 5442
12318, 2270, 4534, 3778, 5441
12319, 1236, 5357, 1238, 5498
12320, 2212, 3819, 4537, 5432
12321, 2165, 3823, 4557, 5435
12322, 3819, 4542, 580, 5437
12323, 1622, 3831, 4541, 5434
12324, 2256, 3837, 4549, 5436
12325, 3829, 4546, 449, 5429
12326, 2082, 3830, 4545, 5428
12327, 3841, 4553, 3113, 5433
12328, 1407, 3841, 4564, 5438
12329, 3852, 4562, 2099, 5430
12330, 466, 3853, 4563, 5431
12331, 3852, 4555, 1428, 5427
12332, 3061, 3853, 4554, 5426
12333, 3802, 4537, 2180, 5435
12334, 3255, 3819, 4549, 5433
12335, 2213, 3815, 4556, 5432
12336, 581, 3819, 4561, 5434
12337, 2216, 3831, 4569, 5436
12338, 3823, 4564, 634, 5437
12339, 3149, 3853, 4543, 5428
12340, 1516, 3852, 4544, 5429
12341, 3856, 4579, 1592, 5438
12342, 3877, 4567, 2599, 5426
12343, 966, 3876, 4568, 5427
12344, 2098, 3876, 4565, 5430
12345, 3877, 4566, 465, 5431
12346, 3046, 4551, 3779, 5439
12347, 1413, 4550, 3778, 5440
12348, 3045, 4622, 3784, 5439
12349, 1412, 4623, 3783, 5440
12350, 2016, 4522, 3765, 5443
12351, 383, 4523, 3766, 5444
12352, 2259, 4527, 3931, 5441
12353, 626, 4528, 3930, 5442
12354, 2262, 4628, 3816, 5441
12355, 629, 4629, 3817, 5442
12356, 381, 4632, 3833, 5444
12357, 3832, 2014, 4633, 5443
12358, 898, 4680, 3994, 5045
12359, 2531, 4679, 3995, 5044
12360, 3311, 5092, 3939, 5508
12361, 1095, 4792, 3881, 5463
12362, 2407, 3916, 4695, 5347
12363, 774, 3915, 4694, 5348
12364, 3106, 4622, 3930, 5425
12365, 2064, 4745, 3089, 5255
12366, 2425, 3797, 4516, 5413
12367, 2457, 4677, 3994, 5040
12368, 824, 4678, 3995, 5041
12369, 4152, 4740, 4045, 5419
12370, 2210, 3802, 4536, 5422
12371, 3011, 4641, 3971, 5122
12372, 2605, 4656, 3915, 4925
12373, 972, 4655, 3916, 4926
12374, 2670, 4760, 3965, 5448
12375, 4323, 4381, 3911, 4706
12376, 3225, 4696, 3844, 4773
12377, 2886, 3827, 4589, 5385
12378, 1955, 2938, 295, 4393
12379, 1555, 4797, 3990, 5330
12380, 3188, 4798, 3991, 5331
12381, 3166, 4785, 4008, 4820
12382, 1533, 4787, 4007, 4819
12383, 3986, 4625, 1488, 5383
12384, 3969, 5111, 4171, 5245
12385, 4171, 5111, 3982, 5245
12386, 3806, 4687, 2630, 5066
12387, 1801, 1747, 3571, 4259
12388, 3380, 1938, 3434, 4260
12389, 1170, 1783, 1169, 5136
12390, 2420, 4630, 4014, 5425
12391, 769, 5043, 3942, 5462
12392, 1277, 1282, 4983, 5088
12393, 813, 5173, 4166, 5315
12394, 1605, 4993, 4075, 5186
12395, 2587, 3788, 4723, 5406
12396, 3787, 4722, 954, 5408
12397, 2491, 3839, 5185, 5449
12398, 4184, 4876, 419, 5469
12399, 1097, 4652, 4024, 5219
12400, 2730, 4651, 4023, 5220
12401, 4261, 5143, 4778, 5400
12402, 1248, 4774, 3897, 5091
12403, 3837, 4830, 3267, 5403
12404, 3044, 4827, 3784, 5404
12405, 3838, 4713, 2379, 5524
12406, 4517, 4871, 4059, 4931
12407, 530, 515, 1615, 5033
12408, 3248, 2163, 2148, 5034
12409, 2055, 4540, 3791, 5378
12410, 4069, 4391, 4140, 5305
12411, 3068, 4044, 4832, 5277
12412, 3892, 4892, 4570, 5471
12413, 4305, 3791, 4794, 5378
12414, 2105, 2104, 4295, 4821
12415, 4540, 4794, 3791, 5378
12416, 3055, 3937, 5106, 5420
12417, 2109, 2373, 4204, 4868
12418, 740, 4203, 476, 4869
12419, 2646, 4645, 4169, 5399
12420, 3328, 4519, 3933, 5399
12421, 3852, 4568, 1574, 5288
12422, 3207, 3853, 4567, 5289
12423, 794, 3935, 4735, 4739
12424, 1763, 5294, 4070, 5504
12425, 2873, 4626, 3979, 5407
12426, 3805, 4547, 4450, 5499
12427, 2201, 4421, 4746, 5405
12428, 874, 4694, 3905, 4704
12429, 2507, 4695, 3904, 4703
12430, 3955, 4475, 2865, 5511
12431, 3757, 922, 5125, 5387
12432, 3768, 4934, 410, 5321
12433, 409, 4908, 3768, 5321
12434, 2042, 4907, 3767, 5322
12435, 2555, 5121, 3756, 5382
12436, 3989, 4671, 871, 5383
12437, 1431, 4623, 3971, 4846
12438, 2726, 4653, 4010, 5273
12439, 3131, 2012, 2286, 4779
12440, 3720, 4672, 4266, 4920
12441, 3276, 4205, 2727, 5128
12442, 835, 4751, 4013, 5319
12443, 3801, 4548, 1489, 5336
12444, 3780, 4305, 4794, 5378
12445, 1382, 4508, 4963, 5494
12446, 3015, 4509, 4962, 5493
12447, 3774, 4547, 2153, 4965
12448, 3775, 4548, 520, 4966
12449, 3453, 3487, 261, 1949
12450, 1873, 316, 111, 1820
12451, 2733, 4053, 4882, 5389
12452, 424, 4305, 1387, 5099
12453, 3780, 4794, 4540, 5378
12454, 2760, 4453, 4068, 5317
12455, 1127, 4452, 4066, 5316
12456, 4379, 4399, 3794, 5453
12457, 2465, 3021, 2997, 4808
12458, 1388, 1364, 832, 4807
12459, 1086, 4210, 1607, 4994
12460, 3351, 3377, 2733, 5389
12461, 1718, 1744, 1100, 5390
12462, 4425, 4707, 4121, 5164
12463, 4664, 5153, 4237, 5200
12464, 3299, 2811, 3053, 4404
12465, 1981, 3623, 2945, 5080
12466, 1322, 319, 5078, 5221
12467, 2542, 4021, 4670, 5492
12468, 909, 4022, 4669, 5491
12469, 4048, 4510, 3814, 4972
12470, 1736, 4680, 4031, 5039
12471, 3919, 5139, 4165, 5160
12472, 3768, 4934, 4345, 5367
12473, 762, 5381, 897, 5512
12474, 492, 4073, 4399, 4739
12475, 529, 1544, 533, 4433
12476, 2637, 5086, 3305, 5314
12477, 3821, 4394, 4188, 5393
12478, 3883, 4577, 4297, 4894
12479, 3882, 4578, 4298, 4895
12480, 1307, 4857, 4029, 5388
12481, 435, 649, 4280, 5074
12482, 1955, 295, 3621, 4393
12483, 1739, 4665, 4006, 5468
12484, 3913, 4230, 4886, 5476
12485, 3914, 4231, 4887, 5477
12486, 4234, 3838, 4884, 5475
12487, 3942, 5043, 4218, 5462
12488, 2539, 4108, 5338, 5465
12489, 905, 904, 1104, 4220
12490, 3942, 5043, 4383, 5295
12491, 1247, 937, 4461, 5503
12492, 4084, 5259, 4203, 5451
12493, 3900, 5197, 4258, 5262
12494, 4039, 4272, 4176, 5360
12495, 4040, 4273, 4177, 5359
12496, 2955, 4143, 3363, 5131
12497, 3649, 3646, 3596, 4636
12498, 1373, 4149, 1404, 5336
12499, 4084, 4870, 3143, 5175
12500, 4062, 4397, 4390, 4807
12501, 4063, 4396, 4389, 4808
12502, 3368, 4679, 4017, 5500
12503, 2198, 2222, 2221, 5278
12504, 3792, 5201, 4304, 5406
12505, 3704, 3742, 3710, 4852
12506, 480, 1398, 482, 4258
12507, 528, 529, 533, 4257
12508, 2157, 2158, 2156, 4256
12509, 2673, 4677, 4031, 5035
12510, 4158, 4466, 3836, 4822
12511, 3835, 4157, 4467, 4823
12512, 4133, 5099, 3926, 5109
12513, 3948, 5099, 4133, 5109
12514, 4048, 4972, 3814, 5068
12515, 4107, 4438, 4036, 5155
12516, 4238, 4646, 3899, 5200
12517, 3927, 4370, 4153, 4470
12518, 3928, 4371, 4154, 4469
12519, 2549, 4790, 4037, 5409
12520, 654, 1432, 4150, 5367
12521, 3254, 4212, 3144, 4855
12522, 1621, 4213, 1511, 4856
12523, 4125, 4853, 663, 5272
12524, 3138, 4212, 3144, 5373
12525, 1506, 4213, 1511, 5374
12526, 3057, 4092, 5243, 5414
12527, 2718, 4152, 4697, 5384
12528, 4517, 4871, 4089, 5120
12529, 2727, 4205, 2633, 5128
12530, 3565, 3531, 5300, 5318
12531, 1329, 1328, 317, 4459
12532, 4424, 4122, 5248, 5278
12533, 4088, 4505, 913, 5195
12534, 1510, 1245, 770, 5452
12535, 770, 563, 569, 5452
12536, 2250, 2248, 2249, 5454
12537, 4087, 4506, 2546, 5194
12538, 952, 4440, 4055, 4750
12539, 3744, 3689, 3729, 4480
12540, 2419, 5338, 4630, 5465
12541, 3331, 2698, 3344, 5075
12542, 3222, 4796, 4173, 5407
12543, 4122, 4712, 3763, 4865
12544, 2756, 2755, 3398, 4189
12545, 1765, 1123, 1122, 4190
12546, 1422, 429, 877, 4763
12547, 954, 4722, 4431, 5408
12548, 215, 1980, 3686, 4968
12549, 4164, 4701, 3904, 4703
12550, 3452, 3545, 3569, 4752
12551, 363, 4398, 1816, 5265
12552, 3163, 2989, 2260, 4421
12553, 747, 822, 994, 4234
12554, 458, 459, 1593, 4224
12555, 453, 1433, 457, 4223
12556, 3173, 2161, 2313, 4232
12557, 1546, 1434, 967, 4225
12558, 743, 1394, 745, 4228
12559, 819, 820, 993, 4227
12560, 441, 439, 443, 4235
12561, 857, 878, 668, 4233
12562, 890, 891, 1687, 4237
12563, 2724, 4262, 2518, 4972
12564, 3128, 2340, 2396, 4245
12565, 763, 1495, 707, 4246
12566, 1914, 1936, 1819, 4753
12567, 1571, 1205, 624, 4248
12568, 2133, 4918, 4148, 5508
12569, 2238, 2236, 2239, 4249
12570, 1288, 4163, 1291, 5101
12571, 2921, 4164, 2924, 5100
12572, 2612, 3271, 2611, 4251
12573, 1713, 1715, 1271, 4187
12574, 3348, 2904, 3346, 4186
12575, 4133, 3936, 4873, 5419
12576, 2349, 2414, 3205, 4250
12577, 414, 417, 415, 4743
12578, 2516, 3286, 2725, 4242
12579, 1653, 1092, 883, 4243
12580, 4187, 4354, 4099, 5235
12581, 4186, 4355, 4100, 5236
12582, 1985, 4682, 2993, 4920
12583, 3356, 4778, 4053, 5143
12584, 1796, 3502, 3457, 4954
12585, 4650, 4877, 4060, 4930
12586, 3748, 4126, 3728, 5377
12587, 3747, 4127, 3727, 5376
12588, 2820, 2518, 4262, 4972
12589, 1296, 1530, 627, 5296
12590, 1046, 1649, 1647, 4261
12591, 3418, 2830, 1994, 4916
12592, 2460, 2382, 2459, 4860
12593, 4763, 4814, 4045, 5234
12594, 749, 826, 827, 4861
12595, 2820, 2724, 2518, 4972
12596, 3615, 3584, 293, 2942
12597, 4047, 442, 4876, 5469
12598, 214, 3686, 1980, 4979
12599, 1491, 4073, 4735, 5264
12600, 820, 993, 4227, 5114
12601, 1571, 4248, 624, 5115
12602, 4289, 4588, 3808, 4815
12603, 3205, 2349, 4250, 5116
12604, 1091, 4510, 4048, 5397
12605, 3402, 4095, 4804, 5396
12606, 3906, 4326, 4703, 4717
12607, 4325, 4704, 3907, 4718
12608, 2818, 4756, 4483, 5335
12609, 3135, 2624, 4747, 5291
12610, 1092, 4243, 1653, 5117
12611, 3065, 4151, 2287, 5364
12612, 1479, 992, 4322, 5224
12613, 2466, 4617, 2996, 5266
12614, 833, 4618, 1363, 5267
12615, 3759, 4991, 4464, 5037
12616, 4341, 4811, 4054, 5390
12617, 3514, 247, 3101, 3451
12618, 1719, 3606, 3635, 4420
12619, 2369, 4844, 4179, 5147
12620, 736, 4845, 4180, 5146
12621, 4349, 5028, 4846, 5454
12622, 1103, 4877, 4124, 5306
12623, 4459, 4709, 4708, 5409
12624, 4107, 4387, 4003, 5361
12625, 832, 767, 4397, 4618
12626, 2465, 2400, 4396, 4617
12627, 736, 5146, 4180, 5283
12628, 2369, 5147, 4179, 5282
12629, 2975, 4683, 4110, 5270
12630, 642, 4866, 4044, 5344
12631, 4439, 4775, 4074, 5454
12632, 1294, 328, 1728, 4872
12633, 2066, 2063, 4146, 5371
12634, 3863, 4461, 4295, 5503
12635, 1005, 5173, 813, 5315
12636, 3867, 4477, 4917, 5064
12637, 3868, 4476, 4918, 5063
12638, 3596, 4636, 3646, 5131
12639, 3727, 3747, 3664, 4127
12640, 3728, 3748, 3665, 4126
12641, 2238, 2236, 4249, 5058
12642, 4247, 5073, 3984, 5206
12643, 4047, 4435, 479, 5469
12644, 2942, 3584, 293, 1981
12645, 4411, 4723, 3788, 5406
12646, 1754, 317, 1507, 4398
12647, 2990, 3313, 3315, 5335
12648, 4126, 5149, 4491, 5162
12649, 4127, 5148, 4492, 5163
12650, 4069, 4767, 1181, 5459
12651, 2779, 4274, 1984, 5254
12652, 2637, 2451, 2995, 5086
12653, 3320, 3322, 4277, 5196
12654, 4176, 4992, 3985, 5163
12655, 3703, 4480, 3744, 5134
12656, 490, 4739, 491, 5520
12657, 1816, 1507, 1931, 4398
12658, 3353, 4215, 3352, 5509
12659, 3707, 3729, 3731, 4395
12660, 2945, 3586, 291, 1948
12661, 2992, 1947, 218, 3675
12662, 928, 4431, 954, 4722
12663, 4427, 5132, 2804, 5168
12664, 904, 905, 781, 4366
12665, 3795, 4588, 4289, 4815
12666, 438, 1406, 1282, 4983
12667, 1405, 1277, 1282, 4983
12668, 1171, 4426, 5136, 5171
12669, 1642, 4943, 4159, 5037
12670, 3275, 4944, 4160, 5036
12671, 3956, 4435, 4308, 5234
12672, 1164, 4389, 3753, 4757
12673, 2797, 4390, 3754, 4758
12674, 2253, 4349, 2250, 5454
12675, 3007, 2548, 4359, 4958
12676, 4491, 5149, 4040, 5162
12677, 4492, 5148, 4039, 5163
12678, 2987, 2550, 2729, 4144
12679, 1299, 131, 3595, 4872
12680, 4665, 4879, 4006, 5468
12681, 2204, 2201, 4421, 4746
12682, 4650, 4877, 4097, 5130
12683, 4150, 4345, 3768, 4936
12684, 2584, 4101, 5049, 5416
12685, 3888, 5108, 4346, 5268
12686, 3889, 5107, 4347, 5269
12687, 4049, 4510, 1187, 5418
12688, 1877, 1836, 3108, 4804
12689, 4097, 4451, 4098, 5216
12690, 3986, 4248, 4905, 5502
12691, 4082, 4365, 4096, 4867
12692, 2428, 2300, 3097, 4825
12693, 3097, 2296, 3110, 4825
12694, 1100, 4054, 4811, 5390
12695, 3104, 2444, 2440, 4986
12696, 2122, 2426, 3159, 4988
12697, 489, 793, 1526, 4987
12698, 1279, 815, 1427, 4990
12699, 2448, 3060, 2912, 4989
12700, 2722, 2218, 3200, 4991
12701, 375, 374, 373, 4992
12702, 2567, 4924, 2812, 5420
12703, 4134, 4211, 5102, 5191
12704, 777, 4447, 1336, 5352
12705, 4060, 4767, 4448, 4820
12706, 2567, 2812, 2810, 5420
12707, 2810, 2510, 2594, 5420
12708, 877, 961, 1177, 5419
12709, 1133, 1374, 4959, 5379
12710, 338, 78, 3692, 4970
12711, 2632, 2520, 2631, 5413
12712, 318, 3478, 3462, 4938
12713, 1828, 1951, 1847, 4940
12714, 2132, 2170, 3146, 5417
12715, 4020, 5243, 4638, 5450
12716, 4089, 4765, 4028, 4961
12717, 4112, 4871, 4517, 5120
12718, 442, 419, 4876, 5469
12719, 1459, 1081, 1387, 5415
12720, 2125, 2124, 2123, 5366
12721, 4006, 4715, 4428, 4975
12722, 4202, 4508, 3773, 5323
12723, 4089, 4493, 4090, 5215
12724, 3710, 4263, 3737, 5455
12725, 4171, 4976, 3969, 5245
12726, 3579, 4872, 3644, 5143
12727, 1341, 4429, 1345, 4818
12728, 2563, 4197, 3257, 5449
12729, 2348, 3241, 3162, 4252
12730, 2360, 4458, 4052, 4755
12731, 607, 609, 608, 4835
12732, 391, 5052, 4119, 5178
12733, 1615, 5107, 4117, 5247
12734, 3248, 5108, 4116, 5246
12735, 2777, 1971, 4492, 5075
12736, 920, 1074, 1124, 4255
12737, 3546, 4493, 3503, 5215
12738, 4268, 4343, 4086, 5084
12739, 4267, 4344, 4085, 5085
12740, 542, 567, 548, 5287
12741, 3316, 3089, 4745, 4873
12742, 2425, 5066, 2520, 5413
12743, 2404, 2298, 2405, 4953
12744, 3230, 2405, 2617, 4953
12745, 4097, 4761, 4027, 4952
12746, 4278, 4959, 4092, 5318
12747, 3202, 2239, 2236, 5290
12748, 3101, 2961, 2960, 4365
12749, 4487, 4927, 3970, 5490
12750, 3983, 4927, 4487, 5490
12751, 4017, 4878, 4653, 5273
12752, 1991, 2758, 2767, 4847
12753, 3698, 215, 3686, 4968
12754, 665, 664, 604, 4352
12755, 2829, 2860, 4448, 4650
12756, 4075, 4993, 4250, 5186
12757, 3611, 4801, 3638, 5395
12758, 3603, 4800, 3639, 5394
12759, 1085, 1607, 4210, 4994
12760, 4078, 4817, 1049, 5155
12761, 4065, 4673, 2541, 5492
12762, 4067, 4674, 908, 5491
12763, 4005, 5190, 4065, 5492
12764, 4004, 5189, 4067, 5491
12765, 3966, 5083, 4270, 5352
12766, 1254, 1579, 1347, 4201
12767, 3212, 2980, 2887, 4202
12768, 4012, 4747, 4261, 4932
12769, 216, 3698, 3693, 3324
12770, 3324, 3693, 216, 3036
12771, 3693, 1947, 217, 3036
12772, 4111, 4874, 4036, 5129
12773, 4391, 4069, 4839, 5305
12774, 795, 856, 855, 5408
12775, 1506, 4051, 4856, 5374
12776, 3138, 4050, 4855, 5373
12777, 2489, 2488, 2428, 5406
12778, 2119, 5203, 3041, 5366
12779, 3867, 4917, 4688, 5064
12780, 3868, 4918, 4689, 5063
12781, 2353, 2339, 2366, 4253
12782, 720, 706, 733, 4254
12783, 4570, 4892, 3892, 5514
12784, 2584, 4214, 2586, 5416
12785, 3850, 4900, 4580, 5517
12786, 2759, 4448, 4095, 5396
12787, 4192, 4842, 1603, 5095
12788, 3163, 2260, 2929, 5405
12789, 2736, 4112, 3347, 4871
12790, 1054, 4091, 4818, 5297
12791, 1544, 4433, 1582, 4541
12792, 3492, 3557, 3459, 4356
12793, 4047, 4518, 2402, 5237
12794, 3957, 4682, 4238, 5200
12795, 4261, 4747, 4131, 4932
12796, 2425, 4516, 2519, 5066
12797, 2700, 4513, 2433, 5068
12798, 1067, 4514, 800, 5067
12799, 3759, 4726, 4991, 5037
12800, 3938, 4746, 4421, 5405
12801, 1007, 4284, 1660, 5499
12802, 2756, 4189, 3398, 5279
12803, 1123, 4190, 1765, 5280
12804, 4005, 4788, 4065, 5190
12805, 4004, 4789, 4067, 5189
12806, 2024, 5051, 4118, 5253
12807, 1988, 3514, 3101, 4365
12808, 3850, 4380, 4323, 4706
12809, 3565, 5300, 4278, 5318
12810, 345, 1283, 1685, 4969
12811, 3138, 4855, 4212, 5373
12812, 1506, 4856, 4213, 5374
12813, 2757, 3007, 4403, 4958
12814, 1098, 914, 4861, 5104
12815, 2731, 2547, 4860, 5105
12816, 1824, 1921, 1855, 4357
12817, 2692, 4214, 2586, 5049
12818, 4350, 4810, 4160, 5118
12819, 4351, 4809, 4159, 5119
12820, 2835, 4515, 4045, 4915
12821, 2699, 4513, 4048, 4914
12822, 1066, 4514, 4049, 4913
12823, 1980, 215, 3324, 4968
12824, 2718, 3240, 4152, 5384
12825, 334, 1446, 1211, 4699
12826, 3926, 5234, 4308, 5415
12827, 1122, 1753, 331, 4042
12828, 3386, 1964, 2755, 4041
12829, 4115, 5050, 772, 5281
12830, 1065, 1711, 1698, 4970
12831, 3586, 2945, 3623, 5080
12832, 1177, 4045, 4740, 5419
12833, 4124, 4877, 4650, 5130
12834, 4123, 4270, 3764, 5335
12835, 3305, 5086, 4167, 5314
12836, 62, 3678, 320, 4969
12837, 3787, 4431, 4722, 5408
12838, 470, 474, 472, 4858
12839, 2103, 2107, 2105, 4859
12840, 470, 468, 1314, 4858
12841, 2101, 2947, 2103, 4859
12842, 2495, 5047, 3296, 5320
12843, 4309, 4558, 3834, 4901
12844, 1247, 4461, 1625, 5503
12845, 214, 1980, 2935, 4979
12846, 2738, 4683, 2977, 5482
12847, 1882, 3382, 188, 1830
12848, 3519, 1749, 40, 3463
12849, 4322, 4380, 3878, 4773
12850, 214, 3708, 3686, 4979
12851, 3420, 4365, 2960, 4867
12852, 3967, 4733, 4391, 4862
12853, 3979, 4608, 4125, 4796
12854, 2757, 4111, 3008, 4958
12855, 4615, 4905, 3973, 5502
12856, 2957, 4437, 2962, 4910
12857, 4301, 3798, 4410, 5309
12858, 2563, 3257, 2491, 5449
12859, 1575, 1557, 4932, 5245
12860, 4005, 4065, 4836, 5492
12861, 4004, 4067, 4837, 5491
12862, 2252, 2250, 2253, 4349
12863, 2250, 2251, 2248, 4349
12864, 4173, 4608, 4902, 5407
12865, 3465, 337, 4267, 5062
12866, 1831, 1970, 4268, 5061
12867, 1911, 4451, 1871, 5216
12868, 1197, 1227, 361, 5445
12869, 640, 1472, 4866, 5353
12870, 1310, 4139, 348, 5458
12871, 4196, 4348, 3862, 5065
12872, 3820, 4749, 4913, 5418
12873, 4505, 4860, 3756, 5195
12874, 2961, 4365, 3101, 4772
12875, 2288, 2410, 2969, 4862
12876, 2970, 2969, 2535, 4862
12877, 4506, 4861, 3757, 5194
12878, 3968, 4558, 4309, 4901
12879, 864, 935, 865, 4457
12880, 4746, 4929, 3938, 5341
12881, 640, 1373, 1472, 5353
12882, 2520, 2630, 4687, 5066
12883, 4173, 4796, 4608, 5407
12884, 2836, 4515, 2310, 4873
12885, 1459, 1458, 1081, 4435
12886, 4209, 5176, 2815, 5223
12887, 4065, 4788, 4005, 4836
12888, 4067, 4789, 4004, 4837
12889, 2175, 4338, 2181, 4463
12890, 4270, 4756, 4185, 5335
12891, 3693, 3694, 3675, 4207
12892, 902, 901, 1345, 4447
12893, 4058, 4708, 2971, 4826
12894, 1878, 1907, 1822, 5129
12895, 3002, 4651, 4063, 4833
12896, 3738, 3685, 4369, 5196
12897, 1369, 4652, 4062, 4834
12898, 4301, 5013, 3824, 5054
12899, 844, 5319, 1137, 5421
12900, 4074, 4734, 1080, 5214
12901, 1886, 1843, 198, 3174
12902, 3444, 50, 3520, 1541
12903, 4033, 4760, 4341, 4811
12904, 4729, 4831, 4176, 5511
12905, 1365, 4937, 1750, 4938
12906, 3383, 2998, 4939, 4940
12907, 228, 3700, 1971, 5075
12908, 1855, 185, 1944, 1840
12909, 3459, 37, 311, 3484
12910, 3989, 4734, 4439, 4775
12911, 2980, 2704, 2981, 5385
12912, 4334, 4698, 4257, 5170
12913, 2421, 3144, 3254, 5370
12914, 1621, 788, 1511, 5369
12915, 1948, 3586, 290, 3352
12916, 4229, 4379, 3792, 5238
12917, 3818, 4382, 4239, 5239
12918, 3869, 4384, 4236, 5242
12919, 3776, 4385, 4231, 5241
12920, 3777, 4386, 4230, 5240
12921, 3595, 131, 3602, 4872
12922, 1299, 328, 131, 4872
12923, 2986, 2637, 3305, 5314
12924, 4393, 5078, 3648, 5221
12925, 1337, 1336, 902, 5251
12926, 4024, 5219, 4222, 5506
12927, 4023, 5220, 4221, 5505
12928, 3637, 4801, 3611, 5395
12929, 3636, 4800, 3603, 5394
12930, 4036, 4874, 1759, 5129
12931, 3036, 3326, 2717, 4838
12932, 4247, 4382, 3818, 5308
12933, 3532, 3537, 3465, 5062
12934, 1831, 1902, 1903, 5061
12935, 3937, 4372, 4146, 5106
12936, 4146, 4372, 3948, 5106
12937, 1754, 4398, 1354, 5447
12938, 2114, 2112, 2113, 5295
12939, 3804, 5008, 4241, 5227
12940, 3803, 5009, 4240, 5228
12941, 571, 5056, 568, 5296
12942, 3711, 3732, 3667, 5075
12943, 1227, 4517, 1770, 5120
12944, 1762, 4078, 5155, 5501
12945, 3456, 3517, 257, 1946
12946, 1978, 210, 3702, 2871
12947, 309, 3498, 1796, 4954
12948, 1471, 4161, 992, 5224
12949, 3305, 4167, 2309, 5225
12950, 4466, 4822, 4158, 4942
12951, 4467, 4823, 4157, 4941
12952, 2967, 4309, 2968, 4901
12953, 78, 3669, 3692, 4970
12954, 78, 338, 1698, 4970
12955, 866, 5055, 4122, 5271
12956, 3589, 4393, 3648, 5221
12957, 2694, 4799, 4064, 5222
12958, 1894, 1825, 1967, 5482
12959, 3679, 3702, 210, 2871
12960, 4079, 4854, 4681, 5137
12961, 4630, 5338, 3999, 5465
12962, 3586, 291, 3623, 2945
12963, 218, 2992, 3675, 3712
12964, 2022, 2020, 2088, 5301
12965, 1283, 62, 320, 4969
12966, 3490, 3443, 3551, 5457
12967, 1810, 1901, 1856, 5456
12968, 3772, 4509, 4201, 4845
12969, 3773, 4508, 4202, 4844
12970, 4135, 5110, 3825, 5161
12971, 3953, 5110, 4135, 5161
12972, 4332, 4670, 3990, 5329
12973, 4331, 4669, 3991, 5328
12974, 3335, 1984, 4274, 5254
12975, 1062, 1184, 4339, 4839
12976, 3825, 4244, 4169, 5523
12977, 2499, 5057, 4121, 5260
12978, 4049, 4913, 4749, 5418
12979, 4341, 4760, 4054, 4811
12980, 1436, 875, 989, 4935
12981, 2508, 2622, 3069, 4936
12982, 800, 799, 1436, 4935
12983, 3069, 2433, 2432, 4936
12984, 2974, 2978, 3388, 5410
12985, 4081, 4618, 4397, 5325
12986, 4080, 4617, 4396, 5326
12987, 4125, 4608, 3979, 5272
12988, 2584, 5049, 4214, 5416
12989, 4397, 4618, 3996, 5325
12990, 4396, 4617, 3997, 5326
12991, 748, 5076, 711, 5307
12992, 791, 1631, 1304, 5177
12993, 4310, 5032, 2167, 5417
12994, 4505, 4860, 4088, 5105
12995, 1107, 4367, 1108, 4669
12996, 2740, 4368, 2741, 4670
12997, 4506, 4861, 4087, 5104
12998, 2748, 2744, 2743, 4441
12999, 1110, 1115, 1111, 4442
13000, 3307, 3310, 2727, 5253
13001, 1839, 1908, 1898, 5270
13002, 3565, 3458, 3531, 5318
13003, 3057, 5243, 2477, 5414
13004, 2738, 2737, 2537, 4353
13005, 1803, 1318, 1773, 5306
13006, 4260, 5362, 3676, 5377
13007, 4259, 5363, 3677, 5376
13008, 4123, 5092, 2819, 5335
13009, 4038, 4708, 4459, 4709
13010, 2981, 2156, 2160, 5385
13011, 3324, 3036, 2717, 4968
13012, 1408, 5202, 4739, 5520
13013, 1931, 1896, 1861, 4398
13014, 3260, 4605, 2620, 5423
13015, 3441, 3480, 263, 3125
13016, 1851, 113, 1808, 1492
13017, 4846, 5028, 3971, 5454
13018, 3800, 4256, 4485, 5052
13019, 931, 1064, 1349, 5107
13020, 2564, 2697, 2982, 5108
13021, 522, 1349, 1350, 5107
13022, 2155, 2982, 2983, 5108
13023, 550, 1536, 4326, 5510
13024, 3625, 3639, 5236, 5394
13025, 4119, 4485, 4256, 5178
13026, 3638, 5235, 3624, 5395
13027, 3883, 5100, 4717, 5497
13028, 3882, 5101, 4718, 5496
13029, 4244, 4779, 3832, 5313
13030, 4080, 4617, 4456, 5266
13031, 4081, 4618, 4455, 5267
13032, 4144, 5223, 4064, 5297
13033, 4091, 5223, 4144, 5297
13034, 4097, 4952, 2847, 5216
13035, 1325, 1329, 1324, 4459
13036, 3541, 3503, 3546, 4493
13037, 2547, 4860, 4088, 5382
13038, 914, 4861, 4087, 5387
13039, 1751, 1319, 1803, 4451
13040, 3840, 4605, 4307, 5172
13041, 4307, 4605, 3949, 5172
13042, 2345, 4425, 2219, 4933
13043, 2459, 4860, 4138, 5276
13044, 826, 4861, 4137, 5275
13045, 915, 1374, 1133, 5379
13046, 4165, 5160, 3861, 5314
13047, 3919, 5160, 4165, 5314
13048, 1672, 4373, 1483, 5315
13049, 591, 1334, 5284, 5352
13050, 4290, 5006, 3797, 5103
13051, 4219, 5381, 4138, 5512
13052, 3760, 4612, 4310, 5032
13053, 4310, 4612, 3979, 5032
13054, 905, 4737, 1221, 4750
13055, 525, 1540, 4863, 5170
13056, 2937, 4512, 4072, 4821
13057, 134, 3612, 346, 5078
13058, 4126, 5149, 4260, 5298
13059, 4260, 5149, 4114, 5298
13060, 4259, 5148, 4113, 5299
13061, 4127, 5148, 4259, 5299
13062, 4653, 4878, 4010, 5273
13063, 1238, 59, 3680, 5357
13064, 4304, 4411, 3788, 5406
13065, 4169, 4779, 3332, 5523
13066, 3982, 4932, 4747, 5525
13067, 4152, 4697, 3813, 5274
13068, 3880, 4388, 4303, 4431
13069, 4344, 4442, 4057, 5085
13070, 4343, 4441, 4056, 5084
13071, 3055, 2813, 2066, 4446
13072, 3534, 4365, 4460, 4772
13073, 917, 838, 1096, 4391
13074, 1670, 4374, 1671, 5065
13075, 4275, 4454, 1891, 5356
13076, 1143, 4126, 1694, 5362
13077, 3327, 2776, 4127, 5363
13078, 4101, 4454, 4275, 5049
13079, 3941, 4436, 4102, 5254
13080, 3675, 1947, 217, 3693
13081, 4089, 4961, 1214, 5215
13082, 3102, 3493, 1988, 4342
13083, 1670, 1671, 1362, 5065
13084, 1362, 1004, 818, 5065
13085, 4033, 5105, 4800, 5394
13086, 2931, 3358, 3359, 4341
13087, 4034, 5104, 4801, 5395
13088, 2727, 3310, 2636, 4334
13089, 2828, 2636, 2825, 4334
13090, 1725, 1726, 1298, 4340
13091, 3316, 3260, 4873, 5423
13092, 4779, 5014, 3832, 5313
13093, 312, 1762, 5155, 5501
13094, 2022, 2024, 2023, 5301
13095, 2224, 2226, 2225, 4333
13096, 4131, 4261, 3964, 5291
13097, 1259, 903, 1332, 4957
13098, 4449, 4548, 3775, 5048
13099, 3814, 4279, 4151, 5067
13100, 3710, 3737, 3670, 5455
13101, 2255, 3071, 2514, 4324
13102, 587, 1578, 1250, 4326
13103, 2883, 2220, 3211, 4325
13104, 1668, 1006, 1666, 4327
13105, 805, 1479, 992, 4322
13106, 808, 1482, 806, 4323
13107, 892, 1706, 1016, 4328
13108, 808, 892, 893, 4328
13109, 1666, 1655, 679, 4327
13110, 533, 1479, 681, 4322
13111, 683, 806, 1552, 4323
13112, 683, 681, 805, 4322
13113, 1596, 1552, 1482, 4323
13114, 3024, 2514, 3030, 4324
13115, 2220, 2183, 3169, 4325
13116, 587, 550, 1536, 4326
13117, 3071, 3226, 3030, 4324
13118, 3103, 3211, 3169, 4325
13119, 1536, 1470, 1578, 4326
13120, 679, 1513, 1668, 4327
13121, 1016, 1017, 893, 4328
13122, 1610, 1586, 1087, 4329
13123, 2720, 3243, 3219, 4330
13124, 1610, 1088, 1620, 4329
13125, 2721, 3253, 3243, 4330
13126, 3967, 4839, 4785, 5305
13127, 3633, 4419, 4143, 5460
13128, 3733, 5357, 4102, 5498
13129, 4464, 4943, 4159, 5496
13130, 4465, 4944, 4160, 5497
13131, 3224, 2266, 2208, 5069
13132, 2208, 2200, 2257, 5069
13133, 3537, 3474, 3558, 4418
13134, 1904, 1903, 1884, 4417
13135, 4072, 770, 4774, 5452
13136, 2249, 4074, 4775, 5454
13137, 542, 5115, 567, 5287
13138, 318, 3462, 1500, 4938
13139, 1828, 3133, 1951, 4940
13140, 4588, 4815, 3795, 5483
13141, 62, 3696, 3678, 4969
13142, 1696, 4126, 1143, 5298
13143, 3329, 4127, 2776, 5299
13144, 4084, 3886, 4870, 5177
13145, 1974, 2003, 2002, 4316
13146, 341, 370, 369, 4317
13147, 850, 4370, 1573, 4584
13148, 3206, 2483, 4371, 4585
13149, 3809, 4352, 4167, 5182
13150, 1825, 1916, 1854, 4432
13151, 4072, 5092, 5056, 5452
13152, 2226, 2228, 2227, 4333
13153, 2296, 4073, 4825, 5453
13154, 1812, 1525, 119, 1856
13155, 3158, 269, 3475, 3490
13156, 3869, 4381, 4700, 4713
13157, 3908, 4377, 4702, 4714
13158, 2959, 2958, 4437, 4867
13159, 4421, 5341, 3938, 5405
13160, 4573, 4793, 3929, 5487
13161, 3845, 4795, 4602, 5486
13162, 3961, 4795, 4602, 5485
13163, 3698, 3324, 215, 4968
13164, 4475, 4831, 4729, 5511
13165, 4139, 4857, 1310, 5388
13166, 2344, 2345, 2219, 4933
13167, 2362, 2345, 2346, 4933
13168, 3851, 4793, 4573, 5487
13169, 4602, 4795, 3932, 5486
13170, 4602, 4795, 3845, 5485
13171, 2892, 2536, 2965, 4948
13172, 4338, 4463, 3760, 4835
13173, 1731, 4318, 1543, 5221
13174, 4050, 4962, 4216, 5146
13175, 4051, 4963, 4217, 5147
13176, 3289, 2825, 3310, 4334
13177, 1167, 1170, 1169, 4426
13178, 2802, 2800, 2803, 4427
13179, 643, 645, 5164, 5249
13180, 3583, 3649, 3650, 4401
13181, 4082, 4867, 4096, 4919
13182, 4509, 4776, 4201, 4845
13183, 4508, 4777, 4202, 4844
13184, 4184, 4842, 1400, 4876
13185, 3581, 3648, 4393, 5078
13186, 3396, 1967, 2844, 4432
13187, 856, 927, 855, 4431
13188, 928, 1441, 927, 4431
13189, 1517, 1625, 4297, 5503
13190, 4176, 4981, 4272, 5511
13191, 1895, 1865, 1813, 5130
13192, 2860, 4650, 3403, 5130
13193, 1210, 5484, 5504, 5519
13194, 3688, 207, 2842, 4395
13195, 3519, 3478, 1750, 4938
13196, 3383, 1882, 1847, 4940
13197, 890, 4237, 1687, 5391
13198, 2846, 2573, 2500, 5260
13199, 2060, 2509, 2062, 4783
13200, 1589, 1240, 4735, 5214
13201, 3872, 4815, 4588, 5483
13202, 1239, 345, 4754, 5498
13203, 940, 867, 1213, 5271
13204, 4315, 3938, 5341, 5405
13205, 3589, 3653, 3648, 4393
13206, 4423, 5033, 4117, 5247
13207, 4422, 5034, 4116, 5246
13208, 2070, 4198, 2074, 5489
13209, 3725, 4316, 3692, 4970
13210, 228, 3667, 3700, 5075
13211, 4002, 4919, 4366, 5181
13212, 1820, 316, 112, 1851
13213, 3480, 3453, 262, 1949
13214, 1596, 4226, 1020, 5229
13215, 985, 4238, 1690, 5230
13216, 1333, 4240, 630, 5228
13217, 2966, 4241, 2263, 5227
13218, 1190, 4244, 1026, 5226
13219, 4276, 4683, 4078, 5482
13220, 316, 1492, 1851, 4757
13221, 3125, 3480, 1949, 4758
13222, 3893, 4893, 4571, 5479
13223, 4558, 4901, 3968, 5478
13224, 4732, 4967, 1740, 5460
13225, 1119, 969, 1386, 5155
13226, 3628, 3576, 153, 1215
13227, 3629, 3575, 303, 2848
13228, 4145, 5484, 4255, 5519
13229, 3791, 4794, 4540, 5462
13230, 3540, 4365, 3514, 4954
13231, 2501, 2806, 2805, 4444
13232, 1173, 1172, 868, 4443
13233, 3519, 1750, 4937, 4938
13234, 3383, 4939, 1882, 4940
13235, 3606, 3605, 3586, 4215
13236, 1559, 542, 534, 5287
13237, 1876, 363, 92, 1816
13238, 1563, 646, 4413, 5346
13239, 3196, 2279, 4414, 5345
13240, 3358, 3357, 5105, 5394
13241, 1829, 1853, 193, 3134
13242, 3445, 45, 3483, 1501
13243, 882, 1658, 1614, 5340
13244, 1724, 5104, 1725, 5395
13245, 1859, 1845, 100, 1447
13246, 732, 655, 590, 5083
13247, 4373, 4382, 3920, 4511
13248, 1825, 4432, 1967, 5482
13249, 4303, 4594, 3880, 5077
13250, 3222, 4173, 3209, 5407
13251, 2646, 4169, 3332, 5399
13252, 1139, 1138, 1793, 4417
13253, 2772, 2771, 3426, 4418
13254, 4092, 4847, 2680, 5450
13255, 4303, 4431, 3787, 5408
13256, 3409, 3512, 3450, 4772
13257, 1315, 1603, 5095, 5180
13258, 4573, 4793, 3848, 4898
13259, 2329, 2330, 2328, 5328
13260, 696, 697, 695, 5329
13261, 3821, 4748, 4914, 5397
13262, 3712, 3675, 3741, 4920
13263, 3972, 4746, 4421, 5341
13264, 2003, 5149, 2837, 5377
13265, 370, 5148, 1204, 5376
13266, 4315, 5341, 4421, 5405
13267, 1416, 4154, 1499, 5354
13268, 3049, 4153, 3132, 5355
13269, 1984, 4274, 2779, 5455
13270, 585, 4171, 1567, 5488
13271, 228, 1971, 3331, 5075
13272, 4048, 4914, 4748, 5397
13273, 1157, 4218, 1504, 5043
13274, 4169, 5110, 3825, 5523
13275, 153, 365, 3628, 1215
13276, 303, 3629, 2848, 1999
13277, 4413, 4742, 4093, 5346
13278, 4414, 4741, 4094, 5345
13279, 2979, 286, 1952, 4401
13280, 1052, 1128, 4452, 5190
13281, 2761, 4453, 2685, 5189
13282, 1103, 4124, 1714, 5306
13283, 3180, 2511, 3217, 4697
13284, 3760, 4463, 4338, 5417
13285, 2175, 3204, 4338, 4904
13286, 4003, 4387, 4248, 5361
13287, 2752, 4145, 3019, 5386
13288, 3960, 4838, 4400, 4968
13289, 3810, 4149, 5103, 5413
13290, 1618, 670, 4229, 5238
13291, 3161, 4230, 2142, 5240
13292, 1528, 4231, 509, 5241
13293, 888, 4239, 1352, 5239
13294, 995, 4236, 1644, 5242
13295, 3946, 4788, 4456, 4836
13296, 3947, 4789, 4455, 4837
13297, 3425, 1966, 2769, 4964
13298, 2343, 2722, 3190, 4487
13299, 1424, 1047, 872, 4402
13300, 3965, 4811, 4335, 5448
13301, 3723, 320, 3678, 5250
13302, 2856, 2540, 2857, 5359
13303, 1223, 907, 1224, 5360
13304, 3358, 4341, 2931, 5394
13305, 1725, 4340, 1298, 5395
13306, 3561, 4764, 4181, 4964
13307, 780, 781, 716, 4366
13308, 3476, 4182, 3550, 5337
13309, 571, 568, 627, 5296
13310, 4716, 4973, 4167, 5225
13311, 3352, 3586, 290, 3605
13312, 1242, 1241, 734, 4981
13313, 2875, 2874, 2367, 4980
13314, 1687, 5213, 1015, 5391
13315, 3200, 4464, 2293, 4991
13316, 3632, 329, 3577, 4967
13317, 3708, 214, 2935, 4979
13318, 219, 3672, 1985, 4920
13319, 4141, 5267, 4455, 5317
13320, 4142, 5266, 4456, 5316
13321, 3726, 4317, 3700, 5075
13322, 4580, 4900, 3850, 5495
13323, 365, 1798, 3628, 4355
13324, 1999, 3431, 3629, 4354
13325, 3795, 4637, 4125, 4853
13326, 2178, 4450, 2826, 4547
13327, 545, 4449, 1193, 4548
13328, 997, 1669, 4410, 4897
13329, 978, 4649, 4178, 4960
13330, 4481, 4493, 4090, 5334
13331, 1179, 1177, 4802, 5419
13332, 3532, 3465, 4267, 5062
13333, 1831, 4268, 1902, 5061
13334, 4162, 4646, 2444, 4986
13335, 4156, 4644, 489, 4987
13336, 4155, 4643, 2122, 4988
13337, 847, 4456, 785, 4788
13338, 2418, 2480, 4455, 4789
13339, 4069, 5305, 4140, 5396
13340, 4571, 4893, 3866, 5479
13341, 3818, 4901, 4558, 5478
13342, 3688, 3683, 207, 4395
13343, 4670, 4797, 3990, 5329
13344, 4669, 4798, 3991, 5328
13345, 761, 846, 762, 5512
13346, 2638, 2446, 2986, 5314
13347, 1672, 1483, 1353, 5315
13348, 4450, 4547, 3774, 5499
13349, 2867, 2842, 207, 4395
13350, 2486, 2466, 2996, 5266
13351, 833, 1363, 853, 5267
13352, 1135, 1134, 1047, 4402
13353, 1942, 2976, 3410, 4709
13354, 2177, 2167, 4310, 5032
13355, 917, 4391, 1096, 5447
13356, 2495, 3296, 2515, 5320
13357, 2656, 4436, 2657, 4720
13358, 4301, 4410, 3800, 5309
13359, 4681, 4854, 4108, 5137
13360, 3738, 4369, 3673, 4979
13361, 2038, 3083, 2287, 4880
13362, 405, 1450, 654, 4881
13363, 4203, 5259, 3891, 5451
13364, 3491, 3481, 47, 1748
13365, 1833, 1852, 195, 3381
13366, 4146, 4280, 3940, 5087
13367, 571, 4123, 5056, 5296
13368, 2769, 4964, 4181, 5414
13369, 2692, 2586, 2584, 5049
13370, 1966, 4181, 2769, 4964
13371, 2133, 2176, 4918, 5508
13372, 4074, 4735, 4635, 5214
13373, 1365, 1366, 1750, 4937
13374, 3383, 2998, 2999, 4939
13375, 4260, 5298, 4114, 5302
13376, 4259, 5299, 4113, 5303
13377, 1179, 1177, 934, 4802
13378, 2975, 4110, 4683, 5409
13379, 3020, 2509, 2060, 4430
13380, 539, 565, 4477, 4917
13381, 2172, 2198, 4476, 4918
13382, 1750, 1366, 1749, 4937
13383, 3383, 2999, 3382, 4939
13384, 328, 3602, 131, 4872
13385, 633, 4247, 700, 5308
13386, 4058, 4391, 4140, 5447
13387, 286, 3596, 1952, 4401
13388, 284, 1979, 2955, 3608
13389, 4456, 4788, 4065, 4836
13390, 4455, 4789, 4067, 4837
13391, 970, 4993, 1200, 5212
13392, 355, 1469, 1857, 5501
13393, 2774, 5199, 4129, 5382
13394, 1912, 1872, 1911, 4496
13395, 1141, 5198, 4128, 5387
13396, 2448, 4829, 4158, 4989
13397, 815, 4828, 4157, 4990
13398, 375, 4831, 4176, 4992
13399, 523, 1348, 4486, 4863
13400, 4098, 4496, 4451, 5333
13401, 1696, 4491, 4126, 5298
13402, 3329, 4492, 4127, 5299
13403, 768, 1511, 766, 5369
13404, 3144, 2399, 2401, 5370
13405, 4683, 5270, 2977, 5482
13406, 1979, 284, 3613, 3608
13407, 1388, 4397, 1389, 4807
13408, 3021, 4396, 3022, 4808
13409, 3965, 4335, 5258, 5448
13410, 3714, 1974, 205, 2002
13411, 4119, 5268, 4202, 5385
13412, 2721, 4330, 2720, 5034
13413, 1088, 4329, 1087, 5033
13414, 4277, 4328, 3958, 5192
13415, 3911, 4328, 4277, 5192
13416, 329, 4967, 1741, 5375
13417, 1780, 3458, 310, 5318
13418, 759, 645, 4488, 4864
13419, 3360, 3361, 4319, 5448
13420, 4284, 4748, 3790, 4914
13421, 4283, 4749, 3789, 4913
13422, 1832, 1920, 1880, 5526
13423, 1981, 2944, 4269, 5080
13424, 3654, 1285, 3632, 5460
13425, 3874, 4950, 4306, 5185
13426, 2392, 2278, 4489, 4865
13427, 2979, 3620, 286, 4401
13428, 4360, 4512, 3764, 4840
13429, 3807, 5095, 4499, 5096
13430, 3664, 4127, 3747, 5363
13431, 3665, 4126, 3748, 5362
13432, 3649, 4401, 3583, 5388
13433, 4287, 4526, 3774, 4965
13434, 4288, 4525, 3775, 4966
13435, 2287, 2041, 2038, 4406
13436, 405, 654, 408, 4407
13437, 997, 887, 886, 4410
13438, 2078, 2919, 2074, 4412
13439, 2561, 3074, 2560, 4411
13440, 3073, 2335, 3293, 4408
13441, 3399, 3086, 3439, 5165
13442, 1806, 1766, 1453, 5166
13443, 4504, 5095, 3807, 5096
13444, 320, 63, 3723, 3678
13445, 1149, 1563, 646, 4413
13446, 2782, 3196, 2279, 4414
13447, 136, 319, 3634, 3589
13448, 5184, 5252, 1712, 5319
13449, 666, 612, 663, 5272
13450, 2416, 2417, 4458, 4816
13451, 78, 1698, 3669, 4970
13452, 4338, 3760, 4904, 5332
13453, 3607, 3612, 134, 5078
13454, 1322, 134, 346, 5078
13455, 55, 341, 369, 3682
13456, 3682, 369, 55, 3713
13457, 1376, 5318, 4764, 5379
13458, 3793, 4594, 4303, 5077
13459, 4202, 5263, 4119, 5385
13460, 4106, 4647, 3811, 5058
13461, 2995, 2635, 4484, 4875
13462, 4300, 4917, 3867, 5249
13463, 4299, 4918, 3868, 5248
13464, 62, 1283, 3696, 4969
13465, 1985, 3672, 220, 4852
13466, 3929, 4793, 4573, 4898
13467, 2248, 4635, 2247, 4775
13468, 3849, 4900, 4580, 5495
13469, 4218, 5295, 3942, 5462
13470, 4008, 4785, 4339, 4839
13471, 3703, 3744, 3721, 5134
13472, 2867, 207, 3683, 4395
13473, 1558, 4734, 1576, 4846
13474, 3920, 5173, 4239, 5239
13475, 4339, 4839, 4785, 5392
13476, 3660, 3628, 1798, 4355
13477, 3431, 3661, 3629, 4354
13478, 1047, 1424, 1135, 4402
13479, 4589, 4791, 3786, 5263
13480, 1508, 1182, 4095, 4766
13481, 1948, 3353, 2946, 4843
13482, 791, 5177, 4084, 5380
13483, 1687, 4237, 5213, 5391
13484, 2747, 4096, 4867, 5181
13485, 4152, 5419, 4045, 5423
13486, 3006, 2827, 4302, 5309
13487, 2721, 2720, 2163, 5034
13488, 1088, 1087, 530, 5033
13489, 3799, 4647, 4106, 5058
13490, 3934, 4608, 4173, 4796
13491, 3577, 148, 329, 3632
13492, 4295, 3887, 4461, 4859
13493, 4296, 3886, 4462, 4858
13494, 1223, 1224, 1786, 5148
13495, 2857, 3419, 2856, 5149
13496, 1634, 1641, 1471, 5256
13497, 2384, 2307, 2385, 5257
13498, 4241, 3783, 5008, 5472
13499, 4240, 3784, 5009, 5473
13500, 3865, 4223, 4998, 5470
13501, 3344, 3333, 1961, 5513
13502, 4145, 3992, 4813, 5484
13503, 3967, 4309, 4733, 4862
13504, 4800, 5105, 4100, 5394
13505, 4402, 4403, 4111, 4874
13506, 4801, 5104, 4099, 5395
13507, 1449, 1796, 3457, 4954
13508, 1575, 748, 711, 5307
13509, 3804, 4241, 5008, 5472
13510, 3803, 4240, 5009, 5473
13511, 4223, 3854, 4998, 5470
13512, 3977, 4329, 4363, 4692
13513, 3976, 4330, 4364, 4693
13514, 1596, 1244, 4226, 5229
13515, 1602, 1690, 4238, 5230
13516, 2263, 4241, 3170, 5227
13517, 630, 4240, 1537, 5228
13518, 1190, 1232, 4244, 5226
13519, 3723, 1302, 320, 5250
13520, 3792, 4294, 4739, 4825
13521, 4367, 4669, 4022, 5331
13522, 4368, 4670, 4021, 5330
13523, 3596, 286, 3620, 4401
13524, 1297, 4132, 4929, 5411
13525, 3879, 4392, 4229, 5174
13526, 3632, 1285, 329, 4967
13527, 3691, 3680, 59, 5357
13528, 59, 1238, 330, 5357
13529, 320, 63, 1302, 3723
13530, 1727, 1728, 4872, 5507
13531, 3515, 353, 38, 3484
13532, 1986, 186, 1883, 1840
13533, 2803, 261, 3487, 1949
13534, 111, 316, 1873, 1170
13535, 484, 483, 482, 5262
13536, 3936, 4802, 4605, 5423
13537, 2809, 2569, 2878, 5259
13538, 3769, 4345, 4193, 4934
13539, 4193, 4345, 3768, 4934
13540, 1863, 4183, 1920, 5372
13541, 4277, 5089, 4103, 5351
13542, 4448, 4766, 4095, 4767
13543, 4780, 4833, 3962, 5467
13544, 4781, 4834, 3963, 5466
13545, 136, 319, 1346, 3634
13546, 3019, 2758, 3392, 5386
13547, 3406, 3436, 2951, 5293
13548, 3481, 3551, 3532, 4267
13549, 1901, 1902, 1852, 4268
13550, 1895, 1871, 1911, 4451
13551, 3775, 4408, 4286, 4449
13552, 3774, 4409, 4285, 4450
13553, 4335, 4811, 4054, 5448
13554, 4125, 4608, 3934, 4796
13555, 3591, 3644, 3602, 4872
13556, 1197, 5038, 4209, 5445
13557, 3654, 349, 1285, 5460
13558, 4792, 4955, 3881, 5463
13559, 4791, 3881, 4955, 5463
13560, 1386, 969, 919, 4107
13561, 3921, 4287, 4285, 5246
13562, 3922, 4288, 4286, 5247
13563, 4361, 4461, 3887, 4859
13564, 4362, 4462, 3886, 4858
13565, 3582, 1305, 349, 5460
13566, 1816, 363, 1507, 4398
13567, 3888, 4526, 4287, 4965
13568, 3889, 4525, 4288, 4966
13569, 3623, 292, 3584, 1981
13570, 3796, 4516, 4866, 5344
13571, 3836, 4593, 4165, 4868
13572, 3835, 4592, 4166, 4869
13573, 4220, 5181, 4096, 5339
13574, 4601, 4890, 3919, 5139
13575, 1104, 4737, 4220, 5504
13576, 1304, 1631, 1297, 4929
13577, 4276, 4683, 4110, 5324
13578, 3991, 4669, 4367, 5331
13579, 3990, 4670, 4368, 5330
13580, 3671, 73, 351, 3743
13581, 1607, 5217, 863, 5281
13582, 4669, 4798, 4022, 5331
13583, 4670, 4797, 4021, 5330
13584, 4305, 4430, 3926, 5099
13585, 3881, 4792, 4572, 4955
13586, 4589, 4791, 3881, 4955
13587, 4339, 3967, 4839, 5392
13588, 3890, 4890, 4601, 5139
13589, 1420, 4229, 670, 5238
13590, 1675, 1352, 4239, 5239
13591, 3056, 2142, 4230, 5240
13592, 1423, 509, 4231, 5241
13593, 1644, 4236, 1707, 5242
13594, 3671, 351, 73, 1703
13595, 2413, 2549, 3186, 4790
13596, 4281, 4443, 3962, 5467
13597, 4282, 4444, 3963, 5466
13598, 4993, 5073, 1200, 5212
13599, 3505, 3467, 1142, 4481
13600, 3810, 4524, 4149, 5128
13601, 4295, 4774, 3887, 4821
13602, 1172, 1068, 1163, 5326
13603, 2701, 2796, 2805, 5325
13604, 188, 3383, 3382, 1882
13605, 40, 1750, 1749, 3519
13606, 3821, 4748, 4284, 4914
13607, 3820, 4749, 4283, 4913
13608, 4540, 4794, 3780, 5053
13609, 4133, 4873, 4763, 5419
13610, 3385, 4496, 3438, 5216
13611, 148, 329, 3632, 1285
13612, 4134, 5102, 4744, 5191
13613, 107, 313, 1832, 1880
13614, 1981, 3623, 292, 2945
13615, 3337, 5153, 4263, 5455
13616, 2427, 4796, 2125, 5366
13617, 4295, 4461, 3887, 5503
13618, 3463, 1749, 39, 3515
13619, 1830, 3382, 187, 1883
13620, 4347, 4962, 4216, 5349
13621, 4346, 4963, 4217, 5350
13622, 4005, 4670, 5190, 5492
13623, 4004, 4669, 5189, 5491
13624, 1647, 1575, 1557, 4932
13625, 349, 3654, 146, 5460
13626, 3320, 4277, 2917, 5196
13627, 2415, 2502, 2799, 4781
13628, 782, 869, 1166, 4780
13629, 2481, 4785, 3166, 4820
13630, 3726, 3690, 4317, 4482
13631, 4119, 5263, 4202, 5323
13632, 2416, 2458, 2957, 4437
13633, 219, 3712, 3672, 4920
13634, 4226, 4323, 3911, 4706
13635, 349, 146, 3582, 5460
13636, 2853, 3346, 3357, 5236
13637, 1220, 1713, 1724, 5235
13638, 4087, 4128, 5198, 5387
13639, 3485, 334, 26, 3457
13640, 3761, 4429, 4313, 4437
13641, 3305, 5086, 3304, 5182
13642, 3546, 3543, 3506, 4481
13643, 2703, 2481, 3166, 4820
13644, 571, 5083, 4123, 5296
13645, 1533, 848, 4787, 4819
13646, 146, 349, 3582, 1305
13647, 2123, 2119, 3041, 5366
13648, 2626, 2452, 4380, 5310
13649, 1289, 4376, 1391, 5311
13650, 1391, 4376, 1390, 5312
13651, 4068, 4674, 4453, 4711
13652, 4066, 4673, 4452, 4710
13653, 1074, 4255, 920, 5484
13654, 3850, 4323, 4226, 4706
13655, 3792, 4739, 4399, 4825
13656, 4088, 4129, 5199, 5382
13657, 3335, 2779, 1984, 5254
13658, 3897, 4774, 4295, 4821
13659, 1637, 504, 392, 4346
13660, 2137, 2025, 3270, 4347
13661, 394, 1637, 392, 4346
13662, 3270, 2025, 2027, 4347
13663, 1533, 1070, 848, 4819
13664, 838, 4733, 783, 5150
13665, 794, 4735, 492, 4739
13666, 3841, 4885, 4579, 5480
13667, 3582, 3633, 3646, 4636
13668, 4604, 4887, 3943, 5477
13669, 4603, 4886, 3944, 5476
13670, 3837, 4884, 4569, 5475
13671, 243, 1996, 3489, 3449
13672, 517, 1350, 1615, 5247
13673, 2983, 3248, 2150, 5246
13674, 2896, 2393, 2278, 5248
13675, 645, 1263, 760, 5249
13676, 175, 1825, 1854, 3080
13677, 3135, 4747, 2390, 5111
13678, 404, 405, 4407, 5012
13679, 2038, 4406, 2037, 5011
13680, 3799, 4647, 4249, 5287
13681, 2133, 2176, 2172, 4918
13682, 500, 543, 539, 4917
13683, 427, 876, 429, 4763
13684, 3991, 4798, 4669, 5331
13685, 3990, 4797, 4670, 5330
13686, 809, 4869, 4166, 5173
13687, 4044, 4866, 4516, 5344
13688, 3338, 1985, 220, 4852
13689, 2935, 1953, 4979, 5196
13690, 4278, 4847, 4092, 4959
13691, 613, 4608, 663, 5272
13692, 1037, 829, 1649, 5507
13693, 4179, 5147, 4051, 5282
13694, 4180, 5146, 4050, 5283
13695, 3266, 5373, 4416, 5493
13696, 1633, 5374, 4415, 5494
13697, 3107, 2285, 2411, 4439
13698, 781, 952, 1572, 4440
13699, 4721, 5229, 4169, 5313
13700, 3945, 4280, 4446, 5464
13701, 1752, 4481, 1805, 5215
13702, 4145, 5504, 5484, 5519
13703, 4102, 4771, 1236, 5357
13704, 4100, 5105, 3357, 5394
13705, 4099, 5104, 1724, 5395
13706, 1543, 4318, 1732, 5221
13707, 2377, 4381, 2523, 5192
13708, 2648, 4384, 3323, 5192
13709, 2618, 4381, 2377, 5192
13710, 3323, 4384, 2618, 5192
13711, 2021, 2020, 2022, 4776
13712, 1219, 1215, 339, 4800
13713, 1972, 2852, 2848, 4801
13714, 4131, 4747, 4261, 5291
13715, 3527, 3446, 3541, 5120
13716, 1213, 729, 5231, 5271
13717, 710, 1575, 711, 5245
13718, 4714, 5257, 3908, 5312
13719, 1146, 351, 1702, 4264
13720, 2846, 4206, 2834, 4952
13721, 2249, 2248, 2247, 4775
13722, 4060, 4448, 4124, 4650
13723, 4308, 4435, 3780, 5415
13724, 2362, 5232, 2846, 5260
13725, 4220, 4737, 4055, 5167
13726, 1201, 1213, 4208, 4961
13727, 4187, 5152, 4354, 5235
13728, 4186, 5151, 4355, 5236
13729, 4300, 4688, 3867, 4917
13730, 4299, 4689, 3868, 4918
13731, 2155, 2981, 2982, 5268
13732, 1348, 1349, 522, 5269
13733, 3481, 48, 337, 3465
13734, 1852, 1831, 196, 1970
13735, 604, 665, 4352, 5365
13736, 3579, 3641, 4872, 5143
13737, 3925, 4697, 4327, 4740
13738, 3945, 4446, 4336, 5464
13739, 4178, 3982, 5019, 5525
13740, 3743, 3721, 74, 1701
13741, 4281, 4396, 3997, 4443
13742, 4282, 4397, 3996, 4444
13743, 4903, 4904, 3760, 5332
13744, 4229, 4392, 3956, 5174
13745, 3500, 3158, 268, 3475
13746, 118, 1525, 1812, 1868
13747, 1197, 1126, 4209, 5038
13748, 1400, 442, 419, 4876
13749, 74, 351, 3743, 1701
13750, 3783, 4846, 4349, 5028
13751, 2602, 3019, 2752, 4145
13752, 1284, 4969, 320, 5213
13753, 3457, 3535, 4342, 4954
13754, 3280, 3208, 4487, 5046
13755, 4429, 4818, 3755, 4910
13756, 228, 3331, 3667, 5075
13757, 2616, 2588, 4723, 5157
13758, 955, 4722, 983, 5156
13759, 1024, 4721, 1023, 5161
13760, 664, 1487, 4716, 5160
13761, 3436, 3384, 2952, 4493
13762, 2921, 4703, 4164, 5100
13763, 1288, 4704, 4163, 5101
13764, 4734, 4846, 3971, 5454
13765, 3956, 4392, 4308, 4435
13766, 920, 4255, 1124, 4959
13767, 146, 3654, 3582, 5460
13768, 4774, 4821, 3897, 5091
13769, 4785, 4839, 3967, 5392
13770, 2573, 4206, 2846, 4952
13771, 4670, 4797, 4005, 5190
13772, 4669, 4798, 4004, 5189
13773, 3926, 5099, 4430, 5109
13774, 3649, 4636, 4401, 5388
13775, 477, 1593, 1438, 4982
13776, 1397, 1593, 1601, 4982
13777, 1596, 1020, 1244, 5229
13778, 1602, 985, 1690, 5230
13779, 2462, 3280, 3282, 5258
13780, 1190, 1026, 1232, 5226
13781, 2966, 2263, 3170, 5227
13782, 1333, 630, 1537, 5228
13783, 2858, 5084, 4086, 5359
13784, 1225, 5085, 4085, 5360
13785, 1702, 1146, 4264, 5358
13786, 4005, 4670, 4332, 5329
13787, 4004, 4669, 4331, 5328
13788, 3945, 4405, 4280, 5074
13789, 3987, 4440, 4200, 5332
13790, 3532, 3465, 3481, 4267
13791, 1902, 1831, 1852, 4268
13792, 712, 4424, 586, 5076
13793, 1795, 3505, 1142, 4481
13794, 3704, 220, 3672, 4852
13795, 4153, 4945, 3049, 5188
13796, 4154, 4946, 1416, 5187
13797, 3476, 1767, 34, 3518
13798, 4518, 4842, 4184, 4876
13799, 1725, 1298, 340, 5395
13800, 3358, 2931, 1973, 5394
13801, 2459, 2731, 4860, 5276
13802, 1985, 2992, 219, 4920
13803, 826, 1098, 4861, 5275
13804, 4524, 4687, 4149, 5128
13805, 2569, 2807, 4592, 5259
13806, 842, 1072, 920, 5484
13807, 940, 4208, 1213, 4961
13808, 4162, 4472, 3845, 5230
13809, 4683, 4824, 4110, 5324
13810, 1849, 105, 1821, 1792
13811, 347, 1708, 1303, 4266
13812, 4685, 4911, 4056, 4980
13813, 4686, 4912, 4057, 4981
13814, 4059, 4112, 4517, 5445
13815, 3654, 147, 3632, 1285
13816, 2775, 3428, 1874, 4496
13817, 3918, 4889, 4587, 5088
13818, 632, 4247, 633, 5308
13819, 3049, 5342, 4153, 5355
13820, 1416, 5343, 4154, 5354
13821, 1304, 5244, 4132, 5411
13822, 985, 1690, 4238, 5391
13823, 3423, 3347, 4112, 4731
13824, 3731, 4395, 3688, 4970
13825, 4056, 4911, 4685, 5345
13826, 4057, 4912, 4686, 5346
13827, 4294, 3792, 4739, 5520
13828, 3408, 3099, 1986, 5060
13829, 353, 1775, 1466, 5059
13830, 349, 147, 3654, 1285
13831, 4166, 4869, 4592, 4891
13832, 2456, 2381, 2462, 5046
13833, 953, 950, 951, 4770
13834, 3125, 263, 3441, 1992
13835, 113, 359, 1808, 1492
13836, 3938, 4688, 4300, 4917
13837, 3939, 4689, 4299, 4918
13838, 2063, 2062, 5106, 5255
13839, 3244, 4899, 2319, 5261
13840, 863, 1607, 987, 5217
13841, 4340, 4801, 3637, 5395
13842, 4341, 4800, 3636, 5394
13843, 4063, 4833, 4780, 5467
13844, 4062, 4834, 4781, 5466
13845, 2425, 2519, 2520, 5066
13846, 3069, 2700, 2433, 5068
13847, 1436, 1067, 800, 5067
13848, 3116, 3305, 2309, 5225
13849, 1471, 992, 1629, 5224
13850, 3726, 4482, 4317, 5075
13851, 3745, 1302, 64, 3723
13852, 4074, 4846, 4734, 5454
13853, 2398, 2354, 3075, 5467
13854, 1442, 765, 721, 5466
13855, 3760, 4835, 4463, 5417
13856, 2565, 2697, 2564, 4217
13857, 1064, 931, 932, 4216
13858, 1374, 915, 841, 4786
13859, 3810, 5103, 4290, 5413
13860, 3901, 4500, 5135, 5156
13861, 1491, 492, 794, 4735
13862, 4158, 4829, 4725, 4989
13863, 4157, 4828, 4724, 4990
13864, 3714, 3748, 3728, 5377
13865, 3747, 3727, 3713, 5376
13866, 4176, 4831, 4729, 4992
13867, 1801, 368, 1747, 4259
13868, 2001, 3380, 3434, 4260
13869, 826, 749, 823, 5275
13870, 4176, 4039, 5163, 5401
13871, 4177, 4040, 5162, 5402
13872, 907, 374, 1241, 5360
13873, 2540, 2007, 2874, 5359
13874, 4035, 5132, 4427, 5168
13875, 2456, 2459, 2382, 5276
13876, 1302, 64, 347, 3745
13877, 3968, 4333, 4199, 4782
13878, 1119, 1386, 1759, 4874
13879, 842, 4906, 1072, 5484
13880, 2538, 4353, 2737, 4438
13881, 1945, 2752, 3079, 5386
13882, 804, 1484, 1600, 4809
13883, 2437, 3117, 3233, 4810
13884, 310, 4764, 1376, 5318
13885, 3534, 4365, 3498, 4460
13886, 4043, 5136, 4426, 5171
13887, 1988, 247, 3101, 3514
13888, 4088, 5105, 4100, 5126
13889, 4087, 5104, 4099, 5127
13890, 3921, 4603, 4422, 4886
13891, 3922, 4604, 4423, 4887
13892, 847, 4788, 1451, 5190
13893, 2480, 4789, 3084, 5189
13894, 3900, 4501, 5097, 5157
13895, 2872, 2869, 2871, 4480
13896, 4249, 5072, 3984, 5290
13897, 4364, 4693, 4213, 5369
13898, 4363, 4692, 4212, 5370
13899, 2623, 3109, 2488, 5201
13900, 2883, 3218, 2220, 5207
13901, 587, 1250, 1585, 5208
13902, 3469, 3079, 250, 3486
13903, 1471, 4700, 4161, 5256
13904, 2385, 4702, 4175, 5257
13905, 3482, 3454, 32, 4764
13906, 1673, 700, 5239, 5308
13907, 4347, 5107, 4117, 5349
13908, 4346, 5108, 4116, 5350
13909, 3589, 3648, 3607, 5078
13910, 4785, 4839, 4069, 5305
13911, 3051, 2846, 2362, 5232
13912, 1587, 970, 1200, 5212
13913, 4125, 4796, 3934, 5366
13914, 430, 431, 428, 5087
13915, 2843, 2705, 2854, 4387
13916, 1621, 1511, 1506, 4856
13917, 3138, 3254, 3144, 4855
13918, 2661, 4475, 2659, 4729
13919, 4088, 4860, 4505, 5195
13920, 947, 4474, 1331, 4725
13921, 2580, 4473, 2964, 4724
13922, 1213, 729, 1418, 5231
13923, 4008, 4339, 4785, 5392
13924, 4087, 4861, 4506, 5194
13925, 1113, 5324, 4078, 5501
13926, 3746, 3674, 4400, 4968
13927, 1821, 1448, 106, 5526
13928, 1005, 809, 813, 5173
13929, 3392, 1991, 3079, 5386
13930, 1675, 888, 1352, 5239
13931, 1673, 700, 888, 5239
13932, 1618, 1420, 670, 5238
13933, 3056, 3161, 2142, 5240
13934, 1423, 1528, 509, 5241
13935, 491, 1655, 1618, 5238
13936, 995, 1644, 1707, 5242
13937, 892, 995, 1706, 5242
13938, 3498, 3534, 3540, 4365
13939, 3680, 1238, 5357, 5498
13940, 934, 4730, 859, 4802
13941, 2585, 2854, 2855, 5211
13942, 899, 4428, 1722, 5079
13943, 1114, 4824, 1326, 5186
13944, 4072, 4821, 4774, 5091
13945, 4013, 4751, 5122, 5319
13946, 3992, 4737, 4145, 5167
13947, 2252, 2263, 2251, 4349
13948, 1225, 1241, 5085, 5360
13949, 2858, 2874, 5084, 5359
13950, 567, 574, 4647, 5206
13951, 1250, 4649, 1588, 5208
13952, 4099, 4801, 2852, 5127
13953, 4105, 3374, 5143, 5400
13954, 4100, 4800, 1219, 5126
13955, 1388, 840, 1389, 4397
13956, 2473, 3022, 3021, 4396
13957, 3696, 3701, 3734, 4969
13958, 4057, 4981, 4272, 5085
13959, 4056, 4980, 4273, 5084
13960, 1874, 1835, 2775, 4496
13961, 3913, 4886, 4603, 5476
13962, 3914, 4887, 4604, 5477
13963, 4569, 4884, 3838, 5475
13964, 4579, 4885, 3847, 5480
13965, 1310, 348, 1311, 5458
13966, 1550, 371, 1209, 4482
13967, 1285, 4967, 3632, 5460
13968, 644, 643, 645, 5164
13969, 4760, 4811, 3965, 5448
13970, 1877, 1899, 1836, 4804
13971, 3468, 1475, 20, 3511
13972, 4679, 4736, 4017, 5500
13973, 278, 3625, 2853, 5394
13974, 3707, 3731, 3669, 4970
13975, 128, 3624, 1220, 5395
13976, 3792, 4304, 4294, 5406
13977, 1239, 345, 1685, 4754
13978, 1673, 5239, 4373, 5308
13979, 4036, 4438, 4432, 5155
13980, 4300, 4315, 3860, 5405
13981, 3557, 3492, 3560, 5337
13982, 3476, 3550, 3560, 5337
13983, 3512, 3451, 3534, 4772
13984, 3793, 4303, 4293, 5408
13985, 1851, 316, 112, 1492
13986, 3125, 3480, 262, 1949
13987, 3417, 267, 3442, 3500
13988, 1809, 1784, 117, 1868
13989, 4216, 4962, 3772, 5146
13990, 4217, 4963, 3773, 5147
13991, 3805, 4897, 4547, 5499
13992, 3985, 4176, 5163, 5401
13993, 3998, 4177, 5162, 5402
13994, 904, 1105, 1104, 4220
13995, 3270, 3137, 4962, 5349
13996, 1505, 4963, 1637, 5350
13997, 3773, 5268, 4202, 5323
13998, 4202, 5268, 4119, 5323
13999, 1746, 36, 311, 3492
14000, 3992, 4906, 4813, 5484
14001, 2746, 5181, 2683, 5339
14002, 2570, 4362, 3178, 4462
14003, 937, 4361, 1545, 4461
14004, 4215, 4676, 3606, 5509
14005, 2958, 2962, 2957, 4437
14006, 4189, 4320, 4076, 5166
14007, 4190, 4321, 4077, 5165
14008, 1373, 4149, 5336, 5353
14009, 1312, 1313, 1311, 4676
14010, 2112, 2114, 3091, 5191
14011, 2417, 3154, 4756, 4816
14012, 4324, 4376, 3892, 4982
14013, 3893, 4377, 4324, 4982
14014, 4134, 5295, 4218, 5462
14015, 3954, 4911, 4685, 4980
14016, 3955, 4912, 4686, 4981
14017, 184, 1944, 3379, 1824
14018, 2940, 3370, 5273, 5500
14019, 847, 1451, 1052, 5190
14020, 2480, 3084, 2685, 5189
14021, 4736, 5154, 350, 5233
14022, 740, 476, 741, 4869
14023, 2109, 2374, 2373, 4868
14024, 2691, 2689, 2755, 5094
14025, 1056, 1122, 1058, 5093
14026, 4485, 5052, 4256, 5178
14027, 1197, 4209, 1126, 5445
14028, 2614, 5042, 4194, 5135
14029, 2409, 4832, 4188, 5393
14030, 2944, 2943, 4269, 5500
14031, 2649, 2780, 5153, 5200
14032, 3773, 4346, 4217, 5268
14033, 3772, 4347, 4216, 5269
14034, 1204, 364, 1747, 4259
14035, 2837, 1997, 3380, 4260
14036, 3761, 4447, 4816, 5251
14037, 4340, 4759, 4053, 4882
14038, 1780, 3531, 30, 3458
14039, 44, 362, 3483, 1501
14040, 1995, 1829, 192, 3134
14041, 4214, 5252, 5184, 5319
14042, 4034, 4759, 4340, 4882
14043, 4337, 4609, 3949, 5090
14044, 4274, 5254, 2779, 5455
14045, 2024, 5253, 4118, 5301
14046, 676, 1673, 4373, 5308
14047, 1729, 1730, 346, 4805
14048, 3753, 4808, 3000, 5060
14049, 1367, 3754, 4807, 5059
14050, 4180, 5283, 4005, 5329
14051, 4179, 5282, 4004, 5328
14052, 4274, 4754, 4102, 5254
14053, 3174, 1843, 198, 1997
14054, 364, 50, 3444, 1541
14055, 3459, 3554, 3484, 4356
14056, 1454, 4987, 487, 5262
14057, 3517, 3507, 256, 1946
14058, 1855, 1923, 1840, 4357
14059, 2526, 2650, 4664, 5200
14060, 123, 1781, 1811, 1884
14061, 575, 5115, 624, 5206
14062, 4635, 4735, 4073, 5264
14063, 4181, 5318, 4092, 5379
14064, 1880, 1821, 106, 5526
14065, 1708, 1691, 1084, 4672
14066, 1714, 4124, 1790, 4766
14067, 2332, 2319, 4572, 5261
14068, 2868, 3183, 4395, 4928
14069, 830, 4488, 760, 4930
14070, 2463, 4489, 2393, 4931
14071, 3773, 4963, 4508, 5494
14072, 3772, 4962, 4509, 5493
14073, 1312, 4676, 1311, 5458
14074, 1113, 1050, 1049, 5324
14075, 3497, 5120, 3527, 5293
14076, 1673, 1483, 4373, 5239
14077, 3087, 4388, 3031, 5042
14078, 312, 100, 1845, 1447
14079, 3858, 4378, 4225, 4848
14080, 4225, 4378, 3857, 4848
14081, 4235, 4378, 3858, 4849
14082, 3898, 4378, 4235, 4849
14083, 4245, 4385, 3776, 4850
14084, 4246, 4386, 3777, 4851
14085, 3977, 4385, 4245, 4850
14086, 3976, 4386, 4246, 4851
14087, 1967, 4432, 3396, 5482
14088, 1540, 527, 525, 4863
14089, 3900, 5097, 4156, 5157
14090, 4156, 5097, 3909, 5157
14091, 4295, 4774, 3897, 5503
14092, 3908, 5257, 4478, 5312
14093, 4587, 4889, 3857, 5088
14094, 4111, 4403, 4402, 4958
14095, 3102, 249, 3493, 3469
14096, 1822, 102, 1878, 1779
14097, 4146, 3937, 4446, 5464
14098, 3590, 2927, 283, 4419
14099, 3720, 4266, 3672, 4920
14100, 2791, 4392, 2623, 5327
14101, 858, 4307, 1624, 5172
14102, 4337, 4405, 3940, 5489
14103, 3733, 4102, 5357, 5513
14104, 3877, 4892, 4570, 5514
14105, 4580, 4900, 3781, 5517
14106, 3284, 2723, 2724, 4749
14107, 831, 830, 760, 4930
14108, 2464, 2463, 2393, 4931
14109, 3488, 253, 3412, 3494
14110, 1327, 4459, 1325, 4824
14111, 1151, 4422, 461, 4603
14112, 2094, 2784, 4423, 4604
14113, 4313, 4627, 3822, 5022
14114, 4002, 4627, 4313, 5022
14115, 3485, 27, 334, 3473
14116, 3363, 4419, 3362, 4975
14117, 3878, 4334, 4257, 4773
14118, 4285, 4582, 3895, 5020
14119, 4286, 4581, 3894, 5021
14120, 3921, 4582, 4285, 5020
14121, 3922, 4581, 4286, 5021
14122, 4290, 4539, 3797, 5006
14123, 3815, 4539, 4290, 5006
14124, 952, 905, 1221, 4750
14125, 3798, 4557, 4301, 5013
14126, 3796, 4536, 4302, 5010
14127, 4302, 4536, 3798, 5010
14128, 4301, 4557, 3824, 5013
14129, 1636, 1288, 1291, 5101
14130, 3269, 2921, 2924, 5100
14131, 3135, 2624, 2390, 4747
14132, 4387, 5361, 3986, 5502
14133, 712, 586, 711, 5076
14134, 729, 712, 713, 5076
14135, 1934, 4766, 1910, 4916
14136, 3917, 4989, 4725, 5412
14137, 4019, 4335, 4319, 5258
14138, 3482, 32, 1791, 4764
14139, 3108, 3147, 1877, 4804
14140, 2397, 4281, 2399, 5370
14141, 764, 4282, 766, 5369
14142, 3492, 36, 311, 3459
14143, 1408, 4739, 490, 5520
14144, 674, 4714, 1396, 5312
14145, 1924, 1921, 1824, 5372
14146, 575, 1591, 633, 5073
14147, 2609, 2610, 2611, 5071
14148, 2611, 3261, 3221, 5071
14149, 2315, 2885, 2313, 5070
14150, 2166, 2314, 2313, 5070
14151, 2897, 2239, 3202, 5072
14152, 2239, 3072, 2240, 5072
14153, 633, 722, 701, 5073
14154, 899, 758, 757, 5079
14155, 3756, 5195, 5121, 5333
14156, 1048, 1140, 1712, 5184
14157, 3503, 15, 1527, 3446
14158, 1322, 3607, 134, 5078
14159, 3146, 2170, 2203, 4463
14160, 1247, 1599, 1625, 4461
14161, 3232, 3258, 2880, 4462
14162, 3926, 4308, 4305, 5415
14163, 2919, 2070, 2074, 5489
14164, 3291, 5320, 4473, 5461
14165, 1204, 5148, 4259, 5376
14166, 2837, 5149, 4260, 5377
14167, 3362, 3363, 1979, 4419
14168, 4128, 5194, 2890, 5334
14169, 3548, 3534, 4460, 4772
14170, 257, 3456, 1946, 3100
14171, 901, 1054, 4818, 5297
14172, 2064, 3316, 3089, 4745
14173, 2196, 2202, 2403, 4746
14174, 1158, 1535, 990, 4744
14175, 1944, 184, 1855, 1824
14176, 4295, 3887, 4774, 5503
14177, 4129, 5195, 1257, 5333
14178, 4289, 4310, 3795, 5417
14179, 3825, 5110, 4169, 5161
14180, 4169, 5110, 3953, 5161
14181, 3704, 3338, 220, 4852
14182, 4241, 4349, 3783, 4738
14183, 185, 3099, 1944, 1840
14184, 1466, 311, 37, 3484
14185, 550, 4717, 536, 5510
14186, 3085, 2616, 3278, 5157
14187, 1645, 1452, 983, 5156
14188, 2841, 2087, 3054, 5159
14189, 454, 1421, 1208, 5158
14190, 1026, 1024, 1025, 5161
14191, 771, 1614, 664, 5160
14192, 1324, 838, 783, 5150
14193, 2529, 3350, 2669, 4506
14194, 4869, 4891, 4166, 5173
14195, 896, 1717, 1036, 4505
14196, 3986, 4905, 4615, 5502
14197, 3353, 3352, 2734, 5509
14198, 4152, 5384, 3240, 5423
14199, 2981, 5268, 4119, 5385
14200, 3134, 1853, 193, 1959
14201, 326, 45, 3445, 1501
14202, 1018, 893, 1017, 5089
14203, 4764, 5318, 4181, 5379
14204, 1278, 1445, 1314, 4823
14205, 2947, 2911, 3078, 4822
14206, 654, 1639, 1432, 5367
14207, 632, 633, 700, 5308
14208, 4202, 5263, 4777, 5323
14209, 4120, 4487, 3983, 4927
14210, 1089, 585, 1567, 5488
14211, 3735, 3738, 3685, 4369
14212, 685, 946, 1252, 5082
14213, 4733, 4826, 3834, 5150
14214, 1635, 1043, 1723, 4335
14215, 2416, 2417, 2360, 4458
14216, 2867, 2868, 3183, 4395
14217, 1721, 350, 4736, 5154
14218, 3987, 4338, 4904, 5332
14219, 1094, 4691, 5054, 5178
14220, 4379, 4399, 3792, 5238
14221, 2802, 2804, 4427, 5132
14222, 4316, 4395, 3998, 4970
14223, 1171, 4426, 1169, 5136
14224, 2649, 2780, 2650, 5153
14225, 1748, 47, 3491, 1757
14226, 3381, 195, 1833, 3390
14227, 4356, 4652, 1788, 5219
14228, 3421, 4357, 4651, 5220
14229, 3935, 4349, 4241, 4738
14230, 3147, 3402, 1954, 4804
14231, 4196, 4953, 4374, 5065
14232, 1915, 1907, 1846, 5129
14233, 2575, 2860, 2829, 4650
14234, 1605, 1114, 1326, 5186
14235, 225, 3334, 3699, 5513
14236, 3622, 3643, 3641, 5389
14237, 3642, 3640, 3619, 5390
14238, 3782, 4955, 4792, 5463
14239, 4791, 4955, 3786, 5463
14240, 4037, 4824, 4790, 5186
14241, 857, 669, 1476, 5077
14242, 3672, 4266, 3705, 4852
14243, 737, 790, 736, 5146
14244, 2370, 2423, 2369, 5147
14245, 3625, 5236, 2853, 5394
14246, 3624, 5235, 1220, 5395
14247, 4238, 5230, 985, 5391
14248, 4125, 4637, 3793, 4853
14249, 3457, 1796, 25, 3502
14250, 2391, 2533, 5019, 5525
14251, 1979, 283, 2927, 4419
14252, 2021, 4509, 3273, 4776
14253, 388, 4508, 1640, 4777
14254, 3533, 3471, 3529, 5038
14255, 3354, 2734, 3367, 4497
14256, 2565, 2423, 3012, 4769
14257, 932, 790, 1379, 4768
14258, 2650, 2649, 5153, 5200
14259, 3640, 5375, 3619, 5390
14260, 1431, 1411, 4623, 4846
14261, 3508, 3456, 258, 3100
14262, 3734, 4274, 3706, 5455
14263, 482, 4258, 1398, 5262
14264, 2687, 4804, 4140, 5396
14265, 4294, 4739, 3935, 5202
14266, 3826, 4729, 4475, 4831
14267, 3874, 4725, 4474, 4829
14268, 3873, 4724, 4473, 4828
14269, 2684, 2554, 4455, 5317
14270, 1051, 921, 4456, 5316
14271, 2405, 4196, 4953, 5274
14272, 4217, 5108, 4346, 5350
14273, 4216, 5107, 4347, 5349
14274, 2836, 2310, 3089, 4873
14275, 3367, 4497, 2734, 5509
14276, 3187, 2614, 2604, 5135
14277, 2918, 3374, 1962, 5143
14278, 1900, 1928, 1850, 5356
14279, 3486, 3079, 251, 3455
14280, 1723, 1741, 1635, 4335
14281, 2202, 2205, 3143, 5175
14282, 3844, 4322, 4257, 4773
14283, 3911, 5089, 4226, 5205
14284, 4572, 4792, 3782, 4955
14285, 3786, 4791, 4589, 4955
14286, 3757, 5194, 5125, 5334
14287, 65, 347, 3745, 3687
14288, 4340, 4882, 4053, 5389
14289, 3154, 2695, 2818, 4483
14290, 1724, 1713, 1099, 5104
14291, 2553, 2705, 2707, 4403
14292, 896, 4505, 1036, 5381
14293, 4643, 4722, 4155, 5228
14294, 4644, 4723, 4156, 5227
14295, 4169, 4721, 4645, 5229
14296, 4646, 4719, 4162, 5230
14297, 2574, 4705, 2831, 5142
14298, 4014, 4681, 4108, 5338
14299, 3921, 5020, 4285, 5522
14300, 3922, 5021, 4286, 5521
14301, 4177, 4728, 4648, 5226
14302, 3313, 4756, 2818, 5335
14303, 1052, 1128, 1127, 4452
14304, 2761, 2760, 2685, 4453
14305, 4524, 4149, 4687, 5336
14306, 3590, 283, 3613, 4419
14307, 524, 523, 521, 4486
14308, 2157, 2156, 2154, 4485
14309, 2639, 3301, 2635, 4484
14310, 3357, 3346, 2732, 5105
14311, 3208, 2344, 2343, 4487
14312, 3901, 5135, 4155, 5156
14313, 4155, 5135, 3910, 5156
14314, 167, 1877, 3147, 1838
14315, 1237, 4771, 1684, 4812
14316, 3923, 4776, 4509, 4845
14317, 3924, 4777, 4508, 4844
14318, 941, 4690, 1198, 5140
14319, 192, 1885, 1829, 1995
14320, 3521, 44, 362, 3483
14321, 3260, 2620, 3240, 5423
14322, 471, 4296, 472, 5244
14323, 899, 1722, 900, 5079
14324, 4250, 5116, 3984, 5211
14325, 2372, 4762, 2072, 4849
14326, 2372, 2076, 4762, 4848
14327, 949, 759, 830, 4488
14328, 2463, 2582, 2392, 4489
14329, 2485, 4416, 3266, 5373
14330, 852, 4415, 1633, 5374
14331, 4058, 4826, 4733, 5150
14332, 1894, 3429, 1933, 5482
14333, 904, 780, 1553, 4366
14334, 2046, 4499, 2048, 4518
14335, 4248, 3986, 5361, 5502
14336, 2294, 2295, 2349, 5116
14337, 1341, 1345, 1755, 4818
14338, 1653, 996, 1659, 5117
14339, 2529, 4506, 2669, 5368
14340, 575, 567, 624, 5115
14341, 1656, 993, 1192, 5114
14342, 4739, 5202, 4294, 5520
14343, 2724, 2821, 3283, 4972
14344, 817, 4348, 816, 4949
14345, 4717, 5100, 3906, 5497
14346, 4718, 5101, 3907, 5496
14347, 2992, 3712, 219, 4920
14348, 4790, 4824, 4075, 5186
14349, 4333, 4782, 4084, 5175
14350, 3789, 4408, 4283, 4449
14351, 3790, 4409, 4284, 4450
14352, 3910, 4908, 4291, 5158
14353, 3909, 4907, 4292, 5159
14354, 2310, 2059, 3089, 5109
14355, 2341, 3162, 3135, 5111
14356, 3942, 4794, 4540, 5053
14357, 3805, 4897, 4410, 5309
14358, 2468, 2467, 3345, 4681
14359, 2937, 2424, 3264, 4512
14360, 1680, 4782, 889, 4909
14361, 3803, 4643, 4155, 5228
14362, 3804, 4644, 4156, 5227
14363, 3849, 4169, 4645, 5229
14364, 3845, 4646, 4162, 5230
14365, 1837, 3430, 159, 1875
14366, 3470, 1797, 11, 3509
14367, 4177, 4648, 3954, 5226
14368, 3590, 4419, 3614, 4967
14369, 2828, 4773, 3256, 4978
14370, 3940, 4609, 4337, 5090
14371, 3529, 3497, 4731, 5038
14372, 567, 5115, 575, 5206
14373, 3194, 4904, 3192, 5032
14374, 4422, 4603, 3913, 4886
14375, 4423, 4604, 3914, 4887
14376, 3725, 3728, 3692, 4316
14377, 341, 1209, 371, 4317
14378, 2004, 1974, 2842, 4316
14379, 3726, 3727, 3700, 4317
14380, 424, 1387, 427, 5099
14381, 1449, 26, 334, 3457
14382, 1854, 1846, 176, 3080
14383, 1554, 981, 971, 5097
14384, 3236, 3227, 2948, 5096
14385, 1315, 1603, 1594, 5095
14386, 4760, 4033, 5276, 5381
14387, 2592, 4221, 2590, 5505
14388, 2059, 4430, 2060, 5109
14389, 2805, 2796, 2502, 4444
14390, 1172, 1163, 869, 4443
14391, 4257, 4322, 3878, 4773
14392, 1849, 1891, 1844, 4454
14393, 4279, 4345, 3769, 5367
14394, 2403, 2202, 3143, 4870
14395, 4319, 5258, 4335, 5448
14396, 957, 959, 4222, 5506
14397, 4128, 4087, 5194, 5387
14398, 3742, 3678, 4263, 5250
14399, 1210, 1074, 5484, 5519
14400, 4760, 4811, 4033, 5381
14401, 4211, 4358, 3791, 5102
14402, 4405, 5074, 3945, 5204
14403, 3977, 4363, 4281, 5370
14404, 3976, 4364, 4282, 5369
14405, 4192, 5095, 1603, 5180
14406, 1945, 3079, 250, 3469
14407, 329, 3577, 4967, 5375
14408, 4129, 4088, 5195, 5382
14409, 947, 1372, 647, 4725
14410, 2580, 3005, 2280, 4724
14411, 2615, 2616, 2588, 4723
14412, 955, 982, 983, 4722
14413, 2754, 4640, 5168, 5465
14414, 1024, 1022, 1023, 4721
14415, 2657, 2823, 3245, 4720
14416, 2221, 2342, 3199, 4727
14417, 2183, 2184, 2169, 4718
14418, 550, 551, 536, 4717
14419, 664, 1487, 602, 4716
14420, 3450, 3409, 245, 3512
14421, 1981, 2944, 2943, 4269
14422, 721, 765, 764, 4282
14423, 2397, 2354, 2398, 4281
14424, 2398, 2399, 2397, 4281
14425, 765, 766, 764, 4282
14426, 1464, 1082, 1493, 4293
14427, 3126, 3097, 2715, 4294
14428, 1267, 1652, 1660, 4284
14429, 3293, 2900, 3285, 4283
14430, 1464, 1493, 795, 4293
14431, 3126, 2428, 3097, 4294
14432, 1503, 1417, 516, 4286
14433, 3050, 2149, 3136, 4285
14434, 1007, 1267, 1660, 4284
14435, 2640, 2900, 3293, 4283
14436, 1417, 518, 516, 4286
14437, 2151, 2149, 3050, 4285
14438, 2116, 2117, 2118, 4303
14439, 485, 483, 484, 4304
14440, 2164, 2159, 3037, 4301
14441, 2273, 3006, 3105, 4302
14442, 2028, 2030, 2029, 4288
14443, 397, 396, 395, 4287
14444, 424, 423, 422, 4305
14445, 609, 1481, 608, 4289
14446, 858, 930, 1624, 4307
14447, 882, 862, 1663, 4306
14448, 2632, 3239, 3193, 4290
14449, 1481, 1457, 608, 4289
14450, 1295, 1075, 1296, 4299
14451, 2928, 2708, 2929, 4300
14452, 2435, 2604, 2513, 4291
14453, 880, 802, 971, 4292
14454, 2102, 2103, 2104, 4295
14455, 469, 470, 471, 4296
14456, 2167, 2132, 2131, 4310
14457, 639, 1517, 1625, 4297
14458, 3258, 2272, 3150, 4298
14459, 3026, 2058, 2558, 4308
14460, 2969, 2967, 2288, 4309
14461, 2157, 3037, 2159, 4301
14462, 930, 858, 817, 4307
14463, 3006, 2827, 3105, 4302
14464, 2118, 2117, 2119, 4303
14465, 2969, 2968, 2967, 4309
14466, 422, 1387, 424, 4305
14467, 2058, 3026, 2056, 4308
14468, 986, 1663, 862, 4306
14469, 3193, 3239, 3035, 4290
14470, 2435, 3047, 2604, 4291
14471, 971, 802, 1414, 4292
14472, 2103, 2105, 2104, 4295
14473, 471, 470, 472, 4296
14474, 1295, 1268, 1075, 4299
14475, 2928, 2901, 2708, 4300
14476, 639, 1625, 1269, 4297
14477, 2272, 3258, 2902, 4298
14478, 2131, 2177, 2167, 4310
14479, 695, 694, 696, 4311
14480, 2328, 2327, 2329, 4312
14481, 779, 960, 1339, 4313
14482, 4108, 4803, 4222, 5465
14483, 1439, 4903, 607, 5332
14484, 695, 693, 694, 4311
14485, 2328, 2326, 2327, 4312
14486, 960, 1337, 1339, 4313
14487, 4454, 5049, 4101, 5252
14488, 3445, 3491, 46, 1757
14489, 1853, 1833, 194, 3390
14490, 4376, 4471, 3905, 4478
14491, 2591, 4221, 2592, 5505
14492, 1865, 1934, 5130, 5306
14493, 3279, 2545, 3198, 4314
14494, 1646, 912, 1565, 4315
14495, 2240, 2243, 2242, 5081
14496, 1264, 4440, 952, 4750
14497, 3502, 1796, 24, 3498
14498, 2489, 2587, 4411, 5406
14499, 4248, 5361, 4387, 5502
14500, 958, 4222, 959, 5506
14501, 2766, 1943, 3009, 4275
14502, 4103, 4519, 4264, 5358
14503, 1565, 1262, 1646, 4315
14504, 3198, 2895, 3279, 4314
14505, 1979, 3613, 283, 4419
14506, 4269, 4736, 4104, 5233
14507, 1505, 504, 1637, 4963
14508, 3137, 2137, 3270, 4962
14509, 3693, 3746, 3694, 4400
14510, 318, 1750, 3478, 4938
14511, 3383, 1847, 1951, 4940
14512, 1819, 1782, 84, 4753
14513, 3452, 3415, 234, 4752
14514, 4054, 4811, 4760, 5448
14515, 4355, 5151, 3587, 5236
14516, 4354, 5152, 3588, 5235
14517, 4737, 5484, 4145, 5504
14518, 1337, 4313, 960, 5251
14519, 3534, 3472, 3548, 4460
14520, 4090, 4493, 4481, 5215
14521, 1178, 4740, 1177, 4814
14522, 3048, 5342, 3049, 5355
14523, 1415, 5343, 1416, 5354
14524, 585, 710, 586, 4976
14525, 2218, 2343, 2219, 4977
14526, 1143, 5298, 4126, 5362
14527, 2776, 5299, 4127, 5363
14528, 1300, 1549, 1430, 4741
14529, 3182, 3063, 2933, 4742
14530, 3861, 4950, 4165, 5314
14531, 1780, 5300, 3531, 5318
14532, 4129, 5121, 2774, 5382
14533, 884, 4445, 885, 5397
14534, 2976, 1942, 2975, 5409
14535, 3429, 5270, 1933, 5482
14536, 1141, 4128, 5125, 5387
14537, 3844, 5169, 4541, 5224
14538, 2428, 4294, 3126, 5406
14539, 1873, 1841, 110, 1783
14540, 2928, 4300, 2929, 5405
14541, 795, 4293, 1493, 5408
14542, 1871, 1965, 3438, 5216
14543, 2900, 4283, 2640, 5277
14544, 3453, 3553, 3487, 4758
14545, 1820, 1919, 1873, 4757
14546, 882, 4306, 1663, 5340
14547, 3972, 4929, 4746, 5341
14548, 2604, 4291, 3047, 5342
14549, 1414, 971, 4292, 5343
14550, 347, 65, 1691, 3687
14551, 422, 1387, 4305, 5415
14552, 2632, 4290, 3193, 5413
14553, 2167, 2132, 4310, 5417
14554, 1235, 1234, 330, 5357
14555, 3844, 4896, 4541, 5169
14556, 4451, 4496, 4098, 5216
14557, 3627, 3588, 5152, 5235
14558, 3626, 3587, 5151, 5236
14559, 3958, 4277, 5196, 5351
14560, 1832, 313, 107, 1467
14561, 3161, 3219, 4851, 5240
14562, 1586, 4850, 1528, 5241
14563, 3780, 4308, 4305, 5378
14564, 2417, 2472, 3154, 4816
14565, 435, 437, 649, 5074
14566, 725, 1430, 1162, 4741
14567, 2795, 2358, 3063, 4742
14568, 4026, 4402, 4359, 4671
14569, 2927, 1960, 3361, 4319
14570, 1870, 1819, 84, 4753
14571, 3504, 3452, 234, 4752
14572, 3355, 2674, 3373, 5098
14573, 2950, 2543, 4871, 4931
14574, 1306, 4636, 322, 5388
14575, 1236, 1238, 1239, 5498
14576, 2332, 4793, 3244, 5261
14577, 1991, 2767, 3412, 4278
14578, 649, 1355, 435, 4280
14579, 1315, 1630, 989, 4279
14580, 1630, 1189, 989, 4279
14581, 1355, 432, 435, 4280
14582, 2051, 2402, 4518, 5237
14583, 1101, 4420, 1734, 5154
14584, 4802, 5419, 4152, 5423
14585, 4396, 4443, 4281, 5467
14586, 4397, 4444, 4282, 5466
14587, 3489, 3450, 3559, 4684
14588, 1860, 1862, 170, 3410
14589, 4014, 4108, 4971, 5338
14590, 2956, 2699, 2820, 4914
14591, 3889, 4486, 4118, 5051
14592, 3888, 4485, 4119, 5052
14593, 4115, 4484, 3808, 5050
14594, 961, 1178, 1177, 4814
14595, 4670, 4021, 5190, 5492
14596, 4669, 4022, 5189, 5491
14597, 3691, 59, 330, 5357
14598, 2147, 2146, 2148, 4886
14599, 515, 514, 513, 4887
14600, 3112, 2438, 2314, 4885
14601, 1634, 1629, 623, 4884
14602, 443, 447, 444, 4888
14603, 2077, 2076, 2080, 4889
14604, 607, 1439, 610, 4903
14605, 3244, 2321, 2319, 4899
14606, 1697, 1013, 1012, 4898
14607, 463, 1601, 459, 4892
14608, 3258, 2926, 2902, 4895
14609, 1269, 1625, 1293, 4894
14610, 3308, 2984, 2638, 4890
14611, 2839, 3192, 3194, 4904
14612, 1485, 1455, 1073, 4906
14613, 1559, 544, 1561, 4905
14614, 1094, 4691, 1000, 5054
14615, 1943, 4275, 2766, 4958
14616, 421, 420, 419, 5469
14617, 2951, 4089, 4871, 5293
14618, 3737, 4263, 3678, 4969
14619, 1233, 1031, 1465, 4911
14620, 3098, 2866, 2664, 4912
14621, 2236, 2237, 2235, 5058
14622, 4061, 5122, 4751, 5319
14623, 3637, 3611, 3638, 5395
14624, 3636, 3603, 3639, 5394
14625, 4270, 4483, 3966, 4756
14626, 4165, 4868, 4593, 5139
14627, 2244, 2247, 2246, 4635
14628, 1845, 1857, 99, 5501
14629, 4074, 4734, 4439, 5454
14630, 1210, 5484, 4737, 5504
14631, 1733, 4736, 350, 5233
14632, 3584, 4269, 3631, 5080
14633, 3481, 337, 48, 1748
14634, 196, 1852, 1970, 3381
14635, 3536, 4764, 3561, 4964
14636, 1315, 4279, 989, 5180
14637, 1285, 1740, 4967, 5460
14638, 975, 973, 1039, 4878
14639, 2372, 2072, 3153, 4849
14640, 3142, 3161, 3219, 4851
14641, 1528, 1586, 1509, 4850
14642, 3219, 3243, 2512, 4851
14643, 879, 1586, 1610, 4850
14644, 2913, 4848, 2372, 4849
14645, 2372, 3179, 2076, 4848
14646, 3067, 2372, 2913, 4848
14647, 1317, 910, 4877, 4930
14648, 2397, 2421, 4692, 5370
14649, 764, 788, 4693, 5369
14650, 1136, 1140, 4454, 5252
14651, 2670, 2462, 3282, 5448
14652, 3859, 4489, 4122, 5055
14653, 3657, 3606, 4676, 5509
14654, 3955, 4176, 4831, 5511
14655, 1355, 4280, 649, 5464
14656, 108, 1866, 1832, 1467
14657, 3860, 4488, 4121, 5057
14658, 2359, 4458, 2360, 4755
14659, 2375, 4696, 3225, 4773
14660, 4274, 4754, 3959, 4969
14661, 2408, 2409, 3068, 4832
14662, 3738, 3708, 3685, 4979
14663, 1101, 1734, 1721, 5154
14664, 2940, 2939, 1955, 4393
14665, 4547, 4897, 3774, 5499
14666, 2939, 4393, 2940, 5446
14667, 1981, 2945, 2944, 5080
14668, 492, 4399, 491, 4739
14669, 3261, 3200, 2293, 4991
14670, 4005, 4797, 4670, 5329
14671, 4004, 4798, 4669, 5328
14672, 4540, 4794, 3942, 5462
14673, 1448, 1136, 1140, 4454
14674, 1045, 1046, 1647, 4932
14675, 3625, 278, 3592, 5394
14676, 128, 3593, 3624, 5395
14677, 4183, 4806, 4109, 5133
14678, 3530, 3568, 3473, 4699
14679, 1781, 123, 343, 1884
14680, 604, 1425, 665, 5365
14681, 1318, 4097, 4877, 5306
14682, 987, 1199, 4336, 5217
14683, 3876, 4571, 4883, 4893
14684, 1306, 322, 1307, 5388
14685, 1297, 1678, 543, 4929
14686, 2567, 4875, 2492, 4924
14687, 4019, 4967, 4732, 5460
14688, 2411, 4359, 2548, 5416
14689, 3511, 1514, 19, 3471
14690, 1699, 1532, 1237, 4812
14691, 3800, 4897, 4547, 5309
14692, 242, 3510, 3141, 3449
14693, 3761, 4437, 4313, 4458
14694, 1821, 1850, 1849, 4454
14695, 4727, 5036, 4171, 5488
14696, 2970, 2535, 2971, 4826
14697, 2479, 2888, 2546, 5194
14698, 913, 846, 1255, 5195
14699, 3760, 5032, 4310, 5417
14700, 539, 1261, 565, 4917
14701, 2172, 2894, 2198, 4918
14702, 4499, 4518, 3902, 4842
14703, 4144, 4818, 4091, 5297
14704, 810, 809, 741, 4869
14705, 2442, 2374, 2443, 4868
14706, 2861, 2591, 3004, 4974
14707, 2260, 4421, 2201, 5405
14708, 3991, 4413, 4312, 4742
14709, 3990, 4414, 4311, 4741
14710, 1950, 3409, 3450, 4772
14711, 3827, 4791, 4589, 5263
14712, 655, 777, 1336, 5352
14713, 1011, 1361, 1707, 4956
14714, 650, 1595, 1398, 5197
14715, 4182, 4803, 4108, 5137
14716, 4820, 4839, 4008, 5459
14717, 1839, 1862, 1908, 4709
14718, 1228, 958, 1371, 4971
14719, 1104, 4220, 1105, 5294
14720, 4185, 4052, 4756, 5352
14721, 2193, 2192, 2195, 4688
14722, 560, 559, 562, 4689
14723, 2520, 2630, 2631, 4687
14724, 1343, 1340, 1341, 4429
14725, 4220, 4096, 5294, 5339
14726, 1445, 1314, 4823, 4858
14727, 3078, 2947, 4822, 4859
14728, 1993, 3158, 268, 3500
14729, 1525, 118, 360, 1868
14730, 4215, 4031, 4676, 5509
14731, 1160, 926, 857, 4784
14732, 3966, 4816, 4447, 5352
14733, 2973, 2971, 4708, 4826
14734, 4185, 5284, 4052, 5352
14735, 1805, 3503, 332, 5215
14736, 4037, 4708, 4459, 5150
14737, 3581, 3645, 3648, 5078
14738, 4028, 4871, 4517, 4931
14739, 3506, 3448, 236, 2891
14740, 4645, 4721, 4169, 5399
14741, 4155, 4722, 4643, 4988
14742, 4156, 4723, 4644, 4987
14743, 4162, 4719, 4646, 4986
14744, 1332, 714, 4864, 4957
14745, 1007, 1660, 1665, 5499
14746, 3410, 2976, 1990, 4709
14747, 2347, 4865, 2965, 4948
14748, 3746, 3740, 3674, 4968
14749, 3429, 2977, 5270, 5482
14750, 590, 591, 572, 4270
14751, 1894, 1967, 3082, 5482
14752, 3467, 1142, 13, 3505
14753, 4698, 4947, 4168, 5082
14754, 4084, 5175, 4782, 5380
14755, 4275, 5049, 4454, 5356
14756, 4336, 5217, 1199, 5464
14757, 1527, 332, 15, 3503
14758, 3470, 3545, 3549, 4752
14759, 4051, 4415, 4179, 5282
14760, 4050, 4416, 4180, 5283
14761, 2449, 2986, 2446, 4950
14762, 379, 653, 1498, 4951
14763, 1273, 1275, 1427, 4941
14764, 2906, 2908, 3060, 4942
14765, 2923, 3275, 2949, 4944
14766, 1316, 1290, 1642, 4943
14767, 3289, 3310, 2088, 4947
14768, 1745, 1216, 1219, 5126
14769, 3499, 3466, 238, 1969
14770, 3418, 165, 1867, 1864
14771, 1903, 1902, 1881, 4417
14772, 3516, 3537, 3532, 4418
14773, 1914, 1917, 1837, 4753
14774, 3670, 3734, 3706, 5455
14775, 2849, 2852, 3378, 5127
14776, 353, 39, 1749, 3515
14777, 3382, 1986, 187, 1883
14778, 1240, 544, 1491, 5264
14779, 2973, 2972, 2971, 4826
14780, 2899, 3181, 2792, 4332
14781, 1266, 1548, 1159, 4331
14782, 3949, 4412, 4198, 5489
14783, 2829, 2759, 2703, 4448
14784, 4145, 4813, 4255, 5484
14785, 4416, 5373, 4050, 5493
14786, 4415, 5374, 4051, 5494
14787, 3705, 4852, 4266, 5250
14788, 1466, 38, 353, 3484
14789, 186, 1986, 3099, 1840
14790, 2684, 2554, 2480, 4455
14791, 921, 847, 1051, 4456
14792, 2391, 2533, 3292, 5019
14793, 3579, 3641, 3644, 4872
14794, 3464, 3488, 254, 3425
14795, 3686, 4265, 3740, 4968
14796, 4033, 4800, 5105, 5126
14797, 2579, 4589, 2318, 4955
14798, 2360, 2522, 3309, 4755
14799, 2566, 2567, 2492, 4924
14800, 3828, 4334, 4205, 5170
14801, 1616, 1173, 1667, 4922
14802, 3249, 2806, 3300, 4923
14803, 980, 798, 4514, 4985
14804, 2431, 4513, 2613, 4984
14805, 4034, 4801, 5104, 5127
14806, 3103, 2306, 2386, 4925
14807, 1470, 673, 753, 4926
14808, 3901, 4500, 4388, 5042
14809, 1825, 175, 1967, 3080
14810, 4019, 4419, 4319, 4967
14811, 3686, 3739, 4265, 4979
14812, 2472, 2471, 2550, 4799
14813, 4069, 4839, 4820, 5459
14814, 3140, 244, 3489, 3450
14815, 4102, 4754, 4274, 5498
14816, 1270, 914, 1099, 5387
14817, 4212, 4363, 3997, 4922
14818, 4213, 4364, 3996, 4923
14819, 3422, 2934, 3133, 4710
14820, 1500, 1789, 1301, 4711
14821, 2605, 2386, 4656, 4925
14822, 753, 4655, 972, 4926
14823, 1344, 4954, 1449, 5294
14824, 2903, 2547, 2732, 5382
14825, 43, 3462, 3521, 4711
14826, 1828, 1885, 191, 4710
14827, 4100, 5105, 4800, 5126
14828, 2849, 1999, 2848, 4354
14829, 1216, 365, 1215, 4355
14830, 3942, 4218, 5043, 5295
14831, 4099, 5104, 4801, 5127
14832, 3973, 5081, 4249, 5287
14833, 4249, 5081, 3799, 5287
14834, 3501, 1475, 21, 3468
14835, 4440, 5069, 4055, 5113
14836, 3725, 3731, 3688, 4970
14837, 3302, 3093, 4525, 5048
14838, 4504, 4743, 415, 5043
14839, 3693, 3698, 3746, 4968
14840, 4008, 4820, 4785, 4839
14841, 2748, 2750, 2749, 4441
14842, 1116, 1115, 1117, 4442
14843, 2111, 4570, 2168, 5514
14844, 451, 4544, 648, 5515
14845, 2084, 4543, 2281, 5516
14846, 686, 684, 4580, 5517
14847, 2865, 4614, 3237, 5518
14848, 1973, 278, 2853, 5394
14849, 340, 128, 1220, 5395
14850, 865, 885, 4445, 5418
14851, 1996, 3140, 243, 3489
14852, 3981, 4612, 4903, 4904
14853, 3800, 4301, 4256, 5054
14854, 2348, 2277, 2347, 4712
14855, 785, 4456, 1068, 5326
14856, 2418, 4455, 2701, 5325
14857, 4047, 4435, 4392, 5174
14858, 4123, 4483, 4007, 5083
14859, 4027, 4877, 4650, 4930
14860, 4021, 4797, 4670, 5190
14861, 4022, 4798, 4669, 5189
14862, 4034, 4801, 4340, 5395
14863, 590, 655, 591, 4270
14864, 4276, 5270, 4683, 5482
14865, 1332, 761, 714, 4957
14866, 3072, 3088, 4615, 5502
14867, 4033, 4800, 4341, 5394
14868, 2258, 4527, 2254, 5028
14869, 621, 625, 4528, 5029
14870, 1310, 1735, 1737, 4857
14871, 2375, 3225, 2453, 4773
14872, 285, 3608, 2955, 5131
14873, 2394, 2347, 2965, 4948
14874, 726, 4558, 705, 5026
14875, 600, 4576, 662, 5025
14876, 2139, 4551, 2135, 4996
14877, 506, 4550, 502, 4997
14878, 577, 4535, 578, 5006
14879, 3111, 4585, 2716, 5008
14880, 1478, 4584, 1083, 5009
14881, 2162, 4557, 3177, 5007
14882, 2036, 2035, 4590, 5011
14883, 402, 4591, 403, 5012
14884, 1486, 4560, 464, 4998
14885, 3119, 4559, 2097, 4999
14886, 1276, 4587, 1274, 5000
14887, 2909, 4586, 2907, 5001
14888, 2357, 4575, 2291, 5023
14889, 582, 583, 4561, 5002
14890, 724, 4574, 658, 5024
14891, 689, 4610, 1392, 5005
14892, 2678, 2612, 2677, 4715
14893, 692, 690, 4613, 5003
14894, 2323, 4614, 2325, 5004
14895, 688, 4580, 1611, 5014
14896, 1560, 4538, 1443, 5010
14897, 1606, 1001, 4583, 5013
14898, 801, 4533, 735, 5015
14899, 2434, 4534, 2368, 5016
14900, 656, 4531, 540, 5017
14901, 2289, 4532, 2173, 5018
14902, 1207, 4603, 1531, 5020
14903, 3164, 2840, 4604, 5021
14904, 3907, 4943, 5207, 5496
14905, 3906, 4944, 5208, 5497
14906, 2819, 2818, 4483, 5335
14907, 4256, 4301, 3824, 5054
14908, 2334, 4552, 2355, 5022
14909, 4019, 4732, 4419, 5460
14910, 3489, 3547, 3449, 4684
14911, 2378, 2376, 3027, 4706
14912, 1679, 889, 1680, 4782
14913, 773, 737, 738, 5283
14914, 2371, 2406, 2370, 5282
14915, 3271, 2678, 3190, 4715
14916, 4104, 4736, 4269, 5500
14917, 2466, 2486, 2485, 4836
14918, 833, 853, 852, 4837
14919, 2063, 2061, 2062, 5255
14920, 3733, 3680, 5357, 5498
14921, 2011, 2013, 4685, 4995
14922, 2828, 3225, 3256, 4773
14923, 1722, 4428, 1041, 4732
14924, 3835, 4166, 4473, 4828
14925, 3836, 4165, 4474, 4829
14926, 3845, 4472, 4162, 4830
14927, 4173, 4479, 3934, 4827
14928, 3826, 4475, 4170, 4831
14929, 2712, 4638, 2504, 5030
14930, 3313, 3154, 2818, 4756
14931, 4086, 4417, 4268, 5061
14932, 4085, 4418, 4267, 5062
14933, 4439, 3971, 4751, 5122
14934, 4078, 4683, 4276, 5324
14935, 3295, 4490, 3371, 5273
14936, 1847, 3383, 189, 1882
14937, 41, 1750, 3519, 3478
14938, 3805, 4394, 4302, 4495
14939, 1062, 839, 1061, 4839
14940, 3768, 4407, 4150, 4936
14941, 3767, 4406, 4151, 4935
14942, 596, 1444, 4576, 5112
14943, 2838, 4624, 2601, 5113
14944, 4019, 4419, 4967, 5460
14945, 4747, 4932, 4012, 5525
14946, 3987, 4904, 4903, 5332
14947, 2673, 2461, 4677, 5035
14948, 4785, 4820, 4069, 4839
14949, 4183, 5133, 4083, 5526
14950, 4226, 5089, 3933, 5205
14951, 3958, 5196, 4369, 5351
14952, 3992, 4750, 4737, 5167
14953, 3981, 4612, 4904, 5032
14954, 1523, 4680, 1736, 5039
14955, 4358, 4430, 3948, 4783
14956, 1763, 1449, 334, 5294
14957, 2481, 2410, 4785, 5305
14958, 918, 919, 873, 4507
14959, 4004, 4331, 4179, 5328
14960, 4005, 4332, 4180, 5329
14961, 783, 4634, 825, 5150
14962, 3087, 3031, 3201, 5042
14963, 2283, 3228, 3031, 5042
14964, 4359, 4671, 4402, 5421
14965, 2644, 2556, 3326, 4838
14966, 2791, 2623, 2790, 5327
14967, 4151, 4279, 3814, 5364
14968, 2606, 4657, 2608, 5031
14969, 3897, 4297, 4295, 5503
14970, 2548, 2474, 3007, 4359
14971, 3940, 4280, 4146, 5371
14972, 987, 1199, 1161, 4336
14973, 434, 1590, 438, 4337
14974, 2200, 2175, 3204, 4338
14975, 1368, 1326, 4634, 5186
14976, 1185, 1062, 1184, 4339
14977, 2114, 4594, 2303, 5191
14978, 4110, 4824, 4683, 5409
14979, 3813, 4375, 4374, 4953
14980, 1888, 4260, 1937, 5302
14981, 3522, 4259, 3570, 5303
14982, 1094, 1674, 4691, 5178
14983, 2771, 2772, 2688, 5457
14984, 1138, 1139, 1055, 5456
14985, 834, 4631, 786, 5424
14986, 3652, 3606, 3586, 4420
14987, 1210, 1221, 4737, 5484
14988, 2503, 2470, 4638, 5027
14989, 2359, 2360, 2338, 4755
14990, 2404, 3247, 2297, 4511
14991, 1767, 335, 34, 3518
14992, 3791, 4134, 5102, 5462
14993, 2032, 3073, 2034, 4408
14994, 399, 1440, 401, 4409
14995, 2561, 2489, 2587, 4411
14996, 2078, 3297, 2882, 4412
14997, 1669, 998, 997, 4410
14998, 406, 404, 405, 4407
14999, 2038, 2039, 2037, 4406
15000, 1733, 1721, 350, 4736
15001, 2537, 2538, 2414, 4353
15002, 2051, 5053, 2053, 5237
15003, 3796, 4495, 4188, 5344
15004, 4198, 4337, 3949, 5489
15005, 1954, 167, 3147, 1838
15006, 3520, 49, 3465, 5062
15007, 1886, 197, 1831, 5061
15008, 1629, 1480, 4541, 5224
15009, 3306, 4598, 3116, 5225
15010, 1863, 1920, 1924, 5372
15011, 4031, 4497, 4139, 5458
15012, 2175, 4463, 2170, 5417
15013, 1133, 4959, 5318, 5379
15014, 2279, 2015, 2898, 4414
15015, 646, 382, 1265, 4413
15016, 1204, 4259, 368, 5376
15017, 2001, 2837, 4260, 5377
15018, 1863, 3400, 182, 1842
15019, 3143, 2809, 2878, 4870
15020, 4216, 4347, 3772, 4962
15021, 4217, 4346, 3773, 4963
15022, 1946, 3507, 256, 3081
15023, 331, 119, 1525, 1856
15024, 269, 3158, 1964, 3490
15025, 4314, 4521, 3859, 5140
15026, 4007, 4521, 4314, 5140
15027, 2654, 4595, 2779, 5254
15028, 3868, 4424, 5248, 5278
15029, 4008, 4520, 4315, 5142
15030, 4315, 4520, 3860, 5142
15031, 3937, 4924, 4336, 5217
15032, 4070, 4145, 5386, 5519
15033, 3937, 4336, 4924, 5449
15034, 3176, 3364, 2671, 4879
15035, 30, 310, 1780, 3458
15036, 3014, 4439, 3107, 5122
15037, 3160, 163, 1813, 1871
15038, 848, 777, 732, 4787
15039, 934, 859, 933, 4802
15040, 2481, 2410, 2365, 4785
15041, 4312, 4611, 3766, 5145
15042, 4311, 4610, 3765, 5144
15043, 3924, 4611, 4312, 5145
15044, 3923, 4610, 4311, 5144
15045, 4729, 4831, 3826, 4992
15046, 4725, 4829, 3874, 4989
15047, 4724, 4828, 3873, 4990
15048, 818, 817, 858, 4348
15049, 1795, 1142, 1141, 4481
15050, 2615, 4723, 2966, 5227
15051, 982, 4722, 1333, 5228
15052, 1022, 1020, 4721, 5229
15053, 1542, 4719, 985, 5230
15054, 1026, 4728, 1028, 5226
15055, 2153, 4547, 2154, 4965
15056, 520, 4548, 521, 4966
15057, 3364, 2955, 3363, 5131
15058, 2711, 2775, 3385, 4496
15059, 4050, 4768, 4216, 4855
15060, 4051, 4769, 4217, 4856
15061, 4297, 4350, 3897, 4810
15062, 4298, 4351, 3896, 4809
15063, 847, 785, 738, 4788
15064, 2418, 2371, 2480, 4789
15065, 2993, 1985, 3343, 4682
15066, 567, 574, 548, 4647
15067, 4048, 4881, 4513, 5068
15068, 4049, 4880, 4514, 5067
15069, 1826, 1938, 1887, 4260
15070, 3571, 3523, 3460, 4259
15071, 1121, 4639, 1384, 5171
15072, 1250, 976, 1588, 4649
15073, 843, 1384, 1385, 4639
15074, 4045, 4814, 4740, 4915
15075, 120, 1139, 1810, 5456
15076, 270, 2772, 3443, 5457
15077, 2476, 3017, 3018, 4640
15078, 4061, 4439, 4751, 5122
15079, 4045, 4763, 4515, 4873
15080, 3780, 5415, 4435, 5469
15081, 4150, 4407, 3771, 4936
15082, 4151, 4406, 3770, 4935
15083, 1729, 1046, 1044, 4805
15084, 2687, 4140, 4804, 5410
15085, 4113, 5148, 4039, 5299
15086, 4114, 5149, 4040, 5298
15087, 559, 561, 4689, 5063
15088, 2192, 2194, 4688, 5064
15089, 3805, 4450, 4284, 5499
15090, 2754, 4640, 3017, 5168
15091, 1670, 1513, 570, 4374
15092, 676, 1673, 1483, 4373
15093, 2631, 4687, 3276, 5128
15094, 2457, 3171, 4677, 5040
15095, 1538, 4678, 824, 5041
15096, 674, 750, 673, 4714
15097, 671, 672, 673, 4714
15098, 2269, 2337, 3175, 4713
15099, 2379, 2268, 2269, 4713
15100, 1373, 5336, 1194, 5353
15101, 3914, 4385, 4329, 5241
15102, 3913, 4386, 4330, 5240
15103, 4327, 4379, 3925, 5238
15104, 285, 3596, 3608, 5131
15105, 4001, 4742, 4413, 5346
15106, 4000, 4741, 4414, 5345
15107, 2108, 4512, 2937, 4821
15108, 1845, 99, 312, 5501
15109, 2855, 4387, 2706, 5502
15110, 1448, 1821, 105, 1792
15111, 3739, 3738, 3673, 4979
15112, 3412, 1966, 253, 3488
15113, 75, 3721, 3666, 5134
15114, 3759, 4943, 4464, 5207
15115, 3758, 4944, 4465, 5208
15116, 2776, 3342, 5303, 5363
15117, 1143, 1709, 5302, 5362
15118, 3540, 3514, 3535, 4954
15119, 4259, 5148, 4127, 5376
15120, 4260, 5149, 4126, 5377
15121, 826, 1098, 914, 4861
15122, 2459, 2731, 2547, 4860
15123, 4064, 5223, 4209, 5297
15124, 4209, 5223, 4091, 5297
15125, 1752, 1078, 1142, 4481
15126, 4123, 5083, 4007, 5296
15127, 2019, 2021, 3273, 4776
15128, 388, 1640, 386, 4777
15129, 1246, 770, 1245, 4774
15130, 2249, 2284, 2285, 4775
15131, 4050, 4855, 4216, 4962
15132, 4051, 4856, 4217, 4963
15133, 75, 3666, 327, 5134
15134, 4195, 5097, 981, 5197
15135, 106, 1448, 313, 5526
15136, 2043, 2049, 2045, 4434
15137, 3557, 3554, 4356, 5132
15138, 2413, 2349, 2412, 4790
15139, 4685, 4911, 4000, 5345
15140, 4686, 4912, 4001, 5346
15141, 3655, 3590, 3614, 4967
15142, 1175, 4593, 1320, 5139
15143, 3131, 3330, 4599, 4779
15144, 1403, 67, 314, 3694
15145, 2058, 2310, 2558, 4515
15146, 800, 980, 798, 4514
15147, 2433, 2613, 2431, 4513
15148, 4054, 4335, 4319, 5375
15149, 1234, 57, 3684, 4482
15150, 2948, 3263, 2622, 4345
15151, 2046, 2048, 3139, 4518
15152, 4101, 4402, 4359, 4958
15153, 2574, 2575, 2831, 4705
15154, 1419, 1420, 1178, 4814
15155, 190, 1828, 1951, 1847
15156, 3462, 318, 42, 3478
15157, 3167, 4679, 2531, 5044
15158, 898, 1534, 4680, 5045
15159, 2775, 2774, 3428, 4496
15160, 1923, 4357, 1921, 5136
15161, 4107, 4507, 4387, 5361
15162, 1210, 1072, 1221, 5484
15163, 1239, 1695, 1684, 4754
15164, 1198, 941, 942, 4690
15165, 3353, 2675, 3376, 4843
15166, 1170, 1774, 316, 4757
15167, 3407, 1949, 2803, 4758
15168, 4262, 4445, 3821, 5397
15169, 1967, 174, 1825, 1894
15170, 1153, 4422, 1151, 5286
15171, 2784, 2786, 4423, 5285
15172, 4120, 3965, 5046, 5398
15173, 4289, 4463, 4835, 5417
15174, 267, 3417, 1993, 3500
15175, 360, 117, 1784, 1868
15176, 1584, 1085, 1597, 5050
15177, 3276, 2073, 3290, 5051
15178, 440, 1657, 1643, 5052
15179, 2476, 2799, 2801, 4781
15180, 843, 1166, 1168, 4780
15181, 4209, 5038, 4112, 5445
15182, 4032, 4843, 4420, 5080
15183, 3285, 3284, 2040, 4749
15184, 1651, 407, 1652, 4748
15185, 4126, 4491, 4316, 5162
15186, 1566, 4726, 1648, 5037
15187, 3281, 3199, 4727, 5036
15188, 4127, 4492, 4317, 5163
15189, 1091, 1188, 1650, 4510
15190, 3301, 3303, 4484, 4815
15191, 1797, 10, 3509, 3525
15192, 3747, 5363, 4127, 5376
15193, 4126, 3748, 5362, 5377
15194, 1264, 952, 1222, 4750
15195, 926, 4784, 1202, 4994
15196, 1160, 1476, 1535, 4744
15197, 2196, 2195, 2201, 4746
15198, 2988, 2064, 2065, 4745
15199, 3651, 4497, 3657, 4676
15200, 2402, 2048, 2051, 4518
15201, 2793, 4515, 2835, 4915
15202, 2699, 3259, 4513, 4914
15203, 1066, 1626, 4514, 4913
15204, 2494, 4844, 2369, 5147
15205, 736, 861, 4845, 5146
15206, 4045, 4915, 4740, 5384
15207, 4053, 4872, 5143, 5507
15208, 4250, 4353, 4003, 4993
15209, 4137, 3964, 5275, 5368
15210, 4200, 4338, 3987, 5332
15211, 4346, 5108, 4217, 5268
15212, 4347, 5107, 4216, 5269
15213, 4138, 3965, 5276, 5381
15214, 2793, 2558, 2835, 4515
15215, 2699, 3259, 2613, 4513
15216, 980, 1066, 1626, 4514
15217, 1003, 1000, 1094, 4691
15218, 1094, 1674, 1677, 4691
15219, 2274, 2275, 2408, 4516
15220, 1835, 2775, 161, 1874
15221, 2075, 2283, 2113, 5295
15222, 3839, 4336, 4197, 5449
15223, 1251, 717, 1378, 4642
15224, 2660, 2661, 2659, 4729
15225, 2966, 2615, 2587, 4723
15226, 1333, 982, 954, 4722
15227, 1664, 947, 1331, 4725
15228, 2580, 2964, 3297, 4724
15229, 1026, 1027, 1028, 4728
15230, 552, 550, 587, 4717
15231, 2183, 2220, 2185, 4718
15232, 1021, 1022, 1020, 4721
15233, 985, 1542, 744, 4719
15234, 2655, 2656, 2657, 4720
15235, 1648, 1566, 996, 4726
15236, 3281, 3199, 2629, 4727
15237, 3514, 1988, 248, 3493
15238, 3902, 4842, 4518, 4876
15239, 1739, 1662, 900, 4665
15240, 249, 3102, 1945, 3469
15241, 641, 4535, 640, 4866
15242, 813, 4166, 4949, 5315
15243, 2610, 4657, 3176, 4879
15244, 974, 4655, 973, 4878
15245, 4266, 4672, 3961, 4920
15246, 3308, 4598, 2985, 4890
15247, 463, 4566, 497, 4892
15248, 2096, 4565, 2130, 4893
15249, 1293, 4568, 1292, 4894
15250, 2925, 2926, 4567, 4895
15251, 448, 447, 4546, 4888
15252, 2080, 4545, 2081, 4889
15253, 1562, 623, 4561, 4884
15254, 2215, 4556, 2267, 4896
15255, 2808, 4592, 2953, 4891
15256, 3112, 4553, 2625, 4885
15257, 1012, 895, 4573, 4898
15258, 2321, 2331, 4597, 4899
15259, 2968, 4616, 3077, 4901
15260, 513, 511, 4581, 4887
15261, 2144, 4582, 2146, 4886
15262, 1460, 4526, 1669, 4897
15263, 3325, 3321, 4599, 4900
15264, 615, 4608, 614, 4902
15265, 842, 4621, 1485, 4906
15266, 610, 1455, 4612, 4903
15267, 942, 1226, 4517, 4690
15268, 3204, 2839, 4624, 4904
15269, 3002, 3003, 3022, 4651
15270, 1561, 4625, 1206, 4905
15271, 3905, 4163, 4471, 5311
15272, 4168, 3878, 4468, 5310
15273, 4174, 3905, 4478, 5312
15274, 1369, 1370, 1389, 4652
15275, 3689, 209, 1963, 4480
15276, 4164, 4701, 4883, 5510
15277, 1877, 1836, 168, 3108
15278, 1717, 4505, 913, 5126
15279, 2631, 3302, 3276, 4687
15280, 559, 561, 1268, 4689
15281, 2192, 2194, 2901, 4688
15282, 3350, 4506, 2546, 5127
15283, 912, 831, 1565, 4520
15284, 2464, 3198, 2545, 4521
15285, 4425, 5164, 4121, 5249
15286, 1177, 1006, 934, 4740
15287, 3495, 3568, 3530, 5300
15288, 3328, 3318, 2647, 4519
15289, 1662, 1738, 1093, 4665
15290, 3079, 1991, 251, 3455
15291, 1736, 1523, 898, 4680
15292, 3369, 3156, 2531, 4679
15293, 953, 1426, 1251, 4770
15294, 1368, 1326, 825, 4634
15295, 2610, 2608, 3176, 4657
15296, 2484, 2485, 3266, 5373
15297, 851, 852, 1633, 5374
15298, 972, 973, 974, 4655
15299, 2295, 2593, 2412, 4616
15300, 962, 1254, 1392, 4610
15301, 3025, 2595, 2887, 4611
15302, 1444, 597, 596, 4576
15303, 600, 1444, 662, 4576
15304, 1547, 1457, 1481, 4588
15305, 3046, 2135, 2139, 4551
15306, 1413, 502, 506, 4550
15307, 2173, 2140, 3161, 4532
15308, 540, 507, 1528, 4531
15309, 804, 1636, 1617, 4578
15310, 3250, 2437, 3269, 4577
15311, 1272, 466, 631, 4563
15312, 2905, 2099, 2264, 4562
15313, 2521, 2985, 3308, 4598
15314, 598, 595, 597, 4601
15315, 1411, 1412, 1431, 4623
15316, 3128, 2368, 2271, 4534
15317, 1495, 735, 638, 4533
15318, 465, 497, 463, 4566
15319, 2130, 2096, 2098, 4565
15320, 2265, 2266, 2333, 4552
15321, 1486, 631, 464, 4560
15322, 2097, 3119, 2264, 4559
15323, 2334, 2338, 2333, 4552
15324, 3111, 2434, 2716, 4585
15325, 1478, 801, 1083, 4584
15326, 2111, 2110, 2168, 4570
15327, 2913, 2910, 2909, 4586
15328, 447, 449, 448, 4546
15329, 2080, 2082, 2081, 4545
15330, 1276, 1275, 1274, 4587
15331, 2907, 2909, 2908, 4586
15332, 2303, 2114, 2116, 4594
15333, 1292, 1293, 966, 4568
15334, 2926, 2599, 2925, 4567
15335, 1320, 594, 595, 4601
15336, 578, 577, 1443, 4535
15337, 803, 648, 451, 4544
15338, 2084, 2436, 2281, 4543
15339, 820, 742, 1592, 4579
15340, 3035, 3076, 3193, 4539
15341, 1562, 623, 583, 4561
15342, 894, 1012, 895, 4573
15343, 2620, 2794, 2619, 4605
15344, 2267, 2215, 2213, 4556
15345, 3177, 2162, 2165, 4557
15346, 888, 705, 1676, 4558
15347, 1622, 1629, 1480, 4541
15348, 545, 1193, 520, 4548
15349, 2178, 2826, 2153, 4547
15350, 3112, 3113, 2625, 4553
15351, 1003, 1195, 1001, 4583
15352, 581, 582, 583, 4561
15353, 1320, 1175, 1174, 4593
15354, 2953, 2808, 2807, 4592
15355, 2216, 2217, 2268, 4569
15356, 3260, 2832, 2620, 4605
15357, 686, 684, 699, 4580
15358, 2034, 3073, 2040, 4590
15359, 401, 1440, 407, 4591
15360, 2885, 2318, 2579, 4589
15361, 3136, 2145, 2429, 4582
15362, 512, 796, 1503, 4581
15363, 3325, 3131, 3330, 4599
15364, 1697, 1692, 1498, 4600
15365, 2315, 2317, 2318, 4572
15366, 2146, 3136, 2149, 4582
15367, 513, 1503, 516, 4581
15368, 2432, 2431, 2430, 4530
15369, 798, 797, 799, 4529
15370, 2332, 2319, 2317, 4572
15371, 2035, 2034, 2036, 4590
15372, 402, 401, 403, 4591
15373, 3116, 3306, 3308, 4598
15374, 2320, 2321, 2322, 4597
15375, 2840, 2087, 2783, 4606
15376, 1207, 454, 1150, 4607
15377, 1260, 1692, 1012, 4573
15378, 1611, 699, 1244, 4580
15379, 2886, 3173, 2885, 4589
15380, 1602, 1009, 821, 4602
15381, 433, 1590, 434, 4609
15382, 936, 1174, 929, 4593
15383, 2562, 2569, 2807, 4592
15384, 395, 1460, 397, 4526
15385, 2030, 2028, 3093, 4525
15386, 433, 1422, 1180, 4609
15387, 2094, 3164, 2784, 4604
15388, 1531, 1151, 461, 4603
15389, 2321, 2331, 2323, 4597
15390, 2653, 2651, 2652, 4595
15391, 2259, 2254, 2258, 4527
15392, 626, 621, 625, 4528
15393, 1009, 1084, 923, 4602
15394, 2968, 2593, 3077, 4616
15395, 2652, 2779, 2654, 4595
15396, 2258, 2350, 2261, 4641
15397, 531, 526, 1404, 4524
15398, 525, 524, 526, 4524
15399, 727, 889, 1676, 4558
15400, 695, 962, 693, 4610
15401, 2595, 2326, 2328, 4611
15402, 2284, 3118, 2361, 4620
15403, 726, 825, 783, 4634
15404, 3319, 3314, 2018, 4522
15405, 2322, 2326, 3025, 4611
15406, 1392, 689, 693, 4610
15407, 3032, 2244, 2243, 4615
15408, 614, 611, 1399, 4612
15409, 609, 610, 611, 4612
15410, 614, 615, 613, 4608
15411, 613, 1477, 663, 4608
15412, 615, 618, 1477, 4608
15413, 960, 779, 662, 4627
15414, 2655, 2653, 2654, 4595
15415, 1604, 692, 690, 4613
15416, 2323, 3237, 2325, 4614
15417, 796, 576, 797, 4529
15418, 2209, 2430, 2429, 4530
15419, 512, 513, 511, 4581
15420, 2144, 2145, 2146, 4582
15421, 2887, 2886, 2579, 4589
15422, 717, 628, 625, 4642
15423, 688, 686, 1611, 4580
15424, 3093, 2073, 3302, 4525
15425, 1669, 1460, 440, 4526
15426, 1604, 1232, 1233, 4613
15427, 2865, 2866, 3237, 4614
15428, 2162, 2159, 2164, 4557
15429, 1480, 1544, 1582, 4541
15430, 3006, 2273, 2179, 4536
15431, 641, 577, 640, 4535
15432, 2055, 2054, 3092, 4540
15433, 1402, 1443, 1560, 4538
15434, 1688, 541, 1692, 4600
15435, 2174, 3325, 3321, 4599
15436, 3122, 2154, 2153, 4547
15437, 1489, 521, 520, 4548
15438, 2083, 2080, 3179, 4545
15439, 1546, 450, 447, 4546
15440, 407, 1450, 403, 4591
15441, 2040, 3083, 2036, 4590
15442, 1606, 1001, 1623, 4583
15443, 452, 453, 456, 4555
15444, 2963, 2562, 2808, 4592
15445, 1330, 929, 1175, 4593
15446, 1394, 1260, 894, 4573
15447, 822, 821, 923, 4602
15448, 477, 460, 458, 4571
15449, 637, 735, 801, 4533
15450, 2368, 2434, 2270, 4534
15451, 2906, 2264, 2907, 4559
15452, 1274, 1273, 631, 4560
15453, 2910, 2912, 2908, 4586
15454, 1279, 1275, 1277, 4587
15455, 3251, 2116, 2118, 4594
15456, 2947, 2101, 2905, 4562
15457, 1272, 1314, 468, 4563
15458, 850, 1573, 1083, 4584
15459, 3206, 2716, 2483, 4585
15460, 2100, 2102, 2437, 4577
15461, 469, 804, 467, 4578
15462, 656, 506, 540, 4531
15463, 2139, 2173, 2289, 4532
15464, 1531, 1207, 1060, 4603
15465, 2693, 3164, 2840, 4604
15466, 2266, 2355, 2334, 4552
15467, 658, 724, 1429, 4574
15468, 3062, 2291, 2357, 4575
15469, 600, 599, 597, 4576
15470, 726, 727, 705, 4558
15471, 778, 1474, 652, 4619
15472, 1584, 1547, 878, 4588
15473, 1474, 1378, 1381, 4619
15474, 2521, 3306, 2333, 4598
15475, 3077, 2295, 2233, 4616
15476, 651, 728, 652, 4621
15477, 1399, 1485, 651, 4621
15478, 1485, 842, 728, 4621
15479, 2401, 2466, 2484, 4617
15480, 768, 833, 851, 4618
15481, 3088, 3118, 3032, 4615
15482, 1455, 1399, 610, 4612
15483, 2838, 3204, 2839, 4624
15484, 3088, 2243, 3072, 4615
15485, 3792, 4399, 4379, 4825
15486, 706, 629, 1463, 4629
15487, 2262, 3096, 2339, 4628
15488, 2575, 2859, 4650, 4705
15489, 2475, 3118, 2706, 4620
15490, 2578, 2601, 2838, 4624
15491, 724, 787, 1473, 4631
15492, 3121, 2578, 2839, 4624
15493, 1431, 1473, 836, 4623
15494, 1561, 1488, 1206, 4625
15495, 3820, 4445, 4262, 5418
15496, 1126, 1769, 1053, 5297
15497, 2532, 2624, 2674, 4747
15498, 2013, 2015, 2279, 4633
15499, 382, 646, 380, 4632
15500, 4483, 4756, 4270, 5335
15501, 824, 1040, 828, 4678
15502, 2457, 2673, 2461, 4677
15503, 1734, 3635, 3598, 4420
15504, 381, 380, 379, 4632
15505, 1233, 1549, 4613, 4911
15506, 3182, 4614, 2866, 4912
15507, 988, 1603, 4842, 5095
15508, 834, 787, 786, 4631
15509, 1107, 1108, 909, 4669
15510, 2740, 2741, 2542, 4670
15511, 3406, 3499, 238, 1969
15512, 1463, 628, 1371, 4629
15513, 1872, 1815, 86, 1258
15514, 3096, 2261, 3004, 4628
15515, 3875, 5112, 4755, 5284
15516, 718, 1385, 659, 4667
15517, 2351, 3018, 2292, 4666
15518, 3722, 3702, 4264, 5304
15519, 976, 977, 978, 4649
15520, 4315, 4008, 4421, 5341
15521, 2628, 2444, 3274, 4646
15522, 2519, 2425, 2408, 4516
15523, 2127, 2122, 2128, 4643
15524, 489, 495, 494, 4644
15525, 2646, 2645, 3330, 4645
15526, 2433, 2700, 2699, 4513
15527, 800, 1067, 1066, 4514
15528, 570, 548, 1515, 4647
15529, 676, 1515, 574, 4647
15530, 2836, 2835, 2310, 4515
15531, 2951, 4871, 3347, 5293
15532, 2008, 2576, 3165, 4648
15533, 2010, 2009, 2008, 4648
15534, 4593, 4868, 3890, 5139
15535, 4337, 5090, 3949, 5489
15536, 1233, 1549, 692, 4613
15537, 2325, 2866, 3182, 4614
15538, 2065, 2064, 2063, 5255
15539, 2719, 3240, 5384, 5423
15540, 1573, 1583, 983, 4370
15541, 2616, 3206, 3216, 4371
15542, 3967, 4339, 4199, 5392
15543, 3734, 3737, 4969, 5455
15544, 2503, 2504, 2712, 4638
15545, 4135, 3825, 4928, 5292
15546, 415, 413, 4504, 5043
15547, 2105, 2108, 2937, 4821
15548, 2106, 2937, 2930, 4821
15549, 3992, 5113, 4750, 5167
15550, 3699, 3668, 225, 5513
15551, 225, 1961, 3334, 5513
15552, 2544, 2545, 2816, 4521
15553, 358, 102, 1822, 1779
15554, 1491, 1589, 1240, 4735
15555, 3887, 4774, 4512, 4821
15556, 4250, 5073, 4993, 5212
15557, 3014, 2249, 4439, 5454
15558, 1475, 1514, 20, 3511
15559, 2402, 2790, 3139, 4518
15560, 2092, 2090, 2095, 4661
15561, 2914, 3066, 2600, 4662
15562, 2439, 2316, 2438, 4660
15563, 2455, 2454, 2556, 4663
15564, 2651, 2526, 2650, 4664
15565, 3185, 2317, 2316, 4660
15566, 2441, 2526, 3115, 4664
15567, 2083, 2600, 2086, 4662
15568, 4164, 4717, 4703, 5510
15569, 3276, 2727, 2633, 5128
15570, 3556, 4711, 3563, 5123
15571, 1926, 1918, 4710, 5124
15572, 716, 779, 780, 4627
15573, 380, 1243, 378, 4686
15574, 2011, 2013, 2876, 4685
15575, 1042, 1101, 4678, 5179
15576, 4104, 4318, 5273, 5446
15577, 926, 1202, 1086, 4994
15578, 1085, 1086, 1607, 4994
15579, 4740, 4814, 3925, 4915
15580, 4209, 4731, 4112, 5038
15581, 3590, 3655, 3600, 4319
15582, 3242, 2272, 2188, 4351
15583, 1609, 639, 555, 4350
15584, 3488, 3565, 3494, 4278
15585, 2855, 2854, 2706, 4387
15586, 1446, 334, 27, 3473
15587, 3813, 4953, 4196, 5274
15588, 390, 391, 392, 5323
15589, 3040, 4696, 2336, 5169
15590, 1416, 4946, 4154, 5343
15591, 3049, 4945, 4153, 5342
15592, 1826, 1937, 1888, 4260
15593, 3570, 3522, 3460, 4259
15594, 4512, 4774, 4072, 4821
15595, 2391, 2629, 4727, 5019
15596, 2361, 2475, 2474, 4620
15597, 1385, 1654, 723, 4639
15598, 2356, 3018, 3287, 4640
15599, 4033, 5105, 4505, 5126
15600, 4505, 5105, 4088, 5126
15601, 4506, 5104, 4087, 5127
15602, 4034, 5104, 4506, 5127
15603, 2461, 2605, 2386, 4656
15604, 828, 972, 753, 4655
15605, 1952, 285, 2955, 5131
15606, 4473, 5320, 4166, 5461
15607, 1719, 315, 140, 3606
15608, 4328, 4381, 3869, 5192
15609, 3869, 4384, 4328, 5192
15610, 3911, 4381, 4328, 5192
15611, 4328, 4384, 3958, 5192
15612, 4115, 3839, 4875, 5281
15613, 973, 828, 1524, 4655
15614, 2260, 2204, 2201, 4421
15615, 3681, 3725, 3688, 4316
15616, 3690, 3682, 3726, 4317
15617, 2445, 2725, 2726, 4653
15618, 1092, 1093, 812, 4654
15619, 4541, 5169, 3831, 5224
15620, 3528, 265, 1957, 3479
15621, 1897, 115, 324, 1848
15622, 1952, 3596, 285, 5131
15623, 2387, 3156, 2384, 4659
15624, 1523, 751, 754, 4658
15625, 837, 1558, 836, 4751
15626, 4289, 4835, 3760, 5417
15627, 2125, 2126, 2124, 4637
15628, 3360, 3361, 1960, 4319
15629, 4551, 5009, 3784, 5473
15630, 4550, 5008, 3783, 5472
15631, 3865, 4998, 4554, 5470
15632, 1931, 1816, 93, 1507
15633, 1148, 4686, 1243, 5346
15634, 2781, 4685, 2876, 5345
15635, 1377, 32, 3454, 4764
15636, 1449, 1796, 25, 3457
15637, 599, 602, 4716, 4973
15638, 3612, 3645, 4271, 5078
15639, 1836, 1860, 169, 3108
15640, 4217, 4116, 5108, 5350
15641, 4216, 4117, 5107, 5349
15642, 4356, 4427, 4015, 4652
15643, 1797, 11, 344, 3470
15644, 1977, 3430, 159, 1837
15645, 4357, 4426, 4016, 4651
15646, 4737, 4750, 4055, 5167
15647, 1733, 1039, 1524, 4736
15648, 3668, 3730, 3711, 5513
15649, 2744, 2781, 3196, 5345
15650, 1111, 1148, 1563, 5346
15651, 871, 870, 845, 4671
15652, 3482, 1791, 31, 3458
15653, 3880, 4134, 4744, 5191
15654, 4330, 4386, 3913, 5286
15655, 4329, 4385, 3914, 5285
15656, 3120, 2235, 2297, 4511
15657, 4734, 4775, 3989, 5214
15658, 3763, 4122, 4865, 5271
15659, 2952, 2582, 2950, 4765
15660, 604, 602, 603, 4973
15661, 599, 601, 602, 4973
15662, 4166, 5320, 3862, 5461
15663, 3762, 4121, 4864, 5260
15664, 1906, 1899, 1877, 4804
15665, 4619, 5027, 3980, 5481
15666, 4336, 5217, 4924, 5449
15667, 2606, 2672, 2608, 4657
15668, 3891, 4891, 4869, 5173
15669, 2687, 2534, 2686, 5396
15670, 4554, 4998, 3854, 5470
15671, 3804, 5008, 4550, 5472
15672, 3803, 5009, 4551, 5473
15673, 1879, 1823, 178, 3413
15674, 4339, 4421, 4008, 5341
15675, 4053, 5143, 4778, 5507
15676, 2311, 2292, 2290, 4666
15677, 678, 659, 657, 4667
15678, 490, 492, 491, 4739
15679, 1319, 949, 1317, 4761
15680, 288, 3597, 1983, 4497
15681, 3974, 4775, 4635, 5214
15682, 4759, 4034, 5275, 5368
15683, 1723, 329, 1741, 5375
15684, 2505, 4638, 2478, 5243
15685, 258, 3508, 3100, 1987
15686, 1866, 108, 354, 1467
15687, 4238, 5200, 3899, 5391
15688, 3957, 5200, 4238, 5391
15689, 3915, 4694, 4325, 4925
15690, 3916, 4695, 4326, 4926
15691, 2741, 2792, 3181, 4670
15692, 1108, 1159, 1548, 4669
15693, 591, 4270, 655, 5352
15694, 2891, 3448, 236, 3427
15695, 2979, 4401, 3365, 5183
15696, 784, 838, 839, 4733
15697, 3321, 4900, 2643, 5310
15698, 1619, 4892, 497, 5311
15699, 3988, 5027, 4619, 5481
15700, 954, 4431, 856, 5408
15701, 3925, 4740, 4915, 5384
15702, 4231, 4469, 3943, 5477
15703, 4230, 4470, 3944, 5476
15704, 3982, 4727, 4171, 5488
15705, 4432, 4438, 4078, 5155
15706, 1732, 1346, 319, 5221
15707, 2899, 2792, 2206, 4332
15708, 1266, 1159, 573, 4331
15709, 1258, 1815, 86, 1794
15710, 2769, 1966, 2768, 4181
15711, 3358, 3213, 3359, 4760
15712, 1042, 1101, 1040, 4678
15713, 2734, 2673, 2675, 4677
15714, 1725, 1580, 1726, 4759
15715, 1284, 1687, 1014, 5213
15716, 1687, 1689, 1015, 5213
15717, 3217, 2718, 3230, 4697
15718, 2336, 2375, 2337, 4696
15719, 3184, 2397, 2421, 4692
15720, 1551, 764, 788, 4693
15721, 1390, 874, 755, 4694
15722, 3023, 2507, 2388, 4695
15723, 755, 774, 756, 4694
15724, 2389, 2388, 2407, 4695
15725, 3203, 2421, 3254, 4692
15726, 1621, 1570, 788, 4693
15727, 3040, 3225, 2336, 4696
15728, 2559, 2718, 2511, 4697
15729, 1051, 1358, 921, 5316
15730, 2684, 2991, 2554, 5317
15731, 3659, 3587, 3626, 5236
15732, 3588, 3627, 3658, 5235
15733, 682, 1252, 680, 4698
15734, 1540, 1252, 1253, 4698
15735, 3734, 3670, 3737, 5455
15736, 4037, 4824, 4459, 5409
15737, 4459, 4824, 4110, 5409
15738, 3512, 3409, 246, 3451
15739, 1289, 1288, 874, 4704
15740, 2922, 2921, 2507, 4703
15741, 2920, 2921, 2923, 4703
15742, 1288, 1290, 1287, 4704
15743, 644, 1529, 589, 4707
15744, 714, 715, 644, 4707
15745, 3659, 4355, 3587, 5236
15746, 3588, 3658, 4354, 5235
15747, 1818, 1857, 1858, 4276
15748, 3365, 4657, 2672, 5183
15749, 4075, 4353, 4250, 4993
15750, 935, 944, 1191, 4457
15751, 2359, 2458, 2416, 4458
15752, 3933, 5089, 4277, 5205
15753, 2856, 5149, 2003, 5162
15754, 1223, 5148, 370, 5163
15755, 1885, 1995, 191, 4710
15756, 362, 43, 3521, 4711
15757, 1170, 1873, 110, 1783
15758, 3747, 3677, 5363, 5376
15759, 3676, 5362, 3748, 5377
15760, 2718, 4697, 2559, 5384
15761, 1142, 1795, 13, 3505
15762, 2775, 3428, 161, 1874
15763, 355, 4276, 1113, 5501
15764, 3605, 4215, 3606, 5509
15765, 1862, 1860, 1932, 4709
15766, 3959, 5254, 4274, 5455
15767, 3014, 2249, 2285, 4439
15768, 4549, 5002, 3837, 5403
15769, 3674, 1359, 3719, 4400
15770, 1572, 1264, 1569, 4440
15771, 2675, 2457, 3171, 4677
15772, 824, 1538, 1042, 4678
15773, 309, 24, 1796, 3498
15774, 1461, 4908, 409, 5321
15775, 2042, 3094, 4907, 5322
15776, 2063, 5106, 4146, 5255
15777, 3347, 2736, 3423, 4112
15778, 2783, 4469, 2597, 5477
15779, 964, 1150, 4470, 5476
15780, 1880, 106, 313, 5526
15781, 1252, 1253, 4698, 5082
15782, 3926, 4515, 4308, 5234
15783, 4308, 4515, 3956, 5234
15784, 4592, 4869, 3891, 4891
15785, 677, 925, 425, 4358
15786, 1996, 242, 3141, 3449
15787, 2833, 2355, 3224, 4675
15788, 3784, 5029, 4622, 5404
15789, 1607, 4210, 5217, 5281
15790, 4368, 5280, 4190, 5330
15791, 4367, 5279, 4189, 5331
15792, 1712, 5252, 1137, 5319
15793, 2528, 4645, 5205, 5495
15794, 2921, 2923, 4703, 5100
15795, 1290, 4704, 1288, 5101
15796, 3514, 3493, 3535, 4342
15797, 3936, 4609, 4605, 5172
15798, 1714, 1103, 1790, 4124
15799, 3734, 4969, 4274, 5455
15800, 4759, 4882, 4034, 5368
15801, 2121, 5203, 4643, 5473
15802, 488, 5202, 4644, 5472
15803, 2503, 2470, 2478, 4638
15804, 1905, 1844, 4275, 5218
15805, 1276, 1277, 4587, 5088
15806, 3899, 5230, 4238, 5391
15807, 2680, 3057, 2768, 5414
15808, 3445, 3483, 3542, 4320
15809, 1853, 1829, 1922, 4321
15810, 4146, 4446, 4280, 5464
15811, 3301, 3146, 3303, 4815
15812, 4060, 4705, 4520, 5142
15813, 1101, 1719, 4420, 5179
15814, 860, 937, 936, 4361
15815, 2493, 2570, 2569, 4362
15816, 936, 1245, 1176, 4360
15817, 915, 950, 778, 4786
15818, 4264, 4519, 4103, 5304
15819, 3110, 2246, 2248, 4635
15820, 3384, 2892, 2952, 4765
15821, 4074, 4775, 4734, 5214
15822, 2832, 4745, 2988, 5090
15823, 1998, 3718, 3432, 5363
15824, 366, 3717, 1799, 5362
15825, 3625, 3639, 3659, 5236
15826, 3638, 3658, 3624, 5235
15827, 1553, 1342, 1344, 4919
15828, 3167, 3368, 2531, 4679
15829, 1534, 1735, 898, 4680
15830, 1713, 367, 5152, 5235
15831, 3346, 2000, 5151, 5236
15832, 3764, 4185, 4494, 4840
15833, 3760, 4903, 4612, 4904
15834, 3156, 3376, 3171, 4659
15835, 121, 1139, 1881, 1810
15836, 3443, 2772, 271, 3516
15837, 644, 4707, 589, 5164
15838, 2528, 5205, 2527, 5495
15839, 2871, 1963, 209, 4480
15840, 3690, 3684, 57, 4482
15841, 1234, 1209, 57, 4482
15842, 4435, 5415, 421, 5469
15843, 4263, 4852, 3742, 5250
15844, 410, 4934, 412, 5321
15845, 1276, 1280, 1277, 5088
15846, 4059, 4690, 4521, 5140
15847, 1793, 121, 1139, 1881
15848, 2772, 3426, 271, 3516
15849, 4759, 4778, 3964, 5507
15850, 3080, 1846, 176, 1989
15851, 3750, 3432, 3718, 5363
15852, 3749, 1799, 3717, 5362
15853, 3772, 4509, 5146, 5493
15854, 3773, 4508, 5147, 5494
15855, 3280, 3208, 3190, 4487
15856, 3303, 2995, 2635, 4484
15857, 2156, 2981, 2155, 4485
15858, 523, 1348, 522, 4486
15859, 2945, 1948, 2946, 5080
15860, 398, 4287, 396, 5522
15861, 2029, 2031, 4288, 5521
15862, 486, 484, 4304, 5520
15863, 2819, 2818, 2817, 4483
15864, 3253, 3300, 2806, 4364
15865, 1667, 1173, 1620, 4363
15866, 3732, 4482, 3726, 5075
15867, 3964, 4778, 4759, 4882
15868, 3366, 2979, 3365, 5183
15869, 2121, 3043, 5203, 5473
15870, 1410, 5202, 488, 5472
15871, 2033, 5021, 2031, 5521
15872, 398, 400, 5020, 5522
15873, 3828, 4863, 5253, 5301
15874, 4732, 5460, 1308, 5468
15875, 4118, 5253, 4863, 5301
15876, 3294, 3266, 2557, 4416
15877, 1661, 1633, 924, 4415
15878, 1369, 1097, 4652, 4834
15879, 2730, 4651, 3002, 4833
15880, 925, 1160, 1535, 5102
15881, 425, 925, 1393, 5102
15882, 1377, 1791, 32, 4764
15883, 1093, 1737, 1534, 4654
15884, 2059, 2057, 2060, 4430
15885, 3841, 5002, 4549, 5403
15886, 1080, 4734, 1079, 5214
15887, 1213, 5231, 4208, 5271
15888, 3388, 3108, 1990, 5410
15889, 2846, 5232, 4206, 5260
15890, 784, 727, 783, 4733
15891, 1247, 937, 1545, 4461
15892, 2880, 2570, 3178, 4462
15893, 2175, 2181, 2170, 4463
15894, 924, 4415, 852, 4837
15895, 2557, 4416, 2485, 4836
15896, 3897, 4810, 4350, 5118
15897, 3896, 4809, 4351, 5119
15898, 585, 4976, 561, 5063
15899, 2218, 4977, 2194, 5064
15900, 3783, 4623, 4846, 5028
15901, 1858, 5270, 4276, 5482
15902, 2478, 2505, 2504, 4638
15903, 338, 1696, 1144, 4491
15904, 2777, 1971, 3329, 4492
15905, 3168, 3109, 2623, 4392
15906, 1153, 1154, 461, 4422
15907, 2787, 2094, 2786, 4423
15908, 712, 866, 1437, 4424
15909, 3070, 2345, 2499, 4425
15910, 4541, 4896, 3831, 5169
15911, 4342, 5294, 4096, 5339
15912, 4622, 5029, 3980, 5404
15913, 3730, 5357, 4136, 5513
15914, 759, 645, 760, 4488
15915, 2393, 2392, 2278, 4489
15916, 3937, 4446, 4336, 5449
15917, 3365, 3176, 2672, 4657
15918, 1204, 1747, 368, 4259
15919, 2001, 2837, 3380, 4260
15920, 1702, 4721, 1021, 5358
15921, 1558, 1080, 1576, 4734
15922, 3689, 3679, 209, 4480
15923, 4471, 3892, 5311, 5514
15924, 3850, 4468, 5310, 5517
15925, 1774, 4389, 1164, 4757
15926, 3407, 4390, 2797, 4758
15927, 4242, 4944, 3758, 5208
15928, 3906, 4944, 4242, 5208
15929, 3907, 4943, 4243, 5207
15930, 4243, 4943, 3759, 5207
15931, 3705, 3672, 3720, 4266
15932, 899, 991, 1041, 4428
15933, 4635, 4775, 4074, 5214
15934, 4345, 4934, 3769, 5367
15935, 3631, 4269, 3616, 5233
15936, 3786, 4523, 4611, 5145
15937, 4522, 4610, 3785, 5144
15938, 3339, 3343, 2649, 4682
15939, 4759, 4778, 4053, 4882
15940, 813, 4828, 814, 4949
15941, 2446, 4829, 2447, 4950
15942, 377, 4831, 653, 4951
15943, 2747, 4867, 3238, 5181
15944, 1080, 870, 1079, 4734
15945, 1259, 1319, 1751, 4761
15946, 4322, 4696, 3844, 5224
15947, 4356, 4427, 4035, 5132
15948, 677, 1456, 1203, 4372
15949, 1426, 953, 1076, 4854
15950, 3804, 4585, 4371, 4997
15951, 3803, 4584, 4370, 4996
15952, 4371, 4585, 3928, 4997
15953, 4370, 4584, 3927, 4996
15954, 4357, 4426, 4043, 5136
15955, 4337, 3940, 5090, 5489
15956, 1446, 4699, 1760, 5519
15957, 1502, 991, 4927, 5398
15958, 4159, 4464, 3871, 5037
15959, 4160, 4465, 3870, 5036
15960, 445, 4725, 1664, 5412
15961, 553, 4717, 552, 5497
15962, 2186, 4718, 2185, 5496
15963, 4263, 4969, 3737, 5455
15964, 885, 5397, 4445, 5418
15965, 3924, 4508, 4179, 4844
15966, 3923, 4509, 4180, 4845
15967, 4053, 4778, 4759, 5507
15968, 2901, 2928, 2195, 4688
15969, 1295, 562, 1268, 4689
15970, 1334, 593, 591, 5284
15971, 596, 595, 593, 5284
15972, 4729, 5401, 2661, 5511
15973, 1933, 1894, 173, 3429
15974, 2845, 4453, 2761, 5279
15975, 1212, 4452, 1128, 5280
15976, 896, 846, 913, 4505
15977, 3842, 4461, 4562, 5288
15978, 3843, 4462, 4563, 5289
15979, 4461, 3863, 4562, 5288
15980, 4462, 3864, 4563, 5289
15981, 3488, 1966, 254, 3425
15982, 1459, 421, 4435, 5415
15983, 2529, 2479, 2546, 4506
15984, 4249, 5115, 3973, 5287
15985, 3965, 4760, 5276, 5381
15986, 1564, 1451, 4797, 5190
15987, 3197, 3084, 4798, 5189
15988, 1255, 1257, 5195, 5333
15989, 3031, 2115, 2113, 4388
15990, 1304, 5177, 4132, 5244
15991, 2668, 4344, 2689, 5094
15992, 1056, 1035, 4343, 5093
15993, 4488, 4864, 4121, 5260
15994, 3363, 2677, 2671, 4975
15995, 4199, 4782, 4333, 5175
15996, 3857, 4762, 4378, 5088
15997, 3806, 5277, 4457, 5353
15998, 4489, 4865, 4122, 5271
15999, 3282, 5258, 3361, 5448
16000, 2350, 4641, 3011, 5122
16001, 1934, 1910, 1867, 4916
16002, 4023, 4780, 4651, 4833
16003, 2663, 2661, 5401, 5511
16004, 4024, 4781, 4652, 4834
16005, 1858, 4276, 1857, 5501
16006, 4008, 4421, 4339, 5392
16007, 1408, 794, 490, 4739
16008, 1003, 1677, 1192, 4691
16009, 2831, 2829, 2703, 4820
16010, 3394, 2773, 2681, 5137
16011, 46, 326, 3445, 1757
16012, 3390, 194, 1853, 1959
16013, 1101, 1720, 1719, 5179
16014, 4487, 4120, 5046, 5398
16015, 3868, 4476, 4976, 5278
16016, 4767, 4820, 4060, 5459
16017, 4484, 4588, 3872, 4815
16018, 4256, 5054, 4691, 5178
16019, 4319, 4967, 3655, 5375
16020, 1694, 3665, 80, 5362
16021, 3327, 3664, 230, 5363
16022, 1448, 1761, 313, 5526
16023, 1070, 1198, 1196, 4819
16024, 1818, 355, 98, 1857
16025, 2888, 2890, 5194, 5334
16026, 3651, 4497, 4676, 5458
16027, 2951, 2952, 2950, 4871
16028, 2032, 2335, 4408, 5521
16029, 702, 4409, 399, 5522
16030, 387, 4791, 455, 5263
16031, 2577, 2497, 3105, 4394
16032, 939, 4690, 938, 5055
16033, 1113, 4276, 5324, 5501
16034, 837, 870, 1558, 4734
16035, 1318, 4877, 1103, 5306
16036, 4651, 4780, 4063, 4833
16037, 4652, 4781, 4062, 4834
16038, 1140, 1048, 1761, 5133
16039, 3609, 3597, 288, 4497
16040, 4383, 4743, 3942, 5053
16041, 2477, 2470, 2468, 4668
16042, 939, 941, 938, 4690
16043, 1317, 1318, 1319, 4877
16044, 3808, 4588, 4484, 4815
16045, 165, 3418, 1994, 1864
16046, 321, 19, 1514, 3471
16047, 1043, 1100, 1723, 4811
16048, 4192, 4434, 3767, 5322
16049, 1320, 4601, 598, 5139
16050, 1311, 1736, 1735, 4680
16051, 2944, 3369, 3368, 4679
16052, 3631, 5154, 4269, 5233
16053, 3862, 4166, 4949, 5320
16054, 75, 1701, 3721, 5134
16055, 336, 88, 1834, 1929
16056, 2684, 2685, 2760, 5317
16057, 1051, 1052, 1127, 5316
16058, 2881, 4921, 2403, 5138
16059, 3719, 1359, 314, 4400
16060, 3838, 4236, 5256, 5524
16061, 3690, 57, 1209, 4482
16062, 4115, 4875, 4484, 5281
16063, 3409, 3101, 246, 3451
16064, 4022, 4674, 4453, 5189
16065, 4021, 4673, 4452, 5190
16066, 3011, 3014, 3107, 5122
16067, 3893, 4701, 4377, 4883
16068, 3800, 4526, 4485, 4965
16069, 3801, 4525, 4486, 4966
16070, 3454, 33, 335, 3518
16071, 3787, 4722, 4643, 5228
16072, 3788, 4723, 4644, 5227
16073, 4645, 4721, 3933, 5229
16074, 3899, 4719, 4646, 5230
16075, 3825, 4648, 4728, 5226
16076, 84, 1782, 342, 4753
16077, 2350, 3011, 2884, 5122
16078, 1975, 234, 3415, 4752
16079, 1308, 349, 1305, 5460
16080, 2551, 3019, 2552, 4813
16081, 2575, 2572, 2859, 4705
16082, 2018, 4776, 2019, 5144
16083, 385, 4777, 386, 5145
16084, 4185, 4756, 4270, 5352
16085, 3919, 5225, 4167, 5314
16086, 4605, 4609, 3936, 5090
16087, 4044, 4457, 5277, 5353
16088, 730, 696, 4797, 5329
16089, 2329, 4798, 2363, 5328
16090, 3861, 4950, 4306, 5340
16091, 1186, 4339, 1184, 5341
16092, 4306, 4950, 3874, 5340
16093, 3082, 3429, 1894, 5482
16094, 942, 939, 1226, 4690
16095, 3552, 3473, 3485, 4699
16096, 4486, 4863, 4118, 5253
16097, 3872, 4588, 4484, 5050
16098, 4485, 4526, 3800, 5052
16099, 4486, 4525, 3801, 5051
16100, 2680, 2768, 2767, 4847
16101, 2154, 4485, 2155, 4965
16102, 521, 4486, 522, 4966
16103, 767, 832, 768, 4618
16104, 2400, 2465, 2401, 4617
16105, 1494, 4794, 1393, 5462
16106, 3933, 4721, 4645, 5399
16107, 608, 4835, 4289, 5365
16108, 558, 585, 561, 5063
16109, 2191, 2218, 2194, 5064
16110, 2959, 2958, 2458, 4437
16111, 1983, 3367, 288, 4497
16112, 3057, 2477, 2770, 5414
16113, 3859, 4489, 4690, 4931
16114, 4248, 5212, 4003, 5361
16115, 4488, 4121, 5057, 5260
16116, 1858, 1933, 5270, 5482
16117, 969, 970, 968, 4817
16118, 2769, 4181, 2768, 5414
16119, 3986, 4507, 4620, 5383
16120, 2871, 209, 3679, 4480
16121, 2572, 4705, 2571, 5057
16122, 3980, 4668, 4642, 5425
16123, 4236, 3869, 5256, 5524
16124, 481, 483, 670, 5174
16125, 1320, 598, 1321, 5139
16126, 3423, 1958, 3347, 4731
16127, 4489, 4122, 5055, 5271
16128, 3930, 4642, 4630, 5425
16129, 4642, 4668, 4014, 5425
16130, 3760, 4904, 4612, 5032
16131, 3870, 4476, 4171, 5063
16132, 3871, 4477, 4172, 5064
16133, 4146, 5106, 3948, 5255
16134, 734, 1243, 1148, 4686
16135, 2367, 2876, 2781, 4685
16136, 3796, 4535, 4516, 5422
16137, 3797, 4516, 4535, 5422
16138, 3798, 4538, 4536, 5435
16139, 3802, 4536, 4538, 5435
16140, 3802, 4542, 4539, 5432
16141, 4537, 4538, 3802, 5437
16142, 3819, 4561, 4556, 5436
16143, 3802, 4538, 4537, 5435
16144, 4537, 4538, 3823, 5435
16145, 3831, 4561, 4556, 5434
16146, 3815, 4556, 4542, 5434
16147, 3837, 4569, 4561, 5436
16148, 4556, 4561, 3819, 5434
16149, 3819, 4564, 4549, 5433
16150, 4539, 4542, 3815, 5432
16151, 3819, 4556, 4542, 5432
16152, 4542, 4556, 3815, 5432
16153, 3823, 4538, 4537, 5437
16154, 3841, 4549, 4564, 5433
16155, 4561, 4569, 3831, 5436
16156, 4556, 4561, 3831, 5436
16157, 4542, 4556, 3819, 5434
16158, 3823, 4564, 4537, 5433
16159, 4537, 3819, 4564, 5437
16160, 3819, 4537, 4564, 5433
16161, 3823, 4537, 4564, 5437
16162, 3798, 4557, 4538, 5435
16163, 3802, 4537, 4542, 5432
16164, 4537, 3802, 4542, 5437
16165, 3830, 4543, 4560, 5428
16166, 3829, 4544, 4559, 5429
16167, 4538, 4557, 3823, 5435
16168, 4537, 4542, 3819, 5437
16169, 3819, 4542, 4537, 5432
16170, 3823, 4553, 4583, 5438
16171, 4553, 3841, 4579, 5438
16172, 3853, 4560, 4543, 5428
16173, 3852, 4559, 4544, 5429
16174, 3823, 4553, 4564, 5433
16175, 4553, 4579, 3856, 5438
16176, 3815, 4541, 4556, 5434
16177, 3841, 4564, 4553, 5433
16178, 4553, 3856, 4583, 5438
16179, 3831, 4556, 4541, 5434
16180, 3819, 4549, 4561, 5436
16181, 3823, 4564, 4553, 5438
16182, 3837, 4561, 4549, 5436
16183, 4553, 4564, 3841, 5438
16184, 4565, 4568, 3852, 5430
16185, 4566, 4567, 3853, 5431
16186, 3853, 4567, 4566, 5426
16187, 3852, 4568, 4565, 5427
16188, 3830, 4560, 4545, 5428
16189, 3829, 4559, 4546, 5429
16190, 3877, 4566, 4567, 5426
16191, 3876, 4565, 4568, 5427
16192, 3854, 4545, 4560, 5428
16193, 3855, 4546, 4559, 5429
16194, 3876, 4568, 4565, 5430
16195, 3877, 4567, 4566, 5431
16196, 3854, 4560, 4554, 5428
16197, 3855, 4559, 4555, 5429
16198, 3853, 4554, 4560, 5428
16199, 3852, 4555, 4559, 5429
16200, 4568, 4577, 3863, 5430
16201, 4567, 4578, 3864, 5431
16202, 3865, 4554, 4566, 5426
16203, 3866, 4555, 4565, 5427
16204, 3853, 4566, 4554, 5426
16205, 3852, 4565, 4555, 5427
16206, 4562, 4568, 3863, 5430
16207, 4563, 4567, 3864, 5431
16208, 4562, 3852, 4568, 5430
16209, 4563, 3853, 4567, 5431
16210, 3865, 4566, 4570, 5426
16211, 3866, 4565, 4571, 5427
16212, 3876, 4577, 4568, 5430
16213, 3877, 4578, 4567, 5431
16214, 3877, 4570, 4566, 5426
16215, 3876, 4571, 4565, 5427
16216, 3779, 4551, 4528, 5439
16217, 4528, 4551, 3784, 5439
16218, 4527, 4550, 3783, 5440
16219, 3778, 4550, 4527, 5440
16220, 3779, 4528, 4575, 5439
16221, 3778, 4527, 4574, 5440
16222, 3930, 4575, 4528, 5439
16223, 3931, 4574, 4527, 5440
16224, 4528, 3784, 4622, 5439
16225, 3930, 4528, 4622, 5439
16226, 3816, 4574, 4534, 5441
16227, 4527, 3783, 4623, 5440
16228, 3931, 4527, 4623, 5440
16229, 3817, 4575, 4533, 5442
16230, 4527, 4574, 3931, 5441
16231, 4528, 4575, 3930, 5442
16232, 3832, 4596, 4599, 5443
16233, 4597, 4600, 3833, 5444
16234, 4523, 4597, 3766, 5444
16235, 3765, 4522, 4596, 5443
16236, 4534, 4574, 3778, 5441
16237, 4527, 3778, 4574, 5441
16238, 4533, 4575, 3779, 5442
16239, 4528, 3779, 4575, 5442
16240, 3781, 4599, 4596, 5443
16241, 3782, 4600, 4597, 5444
16242, 3782, 4597, 4523, 5444
16243, 3781, 4596, 4522, 5443
16244, 4574, 4628, 3931, 5441
16245, 3816, 4628, 4574, 5441
16246, 4575, 4629, 3930, 5442
16247, 3817, 4629, 4575, 5442
16248, 4630, 4642, 4014, 5425
16249, 4026, 4620, 4507, 5383
16250, 3765, 4596, 4633, 5443
16251, 4597, 4632, 3766, 5444
16252, 3832, 4633, 4596, 5443
16253, 4597, 3833, 4632, 5444
16254, 3860, 4488, 4705, 4930
16255, 2572, 2574, 2571, 4705
16256, 4069, 4820, 4767, 5459
16257, 3802, 4539, 4535, 5422
16258, 3802, 4535, 4536, 5422
16259, 4750, 5113, 4055, 5167
16260, 3797, 4535, 4539, 5422
16261, 3796, 4536, 4535, 5422
16262, 2565, 3013, 3246, 4769
16263, 932, 1380, 1613, 4768
16264, 391, 1657, 5052, 5178
16265, 4113, 5299, 2765, 5303
16266, 4114, 5298, 1132, 5302
16267, 507, 508, 509, 5187
16268, 2142, 2140, 2141, 5188
16269, 3989, 4620, 4671, 5383
16270, 3801, 4524, 4687, 5336
16271, 1285, 349, 1740, 5460
16272, 2436, 4543, 3149, 5289
16273, 803, 4544, 1516, 5288
16274, 4484, 4588, 3808, 5050
16275, 3888, 4526, 4485, 5052
16276, 3889, 4525, 4486, 5051
16277, 2532, 2391, 4747, 5525
16278, 364, 51, 3523, 3444
16279, 1887, 199, 1843, 1997
16280, 3596, 1952, 4401, 5131
16281, 775, 1435, 4495, 5344
16282, 1899, 1816, 1931, 4398
16283, 1446, 28, 3568, 3473
16284, 4198, 3918, 4983, 5088
16285, 1718, 1100, 1036, 4811
16286, 3930, 4622, 4642, 5425
16287, 3980, 4642, 4622, 5425
16288, 1059, 953, 951, 4854
16289, 4268, 4343, 4042, 5456
16290, 4267, 4344, 4041, 5457
16291, 1819, 1889, 83, 1782
16292, 1217, 1798, 365, 4355
16293, 1999, 2850, 3431, 4354
16294, 4515, 4045, 4814, 5234
16295, 4489, 4690, 4028, 5055
16296, 436, 434, 438, 4337
16297, 2175, 2200, 2181, 4338
16298, 649, 1161, 1199, 4336
16299, 4169, 5229, 3849, 5313
16300, 4107, 4817, 4438, 5155
16301, 4026, 4671, 4620, 5383
16302, 2193, 2195, 2196, 4921
16303, 2881, 3242, 2193, 4921
16304, 1184, 1186, 1185, 4339
16305, 2553, 2757, 3007, 4403
16306, 2754, 3287, 4640, 5465
16307, 1922, 1812, 1909, 4321
16308, 3539, 3542, 3475, 4320
16309, 4485, 4526, 3888, 4965
16310, 4486, 4525, 3889, 4966
16311, 3947, 4618, 4455, 5325
16312, 3946, 4617, 4456, 5326
16313, 327, 1701, 75, 5134
16314, 1700, 1145, 327, 5134
16315, 4192, 4499, 3902, 4842
16316, 3861, 4165, 4950, 5340
16317, 3945, 4502, 4197, 4841
16318, 3989, 4625, 4620, 5383
16319, 4488, 4705, 4027, 5057
16320, 4514, 4749, 4049, 4913
16321, 4513, 4748, 4048, 4914
16322, 3789, 4749, 4514, 4913
16323, 3790, 4748, 4513, 4914
16324, 4052, 4755, 5112, 5284
16325, 1237, 943, 1235, 4771
16326, 3497, 3527, 3496, 5293
16327, 84, 342, 1870, 4753
16328, 1975, 3504, 234, 4752
16329, 3506, 3437, 3466, 4493
16330, 3207, 2436, 3149, 5289
16331, 1574, 803, 1516, 5288
16332, 4247, 5206, 3811, 5308
16333, 3986, 4620, 4625, 5383
16334, 1354, 917, 1096, 5447
16335, 2583, 2411, 2548, 5416
16336, 4057, 4442, 4344, 5094
16337, 4056, 4441, 4343, 5093
16338, 1814, 91, 1876, 4766
16339, 4028, 4690, 4489, 4931
16340, 1236, 1684, 1237, 4771
16341, 4337, 4405, 3898, 5074
16342, 525, 526, 528, 5170
16343, 1580, 823, 4759, 5275
16344, 1199, 649, 4336, 5464
16345, 2456, 4760, 3213, 5276
16346, 3801, 4687, 4524, 5128
16347, 1369, 956, 1097, 4834
16348, 2589, 2730, 3002, 4833
16349, 794, 1409, 1589, 4735
16350, 4027, 4705, 4488, 4930
16351, 1667, 1380, 1379, 4768
16352, 3013, 3012, 3300, 4769
16353, 4198, 4412, 3949, 4983
16354, 4520, 4705, 4060, 4930
16355, 758, 996, 709, 4726
16356, 2391, 2629, 2342, 4727
16357, 1487, 598, 599, 4716
16358, 704, 743, 744, 4719
16359, 551, 552, 553, 4717
16360, 2185, 2186, 2184, 4718
16361, 2877, 2655, 3245, 4720
16362, 1702, 1023, 1021, 4721
16363, 928, 954, 955, 4722
16364, 2587, 2588, 2561, 4723
16365, 3297, 2078, 3005, 4724
16366, 445, 1372, 1664, 4725
16367, 4115, 4484, 5050, 5281
16368, 1364, 1365, 1363, 5267
16369, 2998, 2996, 2997, 5266
16370, 485, 4304, 484, 5520
16371, 2029, 4288, 2030, 5521
16372, 397, 396, 4287, 5522
16373, 954, 928, 856, 4431
16374, 265, 3130, 1957, 3479
16375, 1497, 324, 115, 1848
16376, 191, 3133, 1828, 4710
16377, 43, 1500, 3462, 4711
16378, 4180, 4416, 4005, 5283
16379, 4179, 4415, 4004, 5282
16380, 3979, 4626, 4902, 5407
16381, 1869, 1817, 96, 1776
16382, 4192, 4434, 3769, 5180
16383, 818, 816, 817, 4348
16384, 3820, 4262, 4445, 5393
16385, 5121, 5195, 4129, 5333
16386, 4119, 5052, 4485, 5178
16387, 2424, 2108, 2134, 4512
16388, 2662, 2660, 2698, 4729
16389, 4486, 4118, 5051, 5253
16390, 3860, 4705, 4520, 4930
16391, 2002, 2003, 2837, 5377
16392, 370, 1204, 369, 5376
16393, 3266, 4416, 3294, 5493
16394, 1661, 1633, 4415, 5494
16395, 3498, 3540, 3502, 4954
16396, 1180, 4802, 933, 5172
16397, 3768, 4407, 4291, 4908
16398, 3767, 4406, 4292, 4907
16399, 3867, 5164, 4425, 5249
16400, 3981, 4906, 4621, 5030
16401, 3994, 4680, 4677, 5035
16402, 3859, 4690, 4521, 4931
16403, 4677, 4680, 3994, 5039
16404, 1304, 473, 5244, 5411
16405, 3852, 4544, 4562, 5288
16406, 4543, 4563, 3853, 5289
16407, 3852, 4562, 4568, 5288
16408, 4563, 4567, 3853, 5289
16409, 4145, 4070, 5504, 5519
16410, 3635, 1734, 1719, 4420
16411, 3953, 4480, 4135, 5110
16412, 1454, 487, 484, 5262
16413, 1791, 310, 31, 3458
16414, 4521, 4690, 4059, 4931
16415, 2944, 3368, 2943, 5500
16416, 3127, 2051, 2053, 5237
16417, 4017, 4655, 4653, 4878
16418, 322, 1305, 145, 4636
16419, 3342, 1998, 3432, 5363
16420, 366, 1799, 1709, 5362
16421, 1182, 4766, 1790, 4767
16422, 4516, 4535, 3796, 4866
16423, 3831, 4569, 4561, 4884
16424, 3856, 4579, 4553, 4885
16425, 3858, 4586, 4546, 4888
16426, 3857, 4587, 4545, 4889
16427, 3774, 4547, 4526, 4897
16428, 4541, 4556, 3831, 4896
16429, 4582, 4603, 3921, 4886
16430, 4581, 4604, 3922, 4887
16431, 3782, 4597, 4600, 4899
16432, 3919, 4601, 4598, 4890
16433, 3863, 4577, 4568, 4894
16434, 3864, 4578, 4567, 4895
16435, 3865, 4570, 4566, 4892
16436, 3866, 4571, 4565, 4893
16437, 3849, 4599, 4580, 4900
16438, 3818, 4616, 4558, 4901
16439, 4615, 4625, 3974, 4905
16440, 4167, 3919, 4716, 5225
16441, 3955, 4614, 4686, 4912
16442, 3954, 4613, 4685, 4911
16443, 4487, 4927, 4120, 5398
16444, 3944, 4470, 4230, 5188
16445, 3943, 4469, 4231, 5187
16446, 3859, 4690, 4489, 5055
16447, 4219, 4707, 3762, 4933
16448, 3913, 5034, 4330, 5286
16449, 3914, 5033, 4329, 5285
16450, 4284, 4450, 4409, 5499
16451, 1475, 21, 356, 3501
16452, 244, 3140, 1950, 3450
16453, 4657, 4665, 4029, 4879
16454, 92, 363, 1876, 1508
16455, 3582, 145, 1305, 4636
16456, 4519, 4721, 3953, 5358
16457, 1324, 1329, 1096, 5447
16458, 4135, 4480, 3953, 5134
16459, 3977, 4692, 4363, 5370
16460, 3976, 4693, 4364, 5369
16461, 3801, 4525, 4548, 5048
16462, 3767, 4434, 4192, 5180
16463, 3973, 4248, 5072, 5502
16464, 1862, 1839, 171, 3410
16465, 4009, 4659, 4658, 5040
16466, 4658, 4659, 4009, 5041
16467, 3447, 3496, 240, 1958
16468, 3771, 4591, 4513, 4984
16469, 3770, 4590, 4514, 4985
16470, 4018, 4656, 4654, 5031
16471, 3860, 4705, 4488, 5057
16472, 672, 1396, 674, 4714
16473, 4352, 5086, 4167, 5182
16474, 4653, 4655, 4017, 5044
16475, 4654, 4656, 4018, 5045
16476, 3978, 4627, 4675, 5022
16477, 4151, 4434, 4279, 5364
16478, 3788, 4304, 4294, 5520
16479, 4286, 4288, 3922, 5521
16480, 4285, 4287, 3921, 5522
16481, 3930, 4622, 4528, 5029
16482, 3931, 4623, 4527, 5028
16483, 3413, 1823, 178, 1943
16484, 3770, 4529, 4590, 4985
16485, 3771, 4530, 4591, 4984
16486, 4176, 3955, 4981, 5511
16487, 4619, 4638, 4030, 5027
16488, 3893, 4883, 4571, 4893
16489, 3833, 4632, 4614, 5004
16490, 3832, 4633, 4613, 5003
16491, 4000, 4613, 4685, 4995
16492, 4000, 4633, 4613, 4995
16493, 3779, 4584, 4551, 4996
16494, 3778, 4585, 4550, 4997
16495, 3778, 4527, 4550, 5008
16496, 3779, 4528, 4551, 5009
16497, 3779, 4532, 4584, 4996
16498, 3778, 4531, 4585, 4997
16499, 3819, 4549, 4564, 5002
16500, 4545, 4560, 3830, 5000
16501, 4546, 4559, 3829, 5001
16502, 4545, 3830, 4587, 5000
16503, 4546, 3829, 4586, 5001
16504, 3819, 4561, 4549, 5002
16505, 3853, 4560, 4554, 4998
16506, 3852, 4559, 4555, 4999
16507, 3853, 4554, 4566, 4998
16508, 3852, 4555, 4565, 4999
16509, 4535, 4539, 3802, 5006
16510, 4539, 4542, 3802, 5006
16511, 4557, 4583, 3823, 5007
16512, 4581, 4604, 3943, 5021
16513, 4582, 4603, 3944, 5020
16514, 3802, 4538, 4536, 5010
16515, 3823, 4583, 4557, 5013
16516, 4553, 3823, 4583, 5007
16517, 3765, 4596, 4522, 5005
16518, 3802, 4536, 4535, 5010
16519, 4529, 3894, 4606, 5011
16520, 4530, 3895, 4607, 5012
16521, 3823, 4557, 4538, 5013
16522, 3779, 4551, 4584, 5009
16523, 3778, 4550, 4585, 5008
16524, 3778, 4534, 4531, 5017
16525, 3779, 4533, 4532, 5018
16526, 4531, 4534, 3778, 5016
16527, 4532, 4533, 3779, 5015
16528, 4532, 3779, 4584, 5015
16529, 4531, 3778, 4585, 5016
16530, 4529, 4590, 3894, 5011
16531, 4530, 4591, 3895, 5012
16532, 3778, 4574, 4534, 5017
16533, 3779, 4575, 4533, 5018
16534, 4596, 4599, 3781, 5014
16535, 4580, 3781, 4599, 5014
16536, 4581, 3943, 4606, 5021
16537, 4582, 3944, 4607, 5020
16538, 3834, 4616, 4558, 5026
16539, 3822, 4576, 4552, 5025
16540, 3765, 4522, 4610, 5005
16541, 3988, 4626, 4621, 5030
16542, 3822, 4552, 4627, 5025
16543, 3931, 4631, 4628, 5024
16544, 3930, 4630, 4629, 5023
16545, 3931, 4628, 4574, 5024
16546, 3930, 4629, 4575, 5023
16547, 3978, 4552, 4627, 5022
16548, 3988, 4621, 4638, 5030
16549, 3981, 4626, 4612, 5032
16550, 3832, 4596, 4633, 5003
16551, 3833, 4597, 4632, 5004
16552, 3834, 4634, 4616, 5026
16553, 5125, 5194, 4128, 5334
16554, 3367, 3609, 288, 4497
16555, 1857, 1469, 99, 5501
16556, 4145, 4737, 3992, 5484
16557, 4029, 4636, 4143, 5468
16558, 3842, 4562, 4544, 5288
16559, 3843, 4563, 4543, 5289
16560, 3863, 4568, 4562, 5288
16561, 3864, 4567, 4563, 5289
16562, 4082, 4460, 4365, 4772
16563, 3649, 3604, 4636, 5388
16564, 4653, 4655, 3916, 4878
16565, 4619, 4030, 4668, 5027
16566, 3536, 3561, 3464, 4964
16567, 3658, 3575, 3629, 4354
16568, 3576, 3628, 3659, 4355
16569, 3931, 4641, 4623, 5028
16570, 3930, 4642, 4622, 5029
16571, 1010, 1688, 1260, 4792
16572, 422, 423, 420, 4794
16573, 1656, 1677, 455, 4791
16574, 2653, 2877, 3229, 4793
16575, 2332, 2877, 3244, 4793
16576, 387, 1681, 455, 4791
16577, 1095, 1010, 993, 4792
16578, 1494, 418, 420, 4794
16579, 423, 1393, 1494, 4794
16580, 2994, 3340, 2644, 4795
16581, 2427, 3124, 2125, 4796
16582, 2427, 3042, 3222, 4796
16583, 3703, 3722, 3702, 4264
16584, 1564, 1451, 730, 4797
16585, 3197, 3084, 2363, 4798
16586, 4605, 4609, 3949, 5172
16587, 2915, 4849, 3153, 5204
16588, 678, 4850, 879, 5209
16589, 2512, 2311, 4851, 5210
16590, 3553, 3544, 3515, 4758
16591, 1913, 1883, 1919, 4757
16592, 3102, 248, 1988, 3493
16593, 2332, 3244, 2319, 5261
16594, 770, 4774, 1248, 5091
16595, 4520, 4705, 3860, 5142
16596, 3832, 4779, 4599, 5014
16597, 1895, 1929, 1865, 5306
16598, 3557, 3477, 3554, 5132
16599, 163, 3160, 1965, 1871
16600, 1988, 2746, 3102, 4342
16601, 1015, 890, 1687, 5391
16602, 2754, 3287, 3017, 4640
16603, 3797, 4535, 4516, 4866
16604, 3815, 4556, 4541, 4896
16605, 3875, 4598, 4601, 4890
16606, 3877, 4566, 4570, 4892
16607, 3876, 4565, 4571, 4893
16608, 4568, 4577, 3876, 4894
16609, 4567, 4578, 3877, 4895
16610, 3944, 4603, 4582, 4886
16611, 3943, 4604, 4581, 4887
16612, 3833, 4600, 4597, 4899
16613, 3800, 4526, 4547, 4897
16614, 4561, 4569, 3837, 4884
16615, 3841, 4553, 4579, 4885
16616, 3829, 4546, 4586, 4888
16617, 3830, 4545, 4587, 4889
16618, 4580, 4599, 3781, 4900
16619, 4558, 4616, 3834, 4901
16620, 3986, 4625, 4615, 4905
16621, 4000, 4685, 4613, 4911
16622, 4001, 4686, 4614, 4912
16623, 4521, 4690, 3859, 5140
16624, 1555, 730, 696, 4797
16625, 2329, 3188, 2363, 4798
16626, 1731, 1543, 1732, 5221
16627, 1121, 1654, 1384, 4639
16628, 3800, 4547, 4526, 4965
16629, 3801, 4548, 4525, 4966
16630, 4011, 4665, 4657, 4879
16631, 3981, 4903, 4624, 4904
16632, 3918, 4412, 4198, 4983
16633, 2784, 2785, 2786, 5285
16634, 1152, 1153, 1151, 5286
16635, 4018, 4654, 4657, 5031
16636, 1040, 1721, 1524, 4736
16637, 1923, 1921, 1841, 5136
16638, 3786, 4777, 4202, 5263
16639, 3828, 4205, 4863, 5170
16640, 4543, 4941, 3843, 5516
16641, 4544, 4942, 3842, 5515
16642, 1120, 1764, 1467, 4806
16643, 3955, 4951, 4614, 5518
16644, 3787, 4643, 4722, 4988
16645, 3788, 4644, 4723, 4987
16646, 4677, 4680, 4031, 5035
16647, 4646, 4719, 3899, 4986
16648, 3397, 3100, 2753, 4803
16649, 4031, 4680, 4677, 5039
16650, 421, 479, 4435, 5469
16651, 4756, 4816, 3966, 5352
16652, 3766, 4611, 4523, 5145
16653, 3765, 4610, 4522, 5144
16654, 782, 868, 869, 4443
16655, 2501, 2502, 2415, 4444
16656, 3520, 1541, 49, 5062
16657, 197, 1886, 3174, 5061
16658, 4318, 4104, 5221, 5446
16659, 5056, 5092, 4072, 5508
16660, 1990, 1860, 170, 3410
16661, 1666, 1006, 1178, 4740
16662, 3320, 2917, 3322, 5196
16663, 2917, 2916, 1953, 5196
16664, 3842, 4822, 4466, 4942
16665, 3843, 4823, 4467, 4941
16666, 1113, 4276, 1787, 5324
16667, 1950, 3409, 245, 3450
16668, 491, 493, 1655, 4399
16669, 4167, 5086, 3861, 5314
16670, 4459, 4110, 4709, 5409
16671, 190, 1828, 3133, 1951
16672, 3462, 42, 318, 1500
16673, 1891, 1905, 1844, 4275
16674, 1689, 5213, 320, 5250
16675, 500, 4147, 5119, 5411
16676, 3238, 2747, 2959, 4867
16677, 3806, 5066, 5277, 5353
16678, 4222, 5168, 4035, 5219
16679, 1029, 4728, 1027, 5292
16680, 4294, 4304, 3792, 5520
16681, 3775, 4288, 4286, 5521
16682, 3774, 4287, 4285, 5522
16683, 99, 1469, 312, 5501
16684, 2215, 4896, 3040, 5169
16685, 4002, 4675, 4627, 5022
16686, 3275, 3281, 4944, 5036
16687, 1642, 1648, 4943, 5037
16688, 2951, 2736, 3347, 4871
16689, 4221, 5171, 4043, 5220
16690, 4061, 5416, 5319, 5421
16691, 3623, 3584, 3631, 5080
16692, 1400, 4842, 650, 4876
16693, 839, 917, 1061, 4391
16694, 2754, 5168, 4803, 5465
16695, 418, 415, 4743, 5043
16696, 3400, 1968, 182, 1842
16697, 3949, 4609, 4605, 5090
16698, 4035, 4427, 4356, 5219
16699, 2532, 2391, 2390, 4747
16700, 333, 1136, 1792, 4454
16701, 1760, 1124, 1074, 5519
16702, 3756, 5195, 4860, 5382
16703, 3757, 5194, 4861, 5387
16704, 3965, 4811, 4760, 5381
16705, 4043, 4426, 4357, 5220
16706, 4059, 4690, 4517, 4931
16707, 4445, 5397, 4262, 5418
16708, 1029, 1027, 1065, 5292
16709, 3964, 4759, 5275, 5368
16710, 4526, 4547, 3774, 4965
16711, 4525, 4548, 3775, 4966
16712, 3760, 4310, 4289, 5417
16713, 4305, 4308, 3780, 5415
16714, 4415, 4789, 3947, 4837
16715, 4416, 4788, 3946, 4836
16716, 3764, 4512, 4360, 5452
16717, 144, 3604, 3583, 5388
16718, 501, 791, 475, 5177
16719, 2832, 3316, 2988, 4745
16720, 855, 990, 1476, 4744
16721, 2202, 2201, 2204, 4746
16722, 4060, 4705, 4650, 4930
16723, 901, 848, 1053, 5297
16724, 1772, 318, 1500, 4938
16725, 3405, 1951, 3133, 4940
16726, 2374, 3078, 3129, 4822
16727, 741, 1445, 1496, 4823
16728, 855, 4744, 1476, 5077
16729, 1740, 1722, 1041, 4732
16730, 3936, 4745, 4133, 4873
16731, 3365, 4401, 1952, 5131
16732, 4135, 4928, 3825, 5110
16733, 10, 1797, 1715, 3525
16734, 1898, 4276, 1858, 5270
16735, 3801, 4687, 4548, 5336
16736, 4658, 4677, 3994, 5039
16737, 4044, 5277, 5066, 5353
16738, 4654, 4656, 3915, 5031
16739, 2365, 2989, 4785, 5392
16740, 4658, 4659, 3912, 5040
16741, 3912, 4659, 4658, 5041
16742, 4088, 4860, 5195, 5382
16743, 4013, 5184, 4974, 5424
16744, 4293, 4303, 3787, 5408
16745, 3657, 4676, 4497, 5509
16746, 4009, 4658, 4677, 5040
16747, 4659, 4678, 4009, 5041
16748, 4087, 4861, 5194, 5387
16749, 4294, 4304, 3788, 5406
16750, 3812, 4973, 4716, 5225
16751, 3916, 4655, 4653, 5044
16752, 3915, 4656, 4654, 5045
16753, 4513, 4591, 3790, 4984
16754, 4514, 4590, 3789, 4985
16755, 3290, 5051, 2024, 5253
16756, 1553, 780, 916, 4919
16757, 1105, 1344, 1449, 5294
16758, 3655, 3640, 4319, 5375
16759, 3938, 4315, 4300, 5405
16760, 3577, 3655, 4967, 5375
16761, 1110, 4367, 1107, 5166
16762, 2740, 2743, 4368, 5165
16763, 3894, 4590, 4529, 4985
16764, 3895, 4591, 4530, 4984
16765, 3741, 4672, 3720, 4920
16766, 4613, 4633, 3832, 4995
16767, 3994, 4656, 4680, 5035
16768, 3954, 4685, 4613, 4995
16769, 4001, 4614, 4632, 5004
16770, 4000, 4613, 4633, 5003
16771, 3783, 4550, 4527, 5008
16772, 3784, 4551, 4528, 5009
16773, 3841, 4564, 4549, 5002
16774, 3803, 4551, 4584, 4996
16775, 4550, 4585, 3804, 4997
16776, 3797, 4539, 4535, 5006
16777, 4549, 4561, 3837, 5002
16778, 3798, 4536, 4538, 5010
16779, 3927, 4584, 4532, 4996
16780, 3928, 4585, 4531, 4997
16781, 3815, 4542, 4539, 5006
16782, 3824, 4583, 4557, 5007
16783, 3854, 4560, 4545, 5000
16784, 3855, 4559, 4546, 5001
16785, 4545, 4587, 3857, 5000
16786, 4546, 4586, 3858, 5001
16787, 3824, 4557, 4583, 5013
16788, 4554, 4560, 3854, 4998
16789, 4555, 4559, 3855, 4999
16790, 3865, 4566, 4554, 4998
16791, 3866, 4565, 4555, 4999
16792, 4529, 4606, 3885, 5011
16793, 4530, 4607, 3884, 5012
16794, 3803, 4584, 4551, 5009
16795, 3804, 4585, 4550, 5008
16796, 3796, 4535, 4536, 5010
16797, 3770, 4590, 4529, 5011
16798, 3771, 4591, 4530, 5012
16799, 4553, 4583, 3856, 5007
16800, 3798, 4538, 4557, 5013
16801, 3921, 4603, 4582, 5020
16802, 3922, 4604, 4581, 5021
16803, 3776, 4531, 4534, 5017
16804, 3777, 4532, 4533, 5018
16805, 3776, 4534, 4531, 5016
16806, 3777, 4533, 4532, 5015
16807, 3816, 4534, 4574, 5017
16808, 3817, 4533, 4575, 5018
16809, 4532, 4584, 3927, 5015
16810, 4531, 4585, 3928, 5016
16811, 3832, 4599, 4596, 5014
16812, 4580, 4599, 3849, 5014
16813, 4581, 4606, 3894, 5021
16814, 4582, 4607, 3895, 5020
16815, 4522, 4596, 3781, 5005
16816, 3785, 4610, 4522, 5005
16817, 4552, 4576, 3812, 5025
16818, 4621, 4626, 3981, 5030
16819, 3818, 4558, 4616, 5026
16820, 3822, 4627, 4552, 5022
16821, 3978, 4627, 4552, 5025
16822, 1090, 1652, 1267, 4748
16823, 3285, 2900, 2723, 4749
16824, 3993, 4628, 4631, 5024
16825, 4629, 4630, 3999, 5023
16826, 3784, 4528, 4622, 5029
16827, 3783, 4527, 4623, 5028
16828, 3816, 4574, 4628, 5024
16829, 4575, 4629, 3817, 5023
16830, 4020, 4638, 4621, 5030
16831, 3988, 4638, 4619, 5027
16832, 4319, 4335, 4054, 5448
16833, 3765, 4633, 4596, 5003
16834, 3766, 4632, 4597, 5004
16835, 3975, 4616, 4634, 5026
16836, 3448, 3504, 235, 3427
16837, 2416, 2471, 2417, 4816
16838, 1951, 3383, 189, 1847
16839, 1750, 41, 318, 3478
16840, 4612, 4626, 3979, 5032
16841, 1699, 1684, 1013, 4812
16842, 3775, 4548, 4525, 5048
16843, 3336, 3337, 1956, 5455
16844, 836, 787, 835, 4751
16845, 4655, 4679, 4017, 5044
16846, 4656, 4680, 4018, 5045
16847, 1561, 1079, 4625, 5214
16848, 1222, 1221, 1073, 4750
16849, 814, 813, 810, 4828
16850, 2446, 2443, 2447, 4829
16851, 1496, 815, 810, 4828
16852, 3129, 2448, 2443, 4829
16853, 653, 377, 1532, 4831
16854, 1117, 1748, 1118, 4267
16855, 2751, 2750, 3381, 4268
16856, 375, 377, 376, 4831
16857, 3470, 12, 1795, 3505
16858, 1837, 160, 3428, 1874
16859, 3529, 3497, 3447, 4731
16860, 4313, 4458, 3822, 5251
16861, 4598, 4716, 3919, 5225
16862, 3995, 4655, 4926, 5044
16863, 3994, 4656, 4925, 5045
16864, 2534, 5305, 2686, 5396
16865, 1468, 1869, 96, 1776
16866, 85, 1815, 1870, 1794
16867, 4619, 4668, 3980, 5027
16868, 1141, 4481, 1142, 5125
16869, 3971, 4623, 4641, 5028
16870, 3980, 4622, 4642, 5029
16871, 2522, 2417, 3154, 4756
16872, 4576, 4755, 3875, 5112
16873, 4004, 4789, 4415, 4837
16874, 4005, 4788, 4416, 4836
16875, 4207, 3932, 4838, 4956
16876, 2154, 2155, 2152, 4965
16877, 521, 522, 519, 4966
16878, 2424, 2134, 2990, 4840
16879, 3312, 2990, 2641, 4840
16880, 2134, 2373, 2641, 4840
16881, 3616, 3653, 3634, 5233
16882, 94, 1896, 1931, 1507
16883, 4161, 3831, 5169, 5224
16884, 2774, 4496, 2775, 5121
16885, 4230, 4470, 3927, 5188
16886, 4231, 4469, 3928, 5187
16887, 4235, 5074, 3898, 5204
16888, 3945, 5074, 4235, 5204
16889, 3038, 3039, 2563, 4841
16890, 3038, 2910, 2915, 4841
16891, 1400, 1401, 650, 4842
16892, 417, 988, 1400, 4842
16893, 1401, 988, 1603, 4842
16894, 4025, 4318, 5221, 5446
16895, 4011, 4657, 4654, 5031
16896, 1822, 1859, 101, 5129
16897, 2494, 3151, 2369, 4844
16898, 736, 861, 1518, 4845
16899, 1579, 962, 1518, 4845
16900, 2595, 3151, 3212, 4844
16901, 861, 1071, 1579, 4845
16902, 2704, 3212, 2494, 4844
16903, 2581, 2948, 2622, 4345
16904, 3948, 4372, 4358, 4783
16905, 88, 336, 1773, 1929
16906, 4548, 4687, 3806, 5336
16907, 1814, 325, 91, 4766
16908, 3761, 4816, 4458, 5251
16909, 3904, 4164, 4703, 5510
16910, 2005, 2856, 2003, 5162
16911, 372, 1223, 370, 5163
16912, 3321, 2643, 2728, 5310
16913, 752, 674, 1396, 5312
16914, 1619, 497, 1291, 5311
16915, 3801, 4548, 4687, 5048
16916, 3604, 144, 322, 5388
16917, 3086, 2740, 2739, 5165
16918, 1453, 1107, 1106, 5166
16919, 3717, 80, 3665, 5362
16920, 3718, 230, 3664, 5363
16921, 4634, 3834, 4826, 5150
16922, 1024, 1612, 1022, 5313
16923, 3820, 4832, 4457, 5277
16924, 3933, 4519, 4721, 5399
16925, 3343, 3338, 2780, 4852
16926, 1734, 4420, 3598, 5154
16927, 3762, 4707, 4219, 5512
16928, 774, 883, 812, 5348
16929, 2407, 2516, 2445, 5347
16930, 4725, 4989, 3874, 5412
16931, 1881, 1793, 122, 4417
16932, 3426, 272, 3516, 4418
16933, 1973, 3592, 278, 5394
16934, 128, 340, 3593, 5395
16935, 4178, 3982, 4960, 5019
16936, 1374, 920, 1124, 4959
16937, 1459, 421, 479, 4435
16938, 1766, 1501, 326, 4320
16939, 1959, 3399, 3134, 4321
16940, 2199, 2197, 3199, 5036
16941, 564, 1566, 566, 5037
16942, 3726, 3732, 3690, 4482
16943, 4258, 4411, 3879, 5327
16944, 4974, 5184, 4109, 5424
16945, 3809, 4200, 4503, 4973
16946, 3953, 4721, 4519, 5399
16947, 4621, 4906, 4020, 5030
16948, 2538, 2737, 2843, 4438
16949, 4132, 4921, 3896, 5138
16950, 698, 5014, 1612, 5313
16951, 3988, 4902, 4626, 5407
16952, 4007, 5140, 4314, 5296
16953, 2215, 3040, 2217, 5169
16954, 4164, 3904, 4701, 5510
16955, 3000, 2999, 2997, 4808
16956, 1364, 1367, 1366, 4807
16957, 961, 4763, 876, 5234
16958, 3810, 4433, 4290, 5103
16959, 4291, 4407, 3768, 4936
16960, 4292, 4406, 3767, 4935
16961, 4136, 4771, 4102, 5357
16962, 1561, 1240, 1079, 5214
16963, 3840, 4730, 4152, 4802
16964, 4132, 4746, 3972, 4929
16965, 1995, 3133, 191, 4710
16966, 362, 1500, 43, 4711
16967, 3731, 3729, 3683, 4395
16968, 1597, 772, 5050, 5281
16969, 3982, 4131, 4747, 4932
16970, 1492, 316, 1164, 4757
16971, 1949, 2797, 3125, 4758
16972, 1615, 1613, 530, 5033
16973, 2163, 3248, 3246, 5034
16974, 4458, 4816, 4052, 5251
16975, 4009, 4677, 4658, 5039
16976, 1872, 1804, 1834, 4451
16977, 174, 1967, 3082, 1894
16978, 4453, 4711, 4076, 5123
16979, 4452, 4710, 4077, 5124
16980, 4052, 4816, 4756, 5352
16981, 3821, 4445, 4262, 5393
16982, 1927, 1892, 1848, 4940
16983, 3526, 3479, 3564, 4938
16984, 4132, 3896, 4921, 5411
16985, 2471, 2957, 2729, 4910
16986, 3447, 1958, 241, 4731
16987, 3994, 4677, 4658, 5040
16988, 3995, 4678, 4659, 5041
16989, 3429, 3082, 2977, 5482
16990, 3769, 5095, 4192, 5180
16991, 2499, 2500, 5057, 5260
16992, 4002, 4867, 4919, 5181
16993, 2754, 4803, 2539, 5465
16994, 1098, 1099, 914, 5104
16995, 310, 1791, 1376, 4764
16996, 2547, 2731, 2732, 5105
16997, 3812, 4503, 4973, 5225
16998, 4006, 4143, 4732, 5468
16999, 4143, 4636, 4029, 5131
17000, 4595, 4754, 3959, 5254
17001, 866, 867, 5055, 5271
17002, 3249, 4923, 2418, 5325
17003, 1616, 4922, 785, 5326
17004, 4018, 4680, 4656, 5035
17005, 3828, 4947, 4698, 5082
17006, 1037, 1580, 823, 4759
17007, 3982, 4747, 4131, 5111
17008, 3948, 4430, 4358, 5099
17009, 2456, 2670, 3213, 4760
17010, 3082, 2738, 2977, 5482
17011, 560, 1248, 1609, 5091
17012, 563, 770, 1248, 5091
17013, 3412, 2767, 1966, 4278
17014, 3995, 4679, 4655, 5044
17015, 3994, 4680, 4656, 5045
17016, 3880, 4744, 4594, 5191
17017, 3730, 3691, 3684, 5357
17018, 4634, 4826, 4037, 5150
17019, 4515, 4814, 4045, 4915
17020, 1125, 1759, 4874, 5129
17021, 3956, 4814, 4515, 4915
17022, 3764, 4494, 4360, 4840
17023, 3788, 4294, 5202, 5520
17024, 3356, 4778, 5143, 5400
17025, 4019, 4732, 4428, 4975
17026, 532, 1582, 1544, 4433
17027, 1136, 1135, 1137, 5252
17028, 1930, 4432, 1825, 5482
17029, 1612, 5229, 1022, 5313
17030, 3904, 4703, 4326, 5510
17031, 4133, 3948, 5109, 5255
17032, 145, 3604, 322, 4636
17033, 2765, 5299, 2776, 5303
17034, 1143, 1132, 5298, 5302
17035, 3947, 4789, 4415, 5282
17036, 3946, 4788, 4416, 5283
17037, 708, 1529, 1502, 4927
17038, 4130, 4092, 5379, 5414
17039, 3148, 3305, 3304, 5182
17040, 3303, 2203, 3304, 5182
17041, 4467, 3843, 4941, 5516
17042, 4466, 3842, 4942, 5515
17043, 3955, 4475, 4951, 5518
17044, 3822, 4755, 4576, 5112
17045, 757, 1502, 991, 4927
17046, 363, 93, 1816, 1507
17047, 3510, 3447, 241, 4731
17048, 3903, 4500, 4194, 5042
17049, 3566, 17, 3567, 1785
17050, 4517, 4690, 4028, 4931
17051, 1404, 4524, 524, 5336
17052, 2890, 2891, 3427, 5334
17053, 2686, 2703, 2759, 5396
17054, 1990, 169, 1860, 3108
17055, 496, 1577, 4809, 5119
17056, 2129, 3210, 4810, 5118
17057, 5072, 5211, 2855, 5502
17058, 3927, 4470, 4153, 5188
17059, 3928, 4469, 4154, 5187
17060, 2735, 2815, 3423, 5176
17061, 4703, 4717, 4164, 5100
17062, 4704, 4718, 4163, 5101
17063, 1770, 361, 1227, 5120
17064, 4078, 4438, 4353, 4817
17065, 3849, 5014, 4779, 5313
17066, 4650, 4705, 4027, 4930
17067, 3747, 3716, 3677, 5376
17068, 3715, 3676, 3748, 5377
17069, 1745, 1717, 913, 5126
17070, 2573, 2572, 2500, 5057
17071, 67, 1403, 3724, 3694
17072, 1740, 1741, 1285, 4967
17073, 3350, 2546, 3378, 5127
17074, 318, 1365, 1750, 4938
17075, 3383, 1951, 2998, 4940
17076, 2661, 4729, 2662, 5401
17077, 1029, 1028, 4728, 5402
17078, 4007, 4819, 4787, 5222
17079, 3742, 4852, 3705, 5250
17080, 970, 4817, 1050, 4993
17081, 3442, 3556, 3563, 5123
17082, 1926, 1809, 1918, 5124
17083, 4520, 4820, 4008, 5459
17084, 4264, 4519, 3953, 5358
17085, 4787, 4819, 4064, 5222
17086, 315, 140, 3606, 3630
17087, 67, 314, 3694, 3719
17088, 3952, 4744, 4594, 5077
17089, 1157, 1504, 769, 5043
17090, 415, 1504, 413, 5043
17091, 3165, 2010, 4648, 5523
17092, 2521, 2338, 3309, 4755
17093, 3966, 4483, 4270, 5083
17094, 4215, 4009, 4843, 5179
17095, 2042, 2044, 3094, 5322
17096, 411, 1461, 409, 5321
17097, 2045, 2044, 2043, 5322
17098, 411, 410, 412, 5321
17099, 4595, 4754, 3941, 5141
17100, 586, 4424, 1437, 4976
17101, 3070, 2219, 4425, 4977
17102, 1335, 960, 5112, 5251
17103, 4024, 5168, 4222, 5219
17104, 3806, 4687, 4548, 5048
17105, 4023, 5171, 4221, 5220
17106, 3772, 5146, 4962, 5493
17107, 3773, 5147, 4963, 5494
17108, 144, 3583, 1309, 5388
17109, 355, 1113, 1469, 5501
17110, 4415, 4789, 4004, 5282
17111, 4416, 4788, 4005, 5283
17112, 4250, 4993, 4003, 5212
17113, 4427, 4652, 4356, 5219
17114, 4426, 4651, 4357, 5220
17115, 867, 940, 939, 5055
17116, 4624, 4750, 3992, 5113
17117, 3801, 4524, 4205, 5128
17118, 1857, 355, 98, 1469
17119, 1377, 33, 335, 3454
17120, 1881, 122, 1884, 4417
17121, 272, 3474, 3516, 4418
17122, 4609, 4745, 3936, 5090
17123, 4458, 5112, 3822, 5251
17124, 2247, 3032, 2284, 4775
17125, 3997, 4363, 4212, 5370
17126, 3996, 4364, 4213, 5369
17127, 325, 1714, 1790, 4766
17128, 3147, 1877, 168, 3108
17129, 4152, 3813, 4730, 5274
17130, 4006, 4732, 4143, 4975
17131, 785, 921, 1068, 4456
17132, 2418, 2554, 2701, 4455
17133, 4641, 4751, 3971, 5122
17134, 2566, 2813, 4924, 5449
17135, 2020, 2019, 2018, 4776
17136, 385, 387, 386, 4777
17137, 2977, 4683, 2975, 5270
17138, 3165, 2286, 2010, 5523
17139, 3582, 3604, 145, 4636
17140, 4200, 4440, 3987, 5069
17141, 4595, 3941, 4898, 5141
17142, 1564, 4797, 1555, 5330
17143, 3197, 4798, 3188, 5331
17144, 4428, 4732, 4006, 4975
17145, 1404, 524, 1489, 5336
17146, 3949, 4412, 4307, 4983
17147, 4136, 5357, 4102, 5513
17148, 1305, 4636, 1306, 5468
17149, 4624, 4903, 3987, 4904
17150, 2742, 2740, 2743, 4368
17151, 1109, 1107, 1110, 4367
17152, 486, 485, 484, 5520
17153, 485, 490, 491, 5520
17154, 397, 702, 399, 5522
17155, 2032, 2030, 2335, 5521
17156, 2029, 2030, 2031, 5521
17157, 397, 398, 396, 5522
17158, 3956, 4515, 4814, 5234
17159, 1474, 950, 1251, 4770
17160, 3167, 4653, 2726, 5273
17161, 4400, 4838, 3960, 4956
17162, 3805, 4547, 4897, 5309
17163, 4373, 5239, 4382, 5308
17164, 1540, 680, 4698, 5170
17165, 1016, 1147, 1017, 5351
17166, 4010, 4178, 4490, 5193
17167, 3068, 4832, 2900, 5277
17168, 3678, 3737, 3742, 4263
17169, 2746, 2747, 2683, 5181
17170, 1231, 1564, 1555, 5330
17171, 2864, 3197, 3188, 5331
17172, 3947, 4923, 4618, 5325
17173, 3946, 4922, 4617, 5326
17174, 2751, 4268, 1970, 5061
17175, 1118, 4267, 337, 5062
17176, 3356, 5143, 3374, 5400
17177, 3929, 4595, 4898, 5141
17178, 520, 519, 518, 4966
17179, 2152, 2151, 2153, 4965
17180, 718, 782, 843, 4780
17181, 2476, 2351, 2415, 4781
17182, 3988, 4173, 4902, 5407
17183, 2816, 2694, 2814, 5222
17184, 4520, 4060, 4820, 5459
17185, 3838, 4161, 4713, 5256
17186, 3912, 4175, 4714, 5257
17187, 4457, 4832, 4044, 5277
17188, 1694, 80, 366, 5362
17189, 230, 1998, 3327, 5363
17190, 1127, 4452, 1129, 5124
17191, 2762, 2760, 4453, 5123
17192, 1980, 3324, 3341, 4968
17193, 3102, 4342, 2746, 5339
17194, 3633, 3614, 4419, 5460
17195, 3840, 4152, 4730, 5274
17196, 3968, 4782, 4199, 4909
17197, 2003, 4316, 2004, 5162
17198, 371, 370, 4317, 5163
17199, 4013, 4751, 4641, 5122
17200, 4149, 3806, 4687, 5336
17201, 2541, 2745, 2934, 4673
17202, 908, 1112, 1301, 4674
17203, 3886, 4870, 4132, 5138
17204, 2993, 2994, 2992, 4920
17205, 895, 4898, 1695, 5141
17206, 2695, 4799, 2694, 5222
17207, 3920, 4382, 4373, 5239
17208, 3651, 3618, 3650, 5458
17209, 3971, 4846, 4623, 5028
17210, 3584, 3616, 3631, 4269
17211, 4393, 5221, 4104, 5446
17212, 4448, 4766, 4124, 4916
17213, 3939, 5092, 5056, 5508
17214, 1754, 1507, 1354, 4398
17215, 4161, 5169, 4696, 5224
17216, 3316, 3260, 2836, 4873
17217, 4132, 4870, 3886, 5177
17218, 2663, 2661, 2662, 5401
17219, 1029, 1030, 1028, 5402
17220, 4179, 4415, 4051, 5494
17221, 4180, 4416, 4050, 5493
17222, 1304, 1297, 473, 5411
17223, 557, 1609, 555, 4350
17224, 2188, 2190, 3242, 4351
17225, 1248, 4774, 1246, 5503
17226, 3811, 4373, 4382, 5308
17227, 1541, 1224, 1778, 5062
17228, 3174, 2857, 3411, 5061
17229, 4610, 4776, 3785, 5144
17230, 3786, 4611, 4777, 5145
17231, 3933, 4721, 4519, 5358
17232, 4594, 4744, 3880, 5077
17233, 3238, 4675, 2683, 5181
17234, 4436, 4720, 3941, 4812
17235, 3788, 4644, 4241, 5227
17236, 3787, 4643, 4240, 5228
17237, 4226, 4645, 3933, 5229
17238, 3899, 4646, 4238, 5230
17239, 3812, 4716, 4598, 5225
17240, 3825, 4244, 4648, 5226
17241, 4032, 4420, 4843, 5179
17242, 4020, 4786, 4638, 5243
17243, 1517, 1248, 1246, 5503
17244, 1247, 1246, 937, 5503
17245, 1740, 1308, 4732, 5460
17246, 3957, 5213, 4237, 5391
17247, 3987, 5069, 4440, 5113
17248, 4131, 4932, 3982, 5245
17249, 3835, 4203, 4592, 4869
17250, 4204, 4593, 3836, 4868
17251, 3268, 4778, 3356, 5400
17252, 2067, 4405, 2068, 5371
17253, 2949, 2516, 2920, 5347
17254, 1316, 883, 1287, 5348
17255, 1107, 1109, 1108, 4367
17256, 2742, 2741, 2740, 4368
17257, 3587, 3628, 3660, 4355
17258, 3629, 3661, 3588, 4354
17259, 2132, 3146, 2312, 4815
17260, 4059, 4521, 4819, 5140
17261, 3635, 1719, 140, 3606
17262, 1115, 1766, 326, 4320
17263, 1959, 2748, 3399, 4321
17264, 2935, 1980, 2936, 4979
17265, 3295, 3371, 2726, 5273
17266, 4060, 4520, 4820, 5142
17267, 2327, 2933, 2358, 4742
17268, 725, 694, 1300, 4741
17269, 1894, 1930, 1825, 5482
17270, 3840, 4348, 4307, 5047
17271, 1558, 1576, 1431, 4846
17272, 1236, 330, 1238, 5357
17273, 4383, 4743, 4504, 5043
17274, 3370, 3167, 2726, 5273
17275, 1850, 1891, 4454, 5356
17276, 3953, 4169, 4721, 5399
17277, 1258, 1794, 1257, 5333
17278, 3341, 3324, 2717, 4968
17279, 1574, 4568, 1293, 5288
17280, 3207, 4567, 2926, 5289
17281, 3201, 5042, 2614, 5135
17282, 2681, 2773, 3345, 4681
17283, 3780, 5053, 4184, 5237
17284, 2282, 5090, 2068, 5489
17285, 4029, 4401, 4857, 5183
17286, 2825, 2453, 2828, 4773
17287, 534, 537, 4498, 5287
17288, 4037, 4790, 4634, 5186
17289, 3913, 4422, 5034, 5286
17290, 3914, 4423, 5033, 5285
17291, 3122, 4547, 2826, 5309
17292, 3973, 4191, 5081, 5287
17293, 500, 5119, 496, 5411
17294, 3268, 3265, 2676, 4778
17295, 4455, 5267, 4067, 5317
17296, 4065, 4456, 5266, 5316
17297, 811, 4700, 1471, 5256
17298, 3029, 4702, 2385, 5257
17299, 2681, 2539, 2753, 5137
17300, 3268, 3265, 4778, 5291
17301, 732, 1356, 4787, 5083
17302, 3936, 4605, 4802, 5172
17303, 4149, 4687, 3806, 5066
17304, 4216, 4855, 3950, 5349
17305, 4217, 4856, 3951, 5350
17306, 1235, 1236, 4771, 5357
17307, 2775, 3438, 3385, 4496
17308, 418, 769, 415, 5043
17309, 4391, 4733, 4058, 4862
17310, 3020, 4430, 2057, 5378
17311, 2371, 2364, 3084, 4789
17312, 738, 731, 1451, 4788
17313, 3166, 2365, 2989, 4785
17314, 4352, 5182, 3809, 5365
17315, 3318, 4519, 2872, 5304
17316, 1283, 1284, 1685, 4969
17317, 1356, 1533, 732, 4787
17318, 3393, 2757, 2707, 4403
17319, 4145, 4071, 5386, 5519
17320, 4152, 4740, 4697, 5384
17321, 2860, 3403, 1994, 5130
17322, 1171, 1168, 4426, 5171
17323, 3837, 4472, 4234, 4830
17324, 4234, 4472, 3845, 4830
17325, 4240, 4479, 3784, 4827
17326, 3934, 4479, 4240, 4827
17327, 2801, 4427, 2804, 5168
17328, 1144, 1065, 1698, 4970
17329, 2472, 2694, 2695, 4799
17330, 1927, 1882, 4939, 4940
17331, 3519, 4937, 3564, 4938
17332, 3347, 240, 3496, 1958
17333, 3643, 3578, 4340, 5389
17334, 3580, 4341, 3642, 5390
17335, 1805, 1752, 1142, 4481
17336, 4258, 3879, 4411, 5262
17337, 104, 1849, 1844, 1792
17338, 728, 841, 778, 4786
17339, 4280, 4446, 4146, 5371
17340, 4515, 4763, 4045, 5234
17341, 2594, 2510, 2509, 4783
17342, 4625, 3989, 4775, 5214
17343, 3978, 4440, 4200, 5069
17344, 1179, 933, 1180, 4802
17345, 3966, 4787, 4483, 5083
17346, 1894, 3082, 173, 3429
17347, 3886, 5138, 4132, 5244
17348, 4132, 5138, 3896, 5244
17349, 2935, 2936, 3322, 4979
17350, 4258, 4411, 3900, 5262
17351, 3613, 3633, 3614, 4419
17352, 945, 4507, 919, 5361
17353, 3651, 4676, 3585, 5458
17354, 2964, 4473, 3291, 5320
17355, 4131, 5111, 3969, 5245
17356, 3982, 5111, 4131, 5245
17357, 4139, 4018, 4857, 5183
17358, 4196, 4730, 3813, 5274
17359, 4096, 4919, 4867, 5181
17360, 4353, 4817, 4003, 4993
17361, 3410, 1839, 171, 1942
17362, 1642, 566, 1648, 5037
17363, 3275, 2199, 3281, 5036
17364, 3238, 2833, 2683, 4675
17365, 4188, 4445, 3821, 5393
17366, 2987, 3401, 2696, 5223
17367, 4282, 4364, 3996, 5369
17368, 4281, 4363, 3997, 5370
17369, 1943, 2766, 3008, 4958
17370, 1859, 1447, 101, 5129
17371, 2549, 2412, 2972, 4790
17372, 3643, 3578, 3637, 4340
17373, 3580, 3636, 3642, 4341
17374, 4084, 4782, 4333, 5451
17375, 2573, 2846, 2834, 4952
17376, 4787, 4799, 3966, 5222
17377, 4207, 4838, 4400, 4956
17378, 3534, 3451, 3540, 4365
17379, 906, 1120, 1048, 5133
17380, 1144, 1698, 338, 4970
17381, 2483, 3216, 3206, 4371
17382, 1573, 850, 1583, 4370
17383, 4132, 5177, 3886, 5244
17384, 3971, 4439, 4734, 5454
17385, 2661, 4475, 4729, 5511
17386, 1259, 1332, 949, 4761
17387, 4132, 5244, 3896, 5411
17388, 1284, 1283, 320, 4969
17389, 2371, 2364, 4789, 5282
17390, 738, 731, 4788, 5283
17391, 179, 1935, 3424, 1823
17392, 3630, 315, 1312, 4676
17393, 357, 28, 3568, 1446
17394, 225, 3668, 1961, 5513
17395, 3650, 3649, 3620, 4401
17396, 4483, 4787, 3966, 5222
17397, 2420, 4630, 2419, 5338
17398, 3467, 3543, 3546, 4481
17399, 3450, 3512, 3548, 4772
17400, 1285, 1741, 329, 4967
17401, 3466, 3437, 1969, 4493
17402, 1201, 940, 1213, 4961
17403, 3849, 4599, 4779, 5014
17404, 3220, 5069, 2257, 5113
17405, 4594, 4744, 3952, 5191
17406, 3900, 4501, 4258, 5197
17407, 3964, 4882, 4759, 5368
17408, 4277, 4103, 5196, 5351
17409, 4078, 5324, 4276, 5501
17410, 4237, 3957, 5153, 5213
17411, 1088, 530, 1613, 5033
17412, 2721, 2163, 3246, 5034
17413, 2004, 2003, 1974, 4316
17414, 370, 341, 371, 4317
17415, 837, 4751, 835, 5319
17416, 1131, 1132, 1130, 5298
17417, 2765, 2763, 2764, 5299
17418, 1727, 1728, 328, 4872
17419, 4108, 4971, 5338, 5465
17420, 1038, 1730, 1044, 4805
17421, 571, 1356, 5083, 5296
17422, 3837, 4472, 4830, 5403
17423, 3784, 4827, 4479, 5404
17424, 2817, 4483, 2695, 5222
17425, 3268, 2624, 5291, 5400
17426, 3702, 211, 1978, 5304
17427, 3724, 1403, 1691, 4672
17428, 95, 1817, 1896, 1776
17429, 4296, 5138, 3886, 5244
17430, 3896, 5138, 4296, 5244
17431, 2974, 2971, 2978, 4708
17432, 1147, 1705, 323, 4369
17433, 3807, 4504, 4383, 4743
17434, 3987, 4750, 4624, 5113
17435, 3970, 4425, 4977, 5164
17436, 3840, 4730, 4196, 5274
17437, 3982, 4960, 4727, 5488
17438, 3507, 3464, 255, 4964
17439, 4147, 4688, 3938, 4917
17440, 4148, 4689, 3939, 4918
17441, 925, 1202, 1160, 4784
17442, 4318, 4490, 4010, 5273
17443, 1658, 1331, 4474, 5340
17444, 2881, 2196, 2403, 4921
17445, 2935, 4979, 3322, 5196
17446, 1599, 1574, 1293, 5288
17447, 3207, 2926, 3232, 5289
17448, 1805, 1142, 3467, 4481
17449, 1458, 4435, 479, 5174
17450, 1811, 1937, 1904, 5302
17451, 3570, 3558, 3513, 5303
17452, 3495, 4278, 3565, 5300
17453, 1845, 4432, 1930, 5501
17454, 2965, 2582, 2892, 4765
17455, 3940, 4745, 4609, 5090
17456, 2821, 4972, 2700, 5068
17457, 3809, 4463, 4338, 4835
17458, 4179, 4844, 4508, 5147
17459, 4180, 4845, 4509, 5146
17460, 144, 1309, 322, 5388
17461, 4277, 5089, 3911, 5205
17462, 3937, 5217, 4336, 5464
17463, 3844, 4773, 4257, 4978
17464, 1851, 1913, 1820, 4757
17465, 3453, 3480, 3544, 4758
17466, 272, 3426, 1976, 4418
17467, 1793, 343, 122, 4417
17468, 3402, 4804, 2687, 5396
17469, 3268, 3356, 3374, 5400
17470, 1975, 235, 3504, 3427
17471, 1870, 342, 85, 1794
17472, 1713, 367, 1715, 5152
17473, 3346, 2000, 3348, 5151
17474, 199, 1887, 3380, 1997
17475, 51, 364, 3523, 1747
17476, 3318, 2872, 1978, 5304
17477, 3649, 3604, 3646, 4636
17478, 2707, 2843, 2844, 4438
17479, 4092, 5318, 4959, 5379
17480, 2827, 3122, 2826, 5309
17481, 120, 331, 1139, 5456
17482, 270, 1964, 2772, 5457
17483, 3499, 3527, 3541, 5293
17484, 2956, 2518, 2498, 5393
17485, 2105, 2106, 2104, 4821
17486, 1217, 83, 1889, 1782
17487, 4172, 4726, 3983, 5490
17488, 337, 3465, 49, 5062
17489, 197, 1970, 1831, 5061
17490, 4342, 4954, 4096, 5294
17491, 2883, 5071, 3221, 5207
17492, 3941, 4754, 4595, 5254
17493, 4025, 5221, 4393, 5446
17494, 3457, 3502, 3535, 4954
17495, 4197, 5185, 3839, 5449
17496, 4290, 4433, 3810, 4978
17497, 4070, 5386, 4699, 5519
17498, 2855, 5072, 2897, 5211
17499, 1858, 1898, 1818, 4276
17500, 1628, 4960, 1089, 5488
17501, 2666, 2663, 3172, 5401
17502, 1030, 1539, 1033, 5402
17503, 3955, 4831, 4475, 5511
17504, 3651, 3657, 3585, 4676
17505, 3555, 3457, 3535, 4342
17506, 3810, 4433, 4257, 4978
17507, 3701, 3736, 3734, 4274
17508, 1200, 5073, 1591, 5212
17509, 641, 4866, 642, 5344
17510, 1740, 349, 1308, 5460
17511, 3950, 4216, 4768, 4855
17512, 3951, 4217, 4769, 4856
17513, 3847, 4162, 4719, 5480
17514, 2143, 3049, 4945, 5188
17515, 1416, 4946, 510, 5187
17516, 3906, 4717, 4703, 5100
17517, 3907, 4718, 4704, 5101
17518, 4178, 4960, 4649, 5019
17519, 4173, 3988, 4902, 5481
17520, 3797, 5103, 4149, 5413
17521, 549, 536, 4883, 5510
17522, 2181, 2203, 4463, 5182
17523, 2775, 4496, 2711, 5121
17524, 4625, 4775, 3974, 5214
17525, 1731, 1322, 1730, 5078
17526, 1912, 1911, 1835, 4496
17527, 3785, 4168, 4947, 5082
17528, 1078, 1142, 4481, 5125
17529, 1489, 4548, 1193, 5336
17530, 4508, 4179, 5147, 5494
17531, 4509, 4180, 5146, 5493
17532, 3905, 4471, 4376, 5311
17533, 4380, 4468, 3878, 5310
17534, 4376, 4478, 3905, 5312
17535, 2788, 4855, 3137, 5349
17536, 1505, 1155, 4856, 5350
17537, 4027, 4761, 4206, 4952
17538, 901, 1054, 1345, 4818
17539, 3759, 4243, 5071, 5117
17540, 3759, 5071, 4251, 5117
17541, 4232, 5070, 3881, 5114
17542, 4227, 3881, 5070, 5114
17543, 3975, 4247, 5073, 5116
17544, 3975, 5073, 4250, 5116
17545, 3984, 4248, 5072, 5115
17546, 3984, 5072, 4249, 5115
17547, 945, 919, 968, 5361
17548, 3966, 4799, 4447, 4816
17549, 4855, 4962, 3137, 5349
17550, 1505, 4856, 4963, 5350
17551, 3904, 4701, 4377, 4702
17552, 2049, 4434, 3065, 5364
17553, 3959, 4754, 4595, 5141
17554, 3702, 3697, 211, 5304
17555, 3686, 3739, 3740, 4265
17556, 3720, 3741, 3687, 4672
17557, 4221, 3993, 4639, 5505
17558, 2960, 3420, 3101, 4365
17559, 4222, 3999, 4640, 5506
17560, 4253, 4639, 3993, 5505
17561, 4254, 4640, 3999, 5506
17562, 4064, 4799, 4787, 5222
17563, 4673, 5190, 4021, 5492
17564, 4674, 5189, 4022, 5491
17565, 3917, 4502, 4235, 4841
17566, 4235, 4502, 3945, 4841
17567, 2944, 2945, 2946, 5080
17568, 3758, 5036, 4727, 5488
17569, 4166, 3920, 4891, 5461
17570, 4420, 5080, 3652, 5154
17571, 3896, 5119, 4147, 5411
17572, 1727, 1649, 1728, 5507
17573, 4007, 4819, 4521, 5140
17574, 3609, 3657, 3651, 4497
17575, 3838, 5256, 4713, 5524
17576, 328, 1299, 1727, 4872
17577, 1682, 1631, 791, 5380
17578, 2062, 4783, 2510, 5106
17579, 272, 1976, 3474, 4418
17580, 343, 1884, 122, 4417
17581, 4169, 3849, 4779, 5313
17582, 1892, 1497, 115, 1848
17583, 3130, 265, 3526, 3479
17584, 922, 4861, 914, 5387
17585, 4483, 4787, 4007, 5083
17586, 3948, 4430, 5099, 5109
17587, 1327, 1325, 1326, 4824
17588, 4419, 4732, 4019, 4975
17589, 4008, 4820, 4520, 5142
17590, 2555, 4860, 2547, 5382
17591, 4032, 4843, 4678, 5179
17592, 2717, 2556, 2642, 4838
17593, 2467, 2420, 2419, 5338
17594, 4028, 4765, 4208, 4961
17595, 3687, 3724, 1691, 4672
17596, 4023, 4221, 4639, 5505
17597, 2681, 4681, 2467, 5338
17598, 4024, 4222, 4640, 5506
17599, 3015, 4962, 3016, 5493
17600, 1382, 4963, 1383, 5494
17601, 3421, 3440, 4357, 5220
17602, 3333, 2778, 1961, 5513
17603, 1807, 4356, 1788, 5219
17604, 3873, 5047, 4348, 5320
17605, 1488, 4625, 1079, 5383
17606, 3920, 4166, 4891, 5173
17607, 1795, 344, 12, 3470
17608, 1977, 160, 3428, 1837
17609, 4499, 4842, 4192, 5095
17610, 472, 5177, 1304, 5244
17611, 4029, 4636, 4401, 5131
17612, 1137, 1424, 844, 5421
17613, 839, 838, 917, 4391
17614, 1216, 1217, 365, 4355
17615, 1999, 2849, 2850, 4354
17616, 2917, 3318, 2916, 5304
17617, 3907, 4159, 4943, 5496
17618, 3906, 4160, 4944, 5497
17619, 4694, 4704, 874, 5348
17620, 4695, 4703, 2507, 5347
17621, 4029, 4857, 4657, 5183
17622, 2648, 3323, 2618, 5192
17623, 2618, 2377, 2523, 5192
17624, 2648, 2523, 3320, 5192
17625, 4143, 4732, 4419, 4975
17626, 2528, 4645, 2646, 5399
17627, 872, 4671, 845, 5421
17628, 2973, 4708, 2976, 5409
17629, 1190, 698, 1612, 5313
17630, 4055, 4750, 4440, 5113
17631, 4440, 4750, 3987, 5113
17632, 2530, 2395, 2529, 5368
17633, 4147, 4921, 3896, 5411
17634, 4263, 5153, 3957, 5213
17635, 1619, 1289, 1391, 5311
17636, 1391, 1390, 1396, 5312
17637, 2626, 2643, 2452, 5310
17638, 2946, 3376, 3369, 4843
17639, 4713, 5256, 3869, 5524
17640, 4782, 5175, 4199, 5380
17641, 4291, 5158, 3884, 5342
17642, 4292, 5159, 3885, 5343
17643, 4007, 4787, 4483, 5222
17644, 4020, 4786, 5243, 5450
17645, 3736, 4274, 3701, 5498
17646, 3972, 4199, 5175, 5380
17647, 4274, 3959, 4754, 5254
17648, 2852, 4801, 3351, 5127
17649, 1718, 1219, 4800, 5126
17650, 1540, 528, 680, 5170
17651, 2555, 2460, 2547, 4860
17652, 3824, 4691, 4256, 5054
17653, 4420, 4215, 4843, 5179
17654, 4047, 4518, 4184, 4876
17655, 827, 914, 922, 4861
17656, 1318, 1103, 1714, 5306
17657, 3910, 5158, 4291, 5342
17658, 3909, 5159, 4292, 5343
17659, 355, 1787, 1113, 4276
17660, 4247, 5206, 3984, 5290
17661, 3811, 5206, 4247, 5290
17662, 3362, 2679, 2677, 4975
17663, 1814, 90, 325, 1893
17664, 1235, 330, 1236, 5357
17665, 2066, 4446, 3223, 5371
17666, 4177, 3998, 4728, 5402
17667, 4176, 3985, 4729, 5401
17668, 2829, 2860, 2830, 4448
17669, 3262, 4549, 2256, 5403
17670, 3045, 4622, 3064, 5404
17671, 1507, 4398, 363, 5265
17672, 3268, 2674, 2624, 5400
17673, 3203, 3184, 4692, 5285
17674, 1551, 4693, 1570, 5286
17675, 4024, 4640, 4254, 5506
17676, 4023, 4639, 4253, 5505
17677, 2602, 2601, 2552, 5167
17678, 1357, 4782, 1680, 5380
17679, 3847, 4719, 4162, 4986
17680, 3901, 4722, 4155, 4988
17681, 3900, 4723, 4156, 4987
17682, 4157, 4724, 3918, 4990
17683, 4158, 4725, 3917, 4989
17684, 3983, 4726, 4172, 4991
17685, 4176, 4729, 3985, 4992
17686, 3360, 3282, 3361, 5448
17687, 2578, 2506, 2552, 4813
17688, 2372, 4848, 4762, 4849
17689, 3540, 3451, 3514, 4365
17690, 3820, 4457, 4283, 5277
17691, 4119, 5268, 4346, 5323
17692, 2353, 2589, 3075, 4833
17693, 720, 956, 1442, 4834
17694, 3718, 3677, 3750, 5363
17695, 3749, 3717, 3676, 5362
17696, 4049, 4510, 4262, 4972
17697, 3645, 3647, 3612, 4271
17698, 2879, 2403, 4870, 5138
17699, 4508, 4844, 3773, 5147
17700, 3772, 4509, 4845, 5146
17701, 562, 563, 560, 5091
17702, 1967, 3396, 3082, 5482
17703, 2808, 4891, 2954, 5461
17704, 3902, 4501, 4195, 5197
17705, 3951, 4330, 5034, 5286
17706, 3950, 4329, 5033, 5285
17707, 2960, 2958, 2959, 4867
17708, 4035, 5168, 4427, 5219
17709, 4269, 4032, 4736, 5154
17710, 3891, 5259, 4333, 5451
17711, 4333, 5259, 4084, 5451
17712, 1227, 942, 4517, 5445
17713, 3883, 4164, 4717, 5100
17714, 3882, 4163, 4718, 5101
17715, 3648, 3653, 3621, 4393
17716, 4401, 4636, 4029, 5388
17717, 4167, 4716, 3919, 5160
17718, 4155, 4722, 3901, 5156
17719, 4156, 4723, 3900, 5157
17720, 3953, 4721, 4169, 5161
17721, 4013, 4974, 4631, 5424
17722, 3736, 3680, 3733, 5498
17723, 3498, 23, 3472, 4460
17724, 4043, 5171, 4426, 5220
17725, 3891, 4592, 4203, 4869
17726, 3890, 4593, 4204, 4868
17727, 3630, 1312, 3585, 4676
17728, 3924, 4777, 4611, 5145
17729, 3923, 4776, 4610, 5144
17730, 4523, 3786, 4955, 5463
17731, 3782, 4523, 4955, 5463
17732, 1858, 5482, 4276, 5501
17733, 3232, 4462, 3178, 5289
17734, 1545, 1599, 4461, 5288
17735, 2559, 4915, 2835, 5384
17736, 3395, 2682, 2752, 5339
17737, 3984, 5211, 4248, 5212
17738, 4248, 5211, 4003, 5212
17739, 4250, 5211, 3984, 5212
17740, 4003, 5211, 4250, 5212
17741, 1194, 1489, 1193, 5336
17742, 1440, 4409, 702, 5499
17743, 4083, 4214, 5049, 5252
17744, 3934, 5203, 4293, 5366
17745, 3609, 3657, 4497, 5509
17746, 3124, 4796, 3222, 5407
17747, 2669, 4882, 2676, 5368
17748, 1408, 486, 5202, 5520
17749, 3681, 3728, 3725, 4316
17750, 3727, 3726, 3682, 4317
17751, 3631, 3656, 5154, 5233
17752, 3902, 4258, 4501, 5197
17753, 4270, 4483, 4123, 5083
17754, 4473, 4828, 4166, 4949
17755, 4474, 4829, 4165, 4950
17756, 4170, 4831, 4475, 4951
17757, 3631, 5080, 4269, 5154
17758, 2053, 4540, 2055, 5378
17759, 4166, 3862, 5315, 5461
17760, 4401, 4139, 4857, 5183
17761, 4638, 4786, 4030, 5243
17762, 854, 924, 852, 4837
17763, 2487, 2557, 2485, 4836
17764, 677, 425, 426, 4358
17765, 4458, 4755, 3822, 5112
17766, 2775, 1835, 3438, 4496
17767, 4206, 4761, 4098, 4952
17768, 2269, 2217, 2336, 5169
17769, 4368, 5165, 4190, 5280
17770, 4367, 5166, 4189, 5279
17771, 3793, 4637, 4233, 4853
17772, 3795, 4233, 4637, 4853
17773, 2939, 2938, 1955, 4393
17774, 4382, 5239, 3818, 5308
17775, 3537, 3520, 3465, 5062
17776, 1886, 1831, 1903, 5061
17777, 336, 1834, 1804, 4451
17778, 1183, 1184, 1062, 4839
17779, 3742, 3723, 3678, 5250
17780, 4037, 4826, 4708, 5150
17781, 3331, 2777, 2698, 5075
17782, 4212, 4768, 4050, 4855
17783, 4213, 4769, 4051, 4856
17784, 4067, 5189, 4674, 5491
17785, 4065, 5190, 4673, 5492
17786, 4143, 5460, 4732, 5468
17787, 4095, 4766, 4448, 4916
17788, 4634, 4790, 3975, 5186
17789, 3916, 4926, 4655, 5044
17790, 3915, 4925, 4656, 5045
17791, 4473, 4949, 4166, 5320
17792, 4154, 5343, 3909, 5354
17793, 4153, 5342, 3910, 5355
17794, 2584, 2766, 3009, 5049
17795, 1738, 1307, 1737, 4857
17796, 1568, 981, 5097, 5197
17797, 2826, 2178, 2824, 4450
17798, 1191, 1193, 545, 4449
17799, 1354, 4398, 1507, 5265
17800, 2517, 4832, 2409, 5393
17801, 3068, 2517, 2900, 4832
17802, 4401, 4857, 4139, 5388
17803, 767, 840, 4397, 5466
17804, 2400, 2473, 4396, 5467
17805, 4092, 5243, 4786, 5450
17806, 3811, 4647, 4249, 5058
17807, 3806, 5336, 4149, 5353
17808, 3631, 3652, 5080, 5154
17809, 1363, 833, 832, 4618
17810, 2996, 2466, 2465, 4617
17811, 4184, 4518, 4047, 5237
17812, 1488, 1079, 871, 5383
17813, 4208, 4765, 4090, 4961
17814, 4419, 4732, 4143, 5460
17815, 4052, 4755, 4458, 5112
17816, 1927, 1847, 1882, 4940
17817, 3519, 3564, 3478, 4938
17818, 2738, 3082, 3396, 5482
17819, 4307, 4348, 3873, 5047
17820, 4152, 4045, 4740, 5384
17821, 2873, 3124, 3222, 5407
17822, 641, 642, 775, 5344
17823, 642, 864, 776, 5344
17824, 1844, 333, 104, 1792
17825, 312, 1762, 1119, 5155
17826, 2191, 2192, 2190, 5064
17827, 557, 558, 559, 5063
17828, 3925, 4697, 4740, 5384
17829, 1322, 5078, 1731, 5221
17830, 832, 767, 1388, 4397
17831, 2465, 2400, 3021, 4396
17832, 3117, 2129, 3210, 4810
17833, 1484, 496, 1577, 4809
17834, 1066, 1323, 4913, 5418
17835, 2630, 2519, 2640, 5066
17836, 1067, 1189, 1188, 5067
17837, 2822, 2821, 2700, 5068
17838, 2527, 4706, 3027, 5495
17839, 1393, 5102, 1158, 5462
17840, 1730, 1322, 346, 5078
17841, 2528, 2646, 3328, 5399
17842, 4205, 4524, 3810, 5128
17843, 4708, 4826, 4058, 5150
17844, 873, 4507, 945, 5383
17845, 3920, 4166, 5315, 5461
17846, 1578, 1470, 972, 4926
17847, 3211, 3103, 2605, 4925
17848, 4203, 4592, 3891, 5259
17849, 2879, 2403, 2878, 4870
17850, 1505, 1155, 1621, 4856
17851, 3254, 3137, 2788, 4855
17852, 3006, 3037, 2827, 5309
17853, 4474, 4950, 4165, 5340
17854, 704, 4719, 1542, 5480
17855, 3999, 5338, 4971, 5465
17856, 2593, 2970, 2972, 4826
17857, 3705, 3720, 3745, 4266
17858, 4190, 5165, 4077, 5280
17859, 4189, 5166, 4076, 5279
17860, 4193, 4934, 3768, 5321
17861, 4401, 4029, 4857, 5388
17862, 3839, 5217, 4210, 5281
17863, 1934, 1814, 1910, 4766
17864, 3768, 4908, 4194, 5321
17865, 3767, 4907, 4195, 5322
17866, 1896, 94, 317, 1507
17867, 1738, 4665, 1739, 5468
17868, 1121, 1120, 906, 4806
17869, 2872, 4519, 3328, 5399
17870, 3262, 2256, 3267, 5403
17871, 3044, 3045, 3064, 5404
17872, 1761, 5133, 313, 5526
17873, 2712, 4626, 2873, 5407
17874, 1985, 3338, 3343, 4852
17875, 2813, 2812, 2566, 4924
17876, 2418, 3249, 2406, 4923
17877, 1616, 773, 785, 4922
17878, 2539, 2754, 2753, 4803
17879, 4374, 4953, 4106, 5065
17880, 17, 361, 3567, 1785
17881, 2761, 2845, 2762, 4453
17882, 1129, 1128, 1212, 4452
17883, 3807, 4842, 4499, 5095
17884, 1245, 1510, 1176, 4360
17885, 2570, 2493, 3178, 4362
17886, 1545, 937, 860, 4361
17887, 4123, 4483, 4270, 5335
17888, 3961, 4682, 4266, 4920
17889, 2576, 2006, 3183, 4928
17890, 3758, 4465, 5036, 5488
17891, 4266, 4682, 3957, 4852
17892, 616, 615, 4902, 5481
17893, 1182, 1181, 1063, 4767
17894, 3632, 4967, 3614, 5460
17895, 3554, 3459, 3557, 4356
17896, 3840, 4802, 4605, 5172
17897, 1864, 1865, 1934, 5130
17898, 884, 885, 1090, 5397
17899, 3536, 3482, 3561, 4764
17900, 3598, 4420, 3652, 5154
17901, 3998, 4970, 4395, 5292
17902, 1823, 3424, 179, 1943
17903, 1779, 358, 1134, 5218
17904, 4630, 4971, 3999, 5338
17905, 1923, 1855, 1921, 4357
17906, 2536, 2479, 2394, 4948
17907, 4257, 4433, 3844, 4978
17908, 2551, 4813, 2506, 5450
17909, 605, 4835, 608, 5365
17910, 4092, 4847, 4255, 4959
17911, 876, 961, 877, 4763
17912, 2836, 4873, 3260, 5423
17913, 854, 4837, 853, 5491
17914, 2487, 4836, 2486, 5492
17915, 4234, 3837, 4830, 5475
17916, 3784, 4240, 4827, 5473
17917, 3267, 4830, 3274, 5403
17918, 3044, 3042, 4827, 5404
17919, 4456, 4617, 4080, 5326
17920, 4455, 4618, 4081, 5325
17921, 3845, 4234, 4830, 5486
17922, 3950, 4768, 4212, 4855
17923, 3951, 4769, 4213, 4856
17924, 1183, 4839, 1061, 5459
17925, 1351, 4869, 809, 5173
17926, 709, 4726, 1566, 5490
17927, 2211, 3076, 4539, 5422
17928, 903, 846, 761, 4957
17929, 1410, 1411, 4738, 5472
17930, 80, 3717, 366, 5362
17931, 230, 3718, 1998, 5363
17932, 1187, 4510, 1091, 5418
17933, 4510, 5397, 1091, 5418
17934, 3288, 2124, 4637, 5474
17935, 2286, 3332, 3330, 4779
17936, 3694, 3724, 3741, 4672
17937, 4162, 4830, 4472, 5403
17938, 2020, 3314, 2088, 4947
17939, 2911, 2905, 2906, 4942
17940, 1273, 1278, 1272, 4941
17941, 512, 510, 576, 4946
17942, 2143, 2209, 2145, 4945
17943, 3281, 3286, 2949, 4944
17944, 1648, 1653, 1316, 4943
17945, 4479, 4827, 4173, 5404
17946, 817, 816, 814, 4949
17947, 2447, 2450, 2449, 4950
17948, 1520, 1282, 1280, 5088
17949, 4728, 4928, 3825, 5292
17950, 4170, 3833, 4951, 5518
17951, 3830, 4157, 4941, 5516
17952, 3829, 4158, 4942, 5515
17953, 4130, 5379, 4181, 5414
17954, 4181, 5379, 4092, 5414
17955, 494, 488, 4644, 5472
17956, 2121, 4643, 2127, 5473
17957, 756, 898, 754, 5045
17958, 2389, 2531, 2387, 5044
17959, 377, 379, 378, 4951
17960, 4696, 5169, 3844, 5224
17961, 1682, 1357, 1680, 5380
17962, 4194, 5042, 4500, 5135
17963, 4498, 5081, 4191, 5287
17964, 4208, 5231, 3763, 5271
17965, 2052, 2051, 2050, 5053
17966, 1308, 1722, 4732, 5468
17967, 750, 824, 753, 5041
17968, 2457, 2386, 2383, 5040
17969, 2273, 2210, 4536, 5422
17970, 3570, 3460, 3523, 4259
17971, 1887, 1937, 1826, 4260
17972, 2320, 3025, 2579, 4955
17973, 549, 536, 535, 4883
17974, 2091, 2090, 4661, 5470
17975, 3067, 2600, 3179, 4848
17976, 2915, 2913, 3153, 4849
17977, 1509, 879, 678, 4850
17978, 3142, 2512, 2311, 4851
17979, 2454, 4663, 2380, 5524
17980, 871, 4671, 872, 5383
17981, 3655, 3640, 3600, 4319
17982, 2053, 2055, 2056, 5378
17983, 3020, 2057, 2055, 5378
17984, 4206, 5232, 3762, 5260
17985, 2420, 2357, 4630, 5425
17986, 3663, 3587, 1941, 5151
17987, 3574, 3662, 3588, 5152
17988, 2645, 4645, 2528, 5495
17989, 2024, 3307, 5253, 5301
17990, 4678, 4843, 4009, 5179
17991, 2061, 3089, 5109, 5255
17992, 3291, 2808, 2954, 5461
17993, 3106, 3064, 4622, 5425
17994, 2274, 4516, 2425, 5422
17995, 1225, 1241, 1242, 5085
17996, 2875, 2858, 2874, 5084
17997, 2015, 4633, 2014, 5443
17998, 382, 4632, 381, 5444
17999, 1569, 603, 601, 4973
18000, 4130, 4770, 4681, 4854
18001, 2442, 2984, 2373, 4868
18002, 740, 809, 1351, 4869
18003, 629, 628, 4629, 5442
18004, 2262, 2261, 4628, 5441
18005, 2607, 2608, 2609, 5031
18006, 467, 4578, 1617, 5431
18007, 2100, 4577, 3250, 5430
18008, 460, 4571, 478, 5427
18009, 2093, 4570, 2111, 5426
18010, 1428, 452, 4555, 5429
18011, 3061, 2085, 4554, 5428
18012, 3062, 2289, 4575, 5439
18013, 2211, 4539, 3035, 5432
18014, 1606, 1402, 4538, 5437
18015, 2179, 4536, 2210, 5435
18016, 1623, 4583, 1195, 5438
18017, 580, 579, 4542, 5434
18018, 2214, 4556, 2215, 5436
18019, 2212, 3215, 4537, 5433
18020, 465, 4566, 464, 5431
18021, 2097, 2098, 4565, 5430
18022, 966, 4568, 1574, 5427
18023, 3207, 2599, 4567, 5426
18024, 1516, 4544, 451, 5429
18025, 3149, 4543, 2084, 5428
18026, 634, 4564, 582, 5437
18027, 2214, 2213, 4556, 5432
18028, 3046, 2138, 4551, 5439
18029, 1592, 4579, 703, 5438
18030, 2216, 4569, 3195, 5436
18031, 2180, 4537, 3215, 5435
18032, 623, 581, 4561, 5434
18033, 3255, 4549, 3262, 5433
18034, 656, 4574, 1429, 5440
18035, 1413, 505, 4550, 5440
18036, 3113, 4553, 3177, 5433
18037, 2165, 4557, 2164, 5435
18038, 3255, 2256, 4549, 5436
18039, 1622, 4541, 1582, 5434
18040, 2180, 2212, 4537, 5432
18041, 580, 4542, 578, 5437
18042, 2082, 4545, 2083, 5428
18043, 450, 449, 4546, 5429
18044, 2089, 3061, 4554, 5426
18045, 456, 1428, 4555, 5427
18046, 1407, 4564, 634, 5438
18047, 2099, 4562, 2101, 5430
18048, 466, 4563, 468, 5431
18049, 2271, 4534, 2270, 5441
18050, 638, 4533, 637, 5442
18051, 2174, 3131, 4599, 5443
18052, 1498, 4600, 541, 5444
18053, 2086, 4662, 3066, 5470
18054, 3045, 3106, 4622, 5439
18055, 1412, 1473, 4623, 5440
18056, 2259, 3111, 4527, 5441
18057, 1478, 4528, 626, 5442
18058, 383, 1686, 4523, 5444
18059, 3319, 4522, 2016, 5443
18060, 2091, 4661, 2092, 5479
18061, 2091, 5471, 4661, 5479
18062, 2893, 2527, 3027, 5495
18063, 911, 4520, 912, 5459
18064, 3657, 3606, 3630, 4676
18065, 4219, 5046, 3965, 5398
18066, 3970, 4707, 4219, 4933
18067, 2177, 3192, 2167, 5032
18068, 4727, 4960, 3982, 5019
18069, 3842, 4461, 4361, 4859
18070, 3843, 4462, 4362, 4858
18071, 4336, 3839, 5217, 5449
18072, 2334, 3001, 2359, 5022
18073, 4497, 4676, 4031, 5509
18074, 2817, 2695, 2816, 5222
18075, 2067, 2066, 3223, 5371
18076, 2066, 2065, 2063, 5371
18077, 3286, 2629, 3292, 5019
18078, 985, 1015, 1690, 5391
18079, 1135, 333, 1134, 5218
18080, 2126, 3288, 4637, 5483
18081, 3142, 2290, 2173, 5018
18082, 1509, 657, 540, 5017
18083, 2368, 2596, 2482, 5016
18084, 735, 963, 849, 5015
18085, 887, 1560, 792, 5010
18086, 1001, 999, 1000, 5013
18087, 2031, 2033, 3164, 5021
18088, 400, 1531, 398, 5020
18089, 698, 1611, 1612, 5014
18090, 946, 687, 1392, 5005
18091, 584, 635, 583, 5002
18092, 2135, 2128, 2136, 4996
18093, 495, 503, 502, 4997
18094, 1433, 1486, 462, 4998
18095, 3119, 2095, 3066, 4999
18096, 1276, 1281, 1434, 5000
18097, 2909, 2914, 3067, 5001
18098, 1512, 1083, 1537, 5009
18099, 3170, 3145, 2716, 5008
18100, 2162, 2166, 2161, 5007
18101, 547, 546, 577, 5006
18102, 404, 403, 405, 5012
18103, 2037, 2036, 2038, 5011
18104, 692, 1300, 691, 5003
18105, 2325, 2933, 2324, 5004
18106, 601, 600, 661, 5025
18107, 340, 1724, 1725, 5395
18108, 3358, 1973, 3357, 5394
18109, 658, 659, 723, 5024
18110, 2291, 2292, 2356, 5023
18111, 700, 701, 705, 5026
18112, 4153, 4945, 3884, 5342
18113, 4154, 4946, 3885, 5343
18114, 2469, 2468, 4668, 5425
18115, 3735, 3695, 3738, 4369
18116, 2011, 2010, 2012, 4995
18117, 4212, 4855, 4050, 5373
18118, 4213, 4856, 4051, 5374
18119, 3214, 3189, 2613, 4984
18120, 1556, 980, 1581, 4985
18121, 2525, 4646, 2628, 5485
18122, 1716, 342, 1218, 4753
18123, 1975, 2851, 3349, 4752
18124, 2530, 2669, 2676, 5368
18125, 4491, 5162, 4040, 5402
18126, 4492, 5163, 4039, 5401
18127, 2506, 3121, 2504, 5030
18128, 2286, 3332, 4779, 5523
18129, 376, 1241, 374, 4981
18130, 2009, 2874, 2007, 4980
18131, 3828, 4863, 4205, 5253
18132, 4220, 5294, 1104, 5504
18133, 4369, 5196, 4103, 5351
18134, 3267, 3274, 3104, 5403
18135, 3044, 3209, 3042, 5404
18136, 1133, 5318, 1376, 5379
18137, 4031, 4676, 4497, 5458
18138, 3007, 2766, 2548, 4958
18139, 619, 620, 621, 5029
18140, 2253, 2254, 2252, 5028
18141, 4429, 4437, 3761, 4910
18142, 1651, 4748, 1090, 5397
18143, 4148, 4918, 3939, 5508
18144, 2993, 4682, 3339, 5485
18145, 2916, 211, 3697, 5304
18146, 103, 1844, 1878, 5218
18147, 1587, 1205, 968, 5361
18148, 2864, 2756, 5279, 5331
18149, 1123, 5280, 1231, 5330
18150, 1089, 1628, 1638, 4960
18151, 4061, 4671, 4359, 5421
18152, 2830, 2759, 4448, 4916
18153, 1310, 4857, 1307, 5388
18154, 3830, 4941, 4543, 5516
18155, 3829, 4942, 4544, 5515
18156, 2503, 2713, 3191, 5027
18157, 4614, 4951, 3833, 5518
18158, 255, 3081, 3507, 4964
18159, 4803, 5168, 4222, 5465
18160, 2719, 2559, 2835, 5384
18161, 2379, 4713, 3175, 5524
18162, 4237, 5153, 3957, 5200
18163, 3253, 2806, 3152, 4364
18164, 1173, 1519, 1620, 4363
18165, 3115, 4664, 2651, 5487
18166, 4071, 4847, 4278, 4959
18167, 3862, 4949, 4166, 5315
18168, 3185, 4660, 2439, 5487
18169, 2455, 2380, 4663, 5486
18170, 2380, 5475, 4663, 5486
18171, 4085, 5085, 4272, 5360
18172, 4086, 5084, 4273, 5359
18173, 4235, 4841, 3945, 5204
18174, 1440, 702, 1660, 5499
18175, 3077, 2229, 4901, 5478
18176, 2096, 4893, 3234, 5479
18177, 472, 475, 1304, 5177
18178, 3783, 4241, 4738, 5472
18179, 3350, 2852, 3351, 5127
18180, 1718, 1717, 1219, 5126
18181, 2777, 3331, 1971, 5075
18182, 1686, 385, 4523, 5463
18183, 1844, 103, 333, 5218
18184, 1287, 874, 4704, 5348
18185, 2920, 2507, 4703, 5347
18186, 3934, 4827, 4240, 5203
18187, 315, 141, 3630, 1312
18188, 68, 314, 3719, 1359
18189, 2894, 2176, 2895, 4918
18190, 543, 1262, 1261, 4917
18191, 4210, 4875, 3839, 5281
18192, 1085, 878, 926, 4994
18193, 3159, 3132, 2128, 5355
18194, 495, 1526, 1499, 5354
18195, 3048, 3049, 3132, 5355
18196, 1415, 1416, 1499, 5354
18197, 1554, 1415, 1526, 5354
18198, 3159, 3187, 3048, 5355
18199, 4657, 4857, 4018, 5183
18200, 2903, 5199, 2774, 5382
18201, 1141, 1270, 5198, 5387
18202, 3057, 2680, 2505, 5450
18203, 3773, 4346, 5268, 5323
18204, 4071, 4255, 4847, 4959
18205, 3756, 5121, 5195, 5382
18206, 432, 430, 433, 5087
18207, 3057, 2505, 5243, 5450
18208, 1306, 1738, 1739, 5468
18209, 4500, 5042, 3901, 5135
18210, 1162, 1555, 725, 5330
18211, 2795, 3188, 2358, 5331
18212, 844, 837, 835, 5319
18213, 4214, 5049, 4101, 5416
18214, 4338, 4835, 3760, 5332
18215, 2498, 2517, 2409, 5393
18216, 1656, 4791, 1681, 5463
18217, 3757, 5125, 5194, 5387
18218, 4160, 4944, 4465, 5036
18219, 4159, 4943, 4464, 5037
18220, 2718, 2719, 3240, 5384
18221, 2507, 2407, 4695, 5347
18222, 874, 774, 4694, 5348
18223, 4255, 4847, 4092, 5450
18224, 3464, 3425, 255, 4964
18225, 3984, 5115, 4249, 5206
18226, 2798, 2796, 2797, 4390
18227, 1163, 1164, 1165, 4389
18228, 4021, 5165, 4368, 5280
18229, 4022, 5166, 4367, 5279
18230, 1836, 1899, 1861, 4398
18231, 1426, 1371, 717, 4971
18232, 3272, 3065, 2287, 5364
18233, 3263, 2049, 3065, 5364
18234, 3272, 2822, 3263, 5364
18235, 3762, 4864, 4206, 5260
18236, 1442, 4834, 1369, 5466
18237, 3075, 4833, 3002, 5467
18238, 3763, 4865, 4208, 5271
18239, 2550, 2696, 2694, 4799
18240, 2774, 2775, 2711, 5121
18241, 1458, 479, 481, 5174
18242, 1078, 1141, 1142, 5125
18243, 3998, 4491, 4316, 4970
18244, 1788, 311, 1466, 4356
18245, 4476, 4976, 4171, 5063
18246, 4477, 4977, 4172, 5064
18247, 2656, 2658, 2657, 4436
18248, 3421, 1944, 3099, 4357
18249, 1768, 363, 1508, 5265
18250, 3371, 5273, 4490, 5446
18251, 3267, 2627, 4830, 5475
18252, 3044, 4827, 3043, 5473
18253, 4261, 3964, 4778, 5507
18254, 1777, 3472, 23, 4460
18255, 4206, 4864, 3762, 4957
18256, 3317, 2872, 3328, 5399
18257, 2893, 4900, 3325, 5495
18258, 3059, 3004, 2350, 4974
18259, 1858, 1930, 5482, 5501
18260, 1341, 1338, 1345, 4429
18261, 2181, 3148, 2203, 5182
18262, 3806, 4149, 5066, 5353
18263, 2712, 2873, 2713, 5407
18264, 1712, 835, 5184, 5319
18265, 4251, 4006, 4715, 5079
18266, 1850, 1891, 1849, 4454
18267, 4208, 4865, 3763, 4948
18268, 4349, 3783, 4738, 4846
18269, 1688, 4792, 1095, 5463
18270, 1638, 1045, 1557, 4932
18271, 4046, 4783, 4372, 5420
18272, 2089, 4554, 2085, 5470
18273, 2093, 2110, 4570, 5471
18274, 502, 4550, 505, 5472
18275, 2138, 2135, 4551, 5473
18276, 2303, 4594, 3251, 5474
18277, 2268, 3195, 4569, 5475
18278, 2784, 4604, 2693, 5477
18279, 1060, 1151, 4603, 5476
18280, 3679, 3744, 3703, 4480
18281, 742, 703, 4579, 5480
18282, 652, 4619, 1381, 5481
18283, 4256, 4691, 3827, 5178
18284, 3721, 3744, 3666, 5134
18285, 873, 945, 1488, 5383
18286, 3839, 4875, 4210, 4924
18287, 2312, 4815, 3301, 5483
18288, 3371, 2940, 5273, 5446
18289, 4251, 4715, 3983, 5079
18290, 4068, 4711, 4453, 5123
18291, 4066, 4710, 4452, 5124
18292, 3838, 4663, 4236, 5524
18293, 1066, 1187, 1323, 5418
18294, 3900, 5097, 4501, 5197
18295, 1460, 4897, 1665, 5499
18296, 1365, 318, 1772, 4938
18297, 1951, 3405, 2998, 4940
18298, 2612, 2610, 2671, 4879
18299, 1175, 1321, 1658, 5139
18300, 975, 976, 974, 4878
18301, 3723, 3742, 3705, 5250
18302, 3022, 3000, 4808, 5060
18303, 1367, 4807, 1389, 5059
18304, 4238, 4682, 3961, 5485
18305, 2000, 3626, 3433, 5151
18306, 367, 3627, 1800, 5152
18307, 640, 1472, 642, 4866
18308, 4252, 4712, 3763, 5076
18309, 3127, 2791, 2402, 5237
18310, 3793, 4233, 4637, 5474
18311, 4373, 4511, 3920, 5315
18312, 3795, 4637, 4233, 5483
18313, 650, 480, 442, 4876
18314, 4223, 3865, 4661, 5470
18315, 4252, 3969, 4712, 5076
18316, 2985, 2641, 2984, 4890
18317, 1619, 1601, 497, 4892
18318, 3234, 2130, 3252, 4893
18319, 1292, 551, 1269, 4894
18320, 2925, 2184, 2902, 4895
18321, 3040, 2267, 3256, 4896
18322, 1013, 1695, 895, 4898
18323, 2331, 3244, 3245, 4899
18324, 1562, 994, 1634, 4884
18325, 2438, 2625, 2440, 4885
18326, 2231, 2954, 2953, 4891
18327, 1372, 444, 448, 4888
18328, 3005, 2077, 2081, 4889
18329, 616, 614, 651, 4902
18330, 2229, 2967, 2968, 4901
18331, 1423, 511, 514, 4887
18332, 2144, 2147, 3056, 4886
18333, 997, 1665, 1669, 4897
18334, 3321, 2893, 2643, 4900
18335, 3204, 2175, 3192, 4904
18336, 1571, 1559, 1206, 4905
18337, 523, 527, 1348, 4863
18338, 3929, 4664, 4228, 5487
18339, 3845, 4646, 4238, 5485
18340, 1424, 872, 845, 5421
18341, 1439, 1222, 1455, 4903
18342, 1774, 1164, 316, 4757
18343, 3407, 2797, 1949, 4758
18344, 714, 645, 759, 4864
18345, 842, 1073, 1072, 4906
18346, 1118, 1748, 337, 4267
18347, 2751, 3381, 1970, 4268
18348, 4228, 4660, 3851, 5487
18349, 3932, 4663, 4234, 5486
18350, 908, 854, 853, 5491
18351, 2541, 2487, 2486, 5492
18352, 4013, 4214, 5184, 5319
18353, 2211, 2210, 3076, 5422
18354, 3259, 2956, 2568, 4914
18355, 1323, 935, 1626, 4913
18356, 2490, 2793, 2559, 4915
18357, 4700, 4713, 4161, 5256
18358, 4702, 4714, 4175, 5257
18359, 923, 1693, 1011, 4956
18360, 3411, 2751, 1970, 5061
18361, 1778, 1118, 337, 5062
18362, 3619, 149, 1742, 5375
18363, 3274, 4830, 2627, 5486
18364, 885, 1091, 5397, 5418
18365, 3277, 4795, 3340, 5485
18366, 3277, 2644, 4795, 5486
18367, 3229, 4793, 2332, 5487
18368, 3631, 3616, 3656, 5233
18369, 4241, 3804, 4644, 5472
18370, 4240, 3803, 4643, 5473
18371, 4359, 4402, 4101, 5421
18372, 1308, 1739, 1722, 5468
18373, 3655, 3577, 3640, 5375
18374, 3866, 4661, 4224, 5479
18375, 3854, 4223, 4662, 5470
18376, 3865, 4224, 4661, 5471
18377, 3838, 4234, 4663, 5475
18378, 4361, 4822, 3842, 4859
18379, 4362, 4823, 3843, 4858
18380, 1181, 1183, 1061, 5459
18381, 885, 1187, 1091, 5418
18382, 1317, 830, 910, 4930
18383, 2950, 2463, 2543, 4931
18384, 2687, 4804, 3108, 5410
18385, 1095, 1656, 1681, 5463
18386, 2120, 3087, 2426, 4988
18387, 487, 1454, 793, 4987
18388, 1490, 1279, 1405, 4990
18389, 3123, 2912, 3038, 4989
18390, 2722, 3261, 3271, 4991
18391, 3235, 2379, 3175, 5524
18392, 2454, 2380, 2379, 5524
18393, 2440, 2441, 2439, 4986
18394, 2347, 2278, 2392, 4865
18395, 1550, 943, 373, 4992
18396, 2542, 4670, 3181, 5492
18397, 909, 4669, 1548, 5491
18398, 4152, 4045, 5384, 5423
18399, 3774, 4285, 4409, 5522
18400, 3775, 4286, 4408, 5521
18401, 2560, 3074, 2790, 5327
18402, 4782, 5380, 1357, 5451
18403, 2273, 2274, 2210, 5422
18404, 3247, 3120, 4511, 5461
18405, 1941, 3587, 1827, 5151
18406, 3588, 3461, 3574, 5152
18407, 2065, 2067, 2068, 5371
18408, 1702, 1701, 1145, 5134
18409, 2645, 2528, 2527, 5495
18410, 1597, 772, 984, 5050
18411, 391, 1657, 393, 5052
18412, 3290, 2026, 2024, 5051
18413, 2420, 3106, 2357, 5425
18414, 1240, 1589, 1080, 5214
18415, 3357, 2731, 3358, 5105
18416, 1724, 1098, 1725, 5104
18417, 1985, 2993, 2992, 4920
18418, 1271, 1270, 1099, 5198
18419, 2875, 2749, 2751, 5084
18420, 1242, 1116, 1118, 5085
18421, 2904, 2903, 2732, 5199
18422, 2916, 1978, 211, 5304
18423, 4745, 5087, 4133, 5255
18424, 703, 636, 584, 5480
18425, 704, 1542, 636, 5480
18426, 1381, 620, 617, 5481
18427, 616, 617, 615, 5481
18428, 2598, 2597, 2596, 5477
18429, 963, 965, 964, 5476
18430, 3267, 3195, 2627, 5475
18431, 3044, 3043, 2138, 5473
18432, 1410, 505, 1411, 5472
18433, 2121, 2127, 3043, 5473
18434, 494, 1410, 488, 5472
18435, 2693, 2783, 2597, 5477
18436, 964, 1060, 1150, 5476
18437, 3288, 3251, 2124, 5474
18438, 2090, 2086, 3066, 5470
18439, 2091, 2089, 2090, 5470
18440, 2110, 3226, 3071, 5471
18441, 3359, 4760, 2670, 5448
18442, 2669, 3351, 2733, 4882
18443, 4166, 5173, 3920, 5315
18444, 3106, 2469, 3064, 5425
18445, 3226, 5471, 2091, 5479
18446, 3226, 2091, 2092, 5479
18447, 3234, 3030, 3226, 5479
18448, 2228, 2230, 2231, 5478
18449, 2229, 2228, 2226, 5478
18450, 2510, 5106, 4783, 5420
18451, 1124, 1375, 4959, 5300
18452, 708, 4927, 757, 5490
18453, 1125, 358, 1759, 5129
18454, 873, 871, 872, 5383
18455, 2015, 2014, 2016, 5443
18456, 382, 381, 383, 5444
18457, 2143, 2141, 3049, 5188
18458, 508, 1416, 510, 5187
18459, 629, 626, 628, 5442
18460, 2262, 2259, 2261, 5441
18461, 466, 465, 464, 5431
18462, 2097, 2099, 2098, 5430
18463, 467, 1617, 465, 5431
18464, 2100, 3250, 2098, 5430
18465, 966, 460, 478, 5427
18466, 2599, 2093, 2111, 5426
18467, 3046, 3045, 2138, 5439
18468, 3062, 3046, 2289, 5439
18469, 1428, 966, 1574, 5427
18470, 3207, 3061, 2599, 5426
18471, 1428, 1516, 452, 5429
18472, 3061, 3149, 2085, 5428
18473, 1516, 451, 449, 5429
18474, 2082, 3149, 2084, 5428
18475, 580, 634, 582, 5437
18476, 1407, 1592, 703, 5438
18477, 2214, 2212, 2213, 5432
18478, 2256, 2216, 3195, 5436
18479, 2165, 2180, 3215, 5435
18480, 623, 1622, 581, 5434
18481, 2211, 3035, 2213, 5432
18482, 1606, 634, 1402, 5437
18483, 3255, 3262, 3113, 5433
18484, 2180, 2179, 2210, 5435
18485, 1592, 1623, 1195, 5438
18486, 580, 581, 579, 5434
18487, 2212, 3255, 3215, 5433
18488, 2214, 2215, 2216, 5436
18489, 1413, 1412, 505, 5440
18490, 1413, 656, 1429, 5440
18491, 638, 637, 629, 5442
18492, 2271, 2270, 2262, 5441
18493, 2174, 2014, 3131, 5443
18494, 381, 1498, 541, 5444
18495, 3215, 3113, 3177, 5433
18496, 2179, 2165, 2164, 5435
18497, 3255, 2214, 2256, 5436
18498, 1622, 1582, 579, 5434
18499, 2180, 2211, 2212, 5432
18500, 1402, 580, 578, 5437
18501, 2082, 2083, 2085, 5428
18502, 450, 452, 449, 5429
18503, 1623, 1407, 634, 5438
18504, 2089, 2093, 3061, 5426
18505, 456, 460, 1428, 5427
18506, 2099, 2101, 2100, 5430
18507, 467, 466, 468, 5431
18508, 3334, 1961, 2778, 5513
18509, 1412, 1429, 1473, 5440
18510, 3045, 3062, 3106, 5439
18511, 2259, 2270, 3111, 5441
18512, 637, 1478, 626, 5442
18513, 865, 1323, 885, 5418
18514, 4368, 4021, 5280, 5330
18515, 4367, 4022, 5279, 5331
18516, 383, 541, 1686, 5444
18517, 2174, 3319, 2016, 5443
18518, 3076, 2274, 2425, 5422
18519, 1549, 1465, 1057, 4911
18520, 3182, 3098, 2690, 4912
18521, 775, 776, 1435, 5344
18522, 3220, 5113, 2601, 5167
18523, 1711, 1065, 1700, 5292
18524, 911, 912, 1183, 5459
18525, 3336, 1984, 2779, 5455
18526, 1988, 3101, 3420, 4365
18527, 3058, 2237, 2238, 5058
18528, 2646, 3332, 3317, 5399
18529, 4263, 4969, 3959, 5213
18530, 4025, 4805, 4271, 5078
18531, 3742, 3737, 3710, 4263
18532, 834, 1712, 835, 5184
18533, 4226, 4645, 3849, 5495
18534, 3998, 5162, 4491, 5402
18535, 3985, 5163, 4492, 5401
18536, 2673, 3354, 3157, 5035
18537, 1688, 1095, 1686, 5463
18538, 2058, 2056, 2057, 5378
18539, 2713, 3222, 3209, 5407
18540, 2469, 2420, 2468, 5425
18541, 3203, 2785, 3184, 5285
18542, 1551, 1570, 1152, 5286
18543, 4924, 5217, 3839, 5449
18544, 3733, 5357, 3730, 5513
18545, 1545, 803, 1599, 5288
18546, 3232, 3178, 2436, 5289
18547, 3562, 3519, 3463, 4937
18548, 1882, 1830, 1925, 4939
18549, 3586, 3623, 3652, 5080
18550, 3298, 2335, 3093, 5048
18551, 4129, 5195, 5121, 5382
18552, 3466, 3541, 3546, 4493
18553, 4361, 4466, 3842, 4822
18554, 4362, 4467, 3843, 4823
18555, 1373, 1404, 1194, 5336
18556, 3850, 4706, 4226, 5495
18557, 3102, 2746, 3395, 5339
18558, 3805, 4410, 4302, 5309
18559, 2692, 5049, 3009, 5356
18560, 1393, 1535, 1158, 5102
18561, 389, 390, 388, 5323
18562, 2509, 2510, 2062, 4783
18563, 4317, 4482, 3985, 5075
18564, 3201, 3228, 2614, 5042
18565, 4128, 5194, 5125, 5387
18566, 3107, 2583, 2884, 5122
18567, 4052, 5112, 4458, 5251
18568, 1049, 4817, 969, 5155
18569, 3053, 5474, 3288, 5483
18570, 2126, 2312, 3288, 5483
18571, 3053, 3288, 3299, 5483
18572, 2635, 2995, 2492, 4875
18573, 4033, 4505, 5276, 5381
18574, 3351, 1972, 3377, 4801
18575, 339, 1744, 1718, 4800
18576, 767, 765, 840, 5466
18577, 2400, 2398, 2473, 5467
18578, 4438, 4817, 4078, 5155
18579, 3548, 3512, 3534, 4772
18580, 4263, 5153, 3959, 5455
18581, 884, 865, 885, 4445
18582, 2776, 1998, 3342, 5363
18583, 1143, 366, 1709, 5362
18584, 2627, 5475, 2380, 5486
18585, 3185, 2439, 3115, 5487
18586, 3115, 2651, 3229, 5487
18587, 2455, 2627, 2380, 5486
18588, 3277, 3274, 2627, 5486
18589, 3339, 2525, 2628, 5485
18590, 3340, 2993, 3339, 5485
18591, 2962, 2961, 1950, 4772
18592, 1686, 1681, 385, 5463
18593, 3984, 5206, 4249, 5290
18594, 4249, 5206, 3811, 5290
18595, 844, 1712, 1137, 5319
18596, 1382, 1661, 4508, 5494
18597, 3015, 3294, 4509, 5493
18598, 3867, 4977, 4425, 5164
18599, 4640, 4222, 5168, 5465
18600, 4047, 4876, 4184, 5469
18601, 589, 708, 588, 5490
18602, 3997, 4617, 4922, 5326
18603, 3996, 4618, 4923, 5325
18604, 4169, 4779, 4244, 5313
18605, 709, 708, 757, 5490
18606, 437, 436, 439, 5074
18607, 4071, 4959, 4278, 5300
18608, 4226, 4706, 3911, 5205
18609, 3277, 3340, 2628, 5485
18610, 3277, 2455, 2644, 5486
18611, 3185, 3229, 2332, 5487
18612, 2519, 2640, 5066, 5277
18613, 4501, 5097, 4195, 5197
18614, 3885, 5159, 4154, 5343
18615, 3884, 5158, 4153, 5342
18616, 588, 709, 1566, 5490
18617, 1456, 1683, 1203, 4372
18618, 4010, 4490, 4318, 5193
18619, 1210, 5504, 1211, 5519
18620, 2700, 2821, 2820, 4972
18621, 2551, 2506, 2505, 5450
18622, 2625, 3262, 3104, 5403
18623, 4262, 4510, 4048, 4972
18624, 3209, 3064, 3191, 5404
18625, 49, 1541, 337, 5062
18626, 197, 3174, 1970, 5061
18627, 3740, 3739, 3709, 4265
18628, 2312, 3301, 3299, 5483
18629, 1539, 1144, 4491, 5402
18630, 3172, 2777, 4492, 5401
18631, 1227, 1196, 942, 5445
18632, 2710, 2555, 2711, 5121
18633, 1865, 1893, 1934, 5306
18634, 4245, 4667, 3962, 5209
18635, 4246, 4666, 3963, 5210
18636, 3769, 4434, 4279, 5180
18637, 3608, 3596, 3646, 5131
18638, 4289, 4463, 3808, 5365
18639, 2076, 2074, 2072, 4762
18640, 3933, 4645, 4226, 5205
18641, 4240, 4643, 3787, 5203
18642, 4241, 4644, 3788, 5202
18643, 3861, 5160, 4167, 5314
18644, 4167, 5160, 3919, 5314
18645, 4249, 4647, 3811, 5206
18646, 3758, 4649, 4242, 5208
18647, 4025, 4318, 4490, 5193
18648, 897, 762, 896, 5381
18649, 1181, 4767, 1102, 5459
18650, 3899, 4664, 4237, 5200
18651, 4170, 4951, 4475, 5518
18652, 4467, 4941, 4157, 5516
18653, 4466, 4942, 4158, 5515
18654, 4153, 5158, 3910, 5342
18655, 4154, 5159, 3909, 5343
18656, 4216, 4962, 4855, 5349
18657, 4217, 4963, 4856, 5350
18658, 922, 1078, 1077, 5125
18659, 3926, 4763, 4515, 5234
18660, 66, 1403, 1691, 3724
18661, 4631, 4974, 3993, 5424
18662, 4383, 4504, 3903, 5043
18663, 3654, 3632, 3614, 5460
18664, 3183, 2842, 2867, 4395
18665, 3371, 4490, 3372, 5446
18666, 1210, 905, 1104, 4737
18667, 3015, 2137, 3016, 4962
18668, 1383, 1382, 504, 4963
18669, 2976, 2973, 2974, 4708
18670, 1896, 317, 95, 1776
18671, 1327, 1328, 1325, 4459
18672, 4249, 4647, 3799, 5058
18673, 4214, 4101, 5049, 5252
18674, 2551, 2680, 4847, 5450
18675, 2366, 3096, 2591, 5505
18676, 1973, 2853, 3357, 5394
18677, 340, 1220, 1724, 5395
18678, 908, 4674, 1106, 5491
18679, 2541, 4673, 2739, 5492
18680, 1336, 777, 902, 4447
18681, 1463, 958, 733, 5506
18682, 3985, 4492, 4317, 5075
18683, 2589, 2366, 2590, 5505
18684, 2688, 3386, 4344, 5457
18685, 1753, 4343, 1055, 5456
18686, 3129, 3078, 2911, 4822
18687, 1278, 1496, 1445, 4823
18688, 3077, 2230, 2229, 5478
18689, 2096, 3234, 2092, 5479
18690, 1057, 1058, 1430, 5093
18691, 2690, 2691, 3063, 5094
18692, 2093, 2091, 2110, 5471
18693, 2089, 2085, 2086, 5470
18694, 502, 505, 494, 5472
18695, 2138, 2127, 2135, 5473
18696, 3053, 2303, 3251, 5474
18697, 2268, 2380, 3195, 5475
18698, 1060, 965, 1151, 5476
18699, 2784, 2693, 2598, 5477
18700, 866, 867, 938, 5055
18701, 1726, 4759, 1037, 5507
18702, 2240, 2241, 2238, 5081
18703, 957, 956, 733, 5506
18704, 742, 704, 703, 5480
18705, 652, 1381, 616, 5481
18706, 2527, 5205, 4706, 5495
18707, 4304, 4411, 3879, 5262
18708, 4387, 4507, 3986, 5361
18709, 2935, 3322, 1953, 5196
18710, 4240, 4643, 3803, 5228
18711, 4241, 4644, 3804, 5227
18712, 3849, 4645, 4226, 5229
18713, 3845, 4238, 4646, 5230
18714, 3954, 4648, 4244, 5226
18715, 3959, 4237, 5153, 5213
18716, 1340, 1342, 916, 4919
18717, 4476, 3868, 4976, 5063
18718, 4477, 3867, 4977, 5064
18719, 2979, 1952, 3365, 4401
18720, 561, 586, 1437, 4976
18721, 3070, 2194, 2219, 4977
18722, 3777, 4851, 4386, 5240
18723, 3776, 4850, 4385, 5241
18724, 4247, 3984, 5073, 5116
18725, 4243, 4011, 5071, 5117
18726, 4249, 5072, 3973, 5115
18727, 3856, 4227, 5070, 5114
18728, 3856, 5070, 4232, 5114
18729, 4251, 5071, 4011, 5117
18730, 4250, 5073, 3984, 5116
18731, 23, 3498, 309, 4460
18732, 4248, 3973, 5072, 5115
18733, 1853, 1922, 1909, 4321
18734, 3539, 3445, 3542, 4320
18735, 3075, 3002, 2473, 5467
18736, 1442, 1369, 840, 5466
18737, 4262, 4510, 4049, 5418
18738, 2309, 4503, 2265, 5225
18739, 1968, 1928, 181, 1842
18740, 3873, 4828, 4473, 4949
18741, 3874, 4829, 4474, 4950
18742, 4475, 4831, 3955, 4951
18743, 4169, 4244, 4779, 5523
18744, 3072, 5072, 2855, 5502
18745, 4179, 4051, 5147, 5494
18746, 4180, 4050, 5146, 5493
18747, 2864, 2795, 2756, 5331
18748, 1162, 1123, 1231, 5330
18749, 1214, 4961, 1752, 5215
18750, 1091, 1651, 1090, 5397
18751, 2632, 2631, 2633, 5128
18752, 419, 418, 417, 4743
18753, 1714, 325, 90, 1893
18754, 2499, 2500, 2571, 5057
18755, 3958, 4979, 4369, 5196
18756, 3758, 4465, 4944, 5036
18757, 3759, 4464, 4943, 5037
18758, 2988, 2068, 2282, 5090
18759, 3656, 350, 138, 5154
18760, 4266, 4852, 3957, 5250
18761, 103, 1779, 333, 5218
18762, 3862, 4949, 4348, 5320
18763, 3703, 3743, 3722, 4264
18764, 3220, 2601, 2603, 5167
18765, 3828, 4698, 4334, 5170
18766, 3706, 3734, 3736, 4274
18767, 3273, 3015, 3294, 4509
18768, 1382, 1661, 1640, 4508
18769, 1313, 1743, 1736, 5039
18770, 3630, 141, 3585, 1312
18771, 3719, 3674, 68, 1359
18772, 1594, 988, 414, 5095
18773, 2621, 2047, 3227, 5096
18774, 1554, 793, 1568, 5097
18775, 3825, 4648, 4244, 5523
18776, 4325, 4694, 3915, 5348
18777, 4326, 4695, 3916, 5347
18778, 3799, 5081, 4498, 5287
18779, 2543, 2736, 2950, 4871
18780, 428, 426, 427, 5099
18781, 1056, 1057, 1035, 5093
18782, 2668, 2689, 2690, 5094
18783, 4064, 5176, 4209, 5223
18784, 4349, 4846, 4074, 5454
18785, 4330, 3951, 4693, 5286
18786, 4329, 3950, 4692, 5285
18787, 2645, 2893, 3325, 5495
18788, 3396, 2844, 2737, 4438
18789, 4048, 4510, 4262, 5397
18790, 3604, 322, 4636, 5388
18791, 1019, 5089, 1017, 5351
18792, 3820, 4445, 4832, 5393
18793, 2814, 2815, 5176, 5223
18794, 4392, 4435, 3956, 5174
18795, 3844, 4696, 4322, 4773
18796, 1905, 1891, 1823, 4275
18797, 4024, 4640, 4222, 5168
18798, 4023, 4639, 4221, 5171
18799, 3605, 3606, 3657, 5509
18800, 3940, 4405, 4280, 5371
18801, 3944, 4945, 4470, 5188
18802, 3943, 4946, 4469, 5187
18803, 4436, 4771, 3826, 4812
18804, 4348, 4949, 3873, 5320
18805, 2542, 3181, 2487, 5492
18806, 909, 1548, 854, 5491
18807, 1317, 910, 1103, 4877
18808, 1197, 321, 1126, 5038
18809, 4398, 5410, 4140, 5447
18810, 4038, 5410, 4398, 5447
18811, 4391, 3967, 4862, 5305
18812, 3421, 4651, 2730, 5220
18813, 2870, 2869, 3317, 5110
18814, 3758, 4960, 4727, 5019
18815, 2059, 2060, 2061, 5109
18816, 1097, 1788, 4652, 5219
18817, 2342, 2341, 2390, 5111
18818, 3663, 3433, 3626, 5151
18819, 1800, 3627, 3662, 5152
18820, 1255, 1256, 1257, 5333
18821, 3869, 4713, 4700, 5256
18822, 3908, 4714, 4702, 5257
18823, 702, 1460, 1665, 5499
18824, 3617, 3647, 3645, 4271
18825, 3898, 5074, 4405, 5204
18826, 4014, 4971, 4630, 5338
18827, 2763, 1976, 2771, 4418
18828, 1138, 1130, 343, 4417
18829, 4827, 5203, 3043, 5473
18830, 4095, 5265, 4804, 5396
18831, 1471, 811, 807, 4700
18832, 3029, 3023, 2385, 4702
18833, 2924, 2922, 3252, 4701
18834, 3531, 3495, 3565, 5300
18835, 4783, 5106, 4372, 5420
18836, 1633, 852, 924, 4415
18837, 3266, 2485, 2557, 4416
18838, 103, 1878, 1779, 5218
18839, 3563, 3479, 3528, 5123
18840, 1926, 1848, 1897, 5124
18841, 4168, 5310, 4468, 5517
18842, 4471, 5311, 4163, 5514
18843, 2888, 2889, 2890, 5334
18844, 314, 1359, 1361, 4400
18845, 473, 500, 496, 5411
18846, 3935, 4738, 4241, 5202
18847, 3906, 4703, 4326, 5347
18848, 3907, 4704, 4325, 5348
18849, 1734, 1719, 139, 3635
18850, 3806, 4283, 4457, 5277
18851, 4032, 4269, 5080, 5154
18852, 1876, 91, 1508, 4766
18853, 4727, 4960, 3758, 5488
18854, 4206, 4957, 3762, 5232
18855, 3385, 2847, 4952, 5216
18856, 3083, 3284, 3283, 4880
18857, 1450, 1651, 1650, 4881
18858, 1410, 4738, 5202, 5472
18859, 3087, 2115, 3031, 4388
18860, 1858, 1857, 1930, 5501
18861, 4470, 4945, 4153, 5188
18862, 4469, 4946, 4154, 5187
18863, 4261, 4778, 3964, 5291
18864, 4084, 5380, 4782, 5451
18865, 445, 1249, 1286, 4502
18866, 2047, 2046, 2045, 4499
18867, 2789, 3094, 2079, 4501
18868, 1156, 1461, 446, 4500
18869, 2265, 2207, 2208, 4503
18870, 4399, 4739, 4073, 4825
18871, 3247, 2954, 3120, 5461
18872, 4208, 4948, 3763, 5231
18873, 3372, 3355, 2941, 5098
18874, 2730, 2590, 3028, 5220
18875, 2294, 5116, 3202, 5290
18876, 2889, 3384, 2891, 5334
18877, 957, 1395, 1097, 5219
18878, 3201, 3187, 2426, 5135
18879, 2348, 3162, 2277, 4712
18880, 4034, 4506, 5275, 5368
18881, 2642, 2454, 3235, 5524
18882, 4399, 4825, 4073, 5453
18883, 412, 414, 413, 4504
18884, 3839, 4924, 4210, 5217
18885, 740, 1008, 501, 5451
18886, 4511, 5315, 3862, 5461
18887, 3667, 3732, 3726, 5075
18888, 2881, 2879, 3150, 5138
18889, 416, 4934, 1432, 5367
18890, 3898, 4849, 4235, 5204
18891, 3977, 4850, 4245, 5209
18892, 3976, 4851, 4246, 5210
18893, 4649, 4960, 3758, 5019
18894, 3957, 4852, 4263, 5250
18895, 2801, 2802, 2804, 4427
18896, 1878, 1905, 1907, 5218
18897, 1171, 1168, 1169, 4426
18898, 499, 534, 537, 4498
18899, 4305, 4430, 3791, 5378
18900, 1050, 970, 1049, 4817
18901, 1309, 1310, 1307, 5388
18902, 3898, 4762, 4378, 4849
18903, 4378, 4762, 3857, 4848
18904, 3370, 2940, 2943, 5500
18905, 1828, 1847, 1848, 4940
18906, 3462, 3478, 3479, 4938
18907, 3970, 4425, 4707, 4933
18908, 1296, 941, 1530, 5140
18909, 3271, 2612, 2678, 4715
18910, 1014, 891, 895, 5141
18911, 1898, 1858, 1933, 5270
18912, 2961, 3101, 3409, 4772
18913, 2574, 3163, 2929, 5142
18914, 3506, 3466, 3546, 4493
18915, 386, 573, 384, 5145
18916, 2017, 2019, 2206, 5144
18917, 1454, 482, 1398, 5262
18918, 1567, 4465, 660, 5488
18919, 4372, 4783, 3948, 5106
18920, 1743, 1720, 1042, 5179
18921, 4572, 4792, 3851, 5261
18922, 1751, 1258, 1256, 5333
18923, 2668, 2688, 2689, 4344
18924, 1056, 1035, 1055, 4343
18925, 4804, 5265, 4140, 5396
18926, 3782, 4792, 4572, 5261
18927, 3998, 4928, 4728, 5292
18928, 3698, 3686, 3740, 4968
18929, 3686, 3708, 3739, 4979
18930, 3920, 5315, 4511, 5461
18931, 445, 1249, 4502, 5412
18932, 3360, 3359, 2670, 5448
18933, 1425, 605, 608, 5365
18934, 1734, 1101, 1719, 4420
18935, 1210, 4737, 1104, 5504
18936, 3364, 3365, 1952, 5131
18937, 3724, 1691, 66, 3687
18938, 594, 592, 593, 4494
18939, 309, 1796, 1344, 4954
18940, 3959, 5153, 4263, 5213
18941, 3614, 4967, 4419, 5460
18942, 3984, 5073, 4250, 5212
18943, 3759, 5071, 4243, 5207
18944, 3984, 5072, 4248, 5211
18945, 1487, 1614, 1321, 5160
18946, 1145, 1025, 1023, 5161
18947, 955, 1452, 1156, 5156
18948, 3085, 2789, 2588, 5157
18949, 1421, 675, 1645, 5158
18950, 3054, 2308, 3278, 5159
18951, 2474, 2548, 2411, 4359
18952, 874, 1287, 774, 5348
18953, 2507, 2920, 2407, 5347
18954, 1305, 1306, 1308, 5468
18955, 2224, 2225, 2205, 5175
18956, 2977, 2975, 1942, 5270
18957, 3780, 5237, 4184, 5469
18958, 4184, 5237, 4047, 5469
18959, 1435, 1007, 886, 4495
18960, 861, 790, 931, 5146
18961, 2494, 2423, 2564, 5147
18962, 1151, 1153, 461, 4422
18963, 2786, 2094, 2784, 4423
18964, 2345, 3070, 2219, 4425
18965, 712, 1437, 586, 4424
18966, 371, 373, 372, 5163
18967, 2006, 2005, 2004, 5162
18968, 1918, 1885, 1926, 4710
18969, 3563, 3556, 3521, 4711
18970, 4222, 4640, 3999, 5465
18971, 498, 544, 534, 5264
18972, 3667, 3726, 3700, 5075
18973, 3208, 3280, 2462, 5046
18974, 4025, 5078, 4393, 5221
18975, 909, 908, 1106, 5491
18976, 2542, 2541, 2739, 5492
18977, 4762, 4848, 4378, 4849
18978, 957, 958, 959, 5506
18979, 2591, 2592, 2590, 5505
18980, 911, 1181, 1102, 5459
18981, 3701, 345, 60, 5498
18982, 1936, 1890, 1827, 5151
18983, 3569, 3525, 3461, 5152
18984, 4269, 5154, 4736, 5233
18985, 2555, 2774, 5121, 5382
18986, 3656, 138, 3598, 5154
18987, 567, 542, 1571, 5115
18988, 1192, 820, 1195, 5114
18989, 1141, 5125, 922, 5387
18990, 2294, 3205, 3202, 5116
18991, 3567, 3527, 3497, 5120
18992, 2520, 2519, 2630, 5066
18993, 1067, 1436, 1189, 5067
18994, 2700, 3069, 2822, 5068
18995, 2296, 4825, 2299, 5453
18996, 367, 3627, 5152, 5235
18997, 3626, 5151, 2000, 5236
18998, 1822, 101, 358, 5129
18999, 1041, 1722, 899, 4428
19000, 3669, 3725, 3692, 4970
19001, 4020, 4813, 4255, 5450
19002, 4274, 4969, 3959, 5455
19003, 4135, 4928, 4395, 5292
19004, 3937, 4372, 5106, 5420
19005, 3905, 4694, 4325, 4704
19006, 3904, 4695, 4326, 4703
19007, 858, 1624, 933, 5172
19008, 2940, 3370, 3371, 5273
19009, 3782, 4899, 4600, 5261
19010, 596, 1335, 5112, 5284
19011, 2537, 2737, 2538, 4353
19012, 1448, 1792, 1136, 4454
19013, 3602, 3641, 3595, 4872
19014, 1335, 960, 1444, 5112
19015, 3220, 2257, 2838, 5113
19016, 325, 1508, 91, 4766
19017, 1506, 1511, 851, 5374
19018, 3138, 3144, 2484, 5373
19019, 3696, 3737, 3678, 4969
19020, 4222, 4803, 4035, 5168
19021, 3808, 5182, 4352, 5365
19022, 1704, 1019, 1017, 5351
19023, 4221, 4806, 4043, 5171
19024, 564, 565, 588, 4477
19025, 2197, 2198, 2221, 4476
19026, 2168, 2182, 2169, 4471
19027, 636, 746, 635, 4472
19028, 1658, 1331, 1330, 4474
19029, 2963, 3291, 2964, 4473
19030, 2304, 2305, 2306, 4478
19031, 2187, 2293, 2189, 4464
19032, 554, 660, 556, 4465
19033, 685, 682, 684, 4468
19034, 2280, 2281, 2422, 4467
19035, 647, 648, 789, 4466
19036, 2823, 2659, 2865, 4475
19037, 1208, 1462, 1150, 4470
19038, 3095, 2783, 2841, 4469
19039, 619, 618, 617, 4479
19040, 795, 855, 669, 5077
19041, 3970, 4707, 4425, 5164
19042, 1354, 1768, 1063, 5265
19043, 2836, 3089, 3316, 4873
19044, 1438, 1397, 881, 4982
19045, 2674, 3374, 3373, 5400
19046, 3549, 3545, 3504, 4752
19047, 2661, 2865, 4475, 5511
19048, 1689, 1284, 320, 5213
19049, 1662, 1092, 1659, 5117
19050, 3007, 2757, 3008, 4958
19051, 2891, 236, 3506, 3437
19052, 1914, 1870, 1917, 4753
19053, 2315, 2314, 2316, 5070
19054, 2883, 2609, 3221, 5071
19055, 1567, 556, 660, 4465
19056, 2293, 3200, 2189, 4464
19057, 789, 648, 860, 4466
19058, 2493, 2422, 2281, 4467
19059, 683, 684, 682, 4468
19060, 2597, 2783, 3095, 4469
19061, 1462, 964, 1150, 4470
19062, 2255, 2182, 2168, 4471
19063, 746, 747, 635, 4472
19064, 1330, 1331, 947, 4474
19065, 2963, 2964, 2580, 4473
19066, 2172, 2198, 2197, 4476
19067, 539, 565, 564, 4477
19068, 2304, 2255, 2305, 4478
19069, 619, 630, 618, 4479
19070, 2661, 2865, 2659, 4475
19071, 3157, 3366, 2672, 5183
19072, 2417, 2471, 2472, 4816
19073, 255, 3425, 3081, 4964
19074, 3072, 2897, 2855, 5072
19075, 3733, 3680, 3691, 5357
19076, 1568, 1595, 981, 5197
19077, 1591, 1200, 722, 5073
19078, 2533, 3372, 3295, 4490
19079, 606, 607, 4835, 5332
19080, 748, 713, 711, 5076
19081, 3482, 3536, 3454, 4764
19082, 4289, 4835, 4463, 5365
19083, 3942, 4743, 4383, 5043
19084, 1758, 1076, 1059, 4854
19085, 3635, 139, 1734, 3598
19086, 4963, 5147, 4051, 5494
19087, 4962, 5146, 4050, 5493
19088, 1911, 1872, 1834, 4451
19089, 3495, 3494, 3565, 4278
19090, 1726, 1037, 1727, 5507
19091, 1838, 166, 1867, 4916
19092, 946, 1254, 1253, 5082
19093, 3659, 3628, 3587, 4355
19094, 3588, 3658, 3629, 4354
19095, 1734, 138, 350, 5154
19096, 3141, 241, 1958, 4731
19097, 3874, 4950, 4474, 5340
19098, 3695, 3673, 3738, 4369
19099, 1322, 1731, 319, 5221
19100, 4432, 5155, 4078, 5501
19101, 591, 655, 1334, 5352
19102, 3873, 4949, 4473, 5320
19103, 2121, 3041, 2119, 5203
19104, 488, 1408, 486, 5202
19105, 2428, 2488, 2302, 5201
19106, 3153, 2069, 2071, 5204
19107, 660, 1585, 1588, 5208
19108, 3221, 2293, 3218, 5207
19109, 2528, 2647, 2524, 5205
19110, 2525, 2649, 2526, 5200
19111, 574, 575, 632, 5206
19112, 2512, 3152, 2352, 5210
19113, 879, 1519, 719, 5209
19114, 1591, 624, 1587, 5212
19115, 2585, 2897, 3205, 5211
19116, 324, 1127, 1129, 5124
19117, 2762, 1957, 2760, 5123
19118, 3808, 4463, 5182, 5365
19119, 3141, 3510, 241, 4731
19120, 3797, 4290, 5103, 5413
19121, 4378, 4848, 3858, 4849
19122, 758, 900, 1659, 5079
19123, 1020, 1018, 1019, 5089
19124, 2650, 3337, 2652, 5153
19125, 2845, 2756, 3398, 5279
19126, 1123, 1765, 1212, 5280
19127, 2514, 3071, 3030, 4324
19128, 587, 1536, 1578, 4326
19129, 2220, 3169, 3211, 4325
19130, 679, 1668, 1666, 4327
19131, 681, 1479, 805, 4322
19132, 1552, 806, 1482, 4323
19133, 892, 1016, 893, 4328
19134, 1088, 1610, 1087, 4329
19135, 2721, 3243, 2720, 4330
19136, 4188, 4832, 4445, 5393
19137, 2299, 2296, 2300, 4825
19138, 2225, 2226, 2227, 4333
19139, 3643, 3637, 3601, 4340
19140, 4025, 4490, 4318, 5446
19141, 3599, 3642, 3636, 4341
19142, 605, 606, 607, 4835
19143, 2825, 2636, 3310, 4334
19144, 2169, 2168, 4471, 5514
19145, 685, 4468, 684, 5517
19146, 2280, 2281, 4467, 5516
19147, 648, 4466, 647, 5515
19148, 2865, 2823, 4475, 5518
19149, 987, 1627, 1199, 5217
19150, 4263, 5213, 3957, 5250
19151, 1777, 23, 309, 4460
19152, 3295, 3372, 3371, 4490
19153, 1342, 1343, 309, 4460
19154, 3078, 2107, 2947, 4859
19155, 1445, 474, 1314, 4858
19156, 2836, 3260, 2719, 5423
19157, 3621, 3581, 3648, 4393
19158, 3529, 3566, 3497, 5038
19159, 918, 1125, 1386, 4874
19160, 3761, 4458, 4313, 5251
19161, 2927, 3362, 1979, 4419
19162, 827, 1077, 1418, 5231
19163, 3269, 3233, 2923, 5100
19164, 1290, 1636, 1600, 5101
19165, 4573, 4793, 3851, 5261
19166, 3418, 1867, 166, 4916
19167, 2460, 2710, 3051, 5232
19168, 2584, 2586, 2583, 5416
19169, 884, 776, 865, 4445
19170, 4110, 4683, 4276, 5270
19171, 1646, 1186, 1184, 5341
19172, 1539, 1029, 1144, 5402
19173, 3619, 3577, 149, 5375
19174, 3172, 2662, 2777, 5401
19175, 1387, 1081, 876, 5234
19176, 1689, 1302, 1303, 5250
19177, 4083, 5049, 4454, 5252
19178, 2381, 2346, 2344, 4933
19179, 3635, 3652, 3598, 4420
19180, 329, 1742, 149, 5375
19181, 3535, 3493, 3555, 4342
19182, 3356, 3375, 1962, 5143
19183, 643, 1261, 1263, 5249
19184, 2276, 2894, 2896, 5248
19185, 2150, 2148, 2149, 5246
19186, 517, 515, 516, 5247
19187, 3848, 4793, 4573, 5261
19188, 775, 1435, 886, 4495
19189, 2778, 2658, 2656, 4436
19190, 3936, 5419, 4802, 5423
19191, 471, 472, 473, 5244
19192, 710, 1089, 1557, 5245
19193, 2252, 2251, 2250, 4349
19194, 3305, 2637, 3304, 5086
19195, 432, 431, 430, 5087
19196, 596, 1334, 1335, 5284
19197, 101, 1447, 358, 5129
19198, 3809, 5182, 4463, 5365
19199, 1699, 1237, 1684, 4812
19200, 896, 913, 1717, 4505
19201, 2781, 2744, 2749, 4441
19202, 1111, 1116, 1148, 4442
19203, 2529, 2546, 3350, 4506
19204, 3972, 4421, 4339, 5341
19205, 2688, 3386, 2689, 4344
19206, 1753, 1056, 1055, 4343
19207, 4432, 5482, 1930, 5501
19208, 3632, 3577, 3655, 4967
19209, 1210, 1211, 1074, 5519
19210, 2603, 2602, 2682, 5167
19211, 2680, 2758, 2551, 4847
19212, 2061, 2064, 3089, 5255
19213, 799, 802, 875, 4935
19214, 2508, 2432, 2435, 4936
19215, 3984, 5116, 4247, 5290
19216, 1928, 181, 3010, 1968
19217, 3612, 3607, 3645, 5078
19218, 442, 479, 421, 5469
19219, 4463, 4835, 3809, 5365
19220, 1907, 1915, 1822, 5129
19221, 2962, 3387, 2729, 4910
19222, 1114, 1787, 4824, 5324
19223, 825, 1325, 1324, 5150
19224, 4395, 4928, 3998, 5292
19225, 4270, 4756, 3966, 5352
19226, 2054, 2075, 2112, 5295
19227, 1670, 570, 1671, 4374
19228, 1672, 676, 1483, 4373
19229, 1805, 1142, 13, 3467
19230, 3588, 3574, 308, 3662
19231, 1940, 3587, 201, 3660
19232, 3587, 1941, 202, 3663
19233, 3571, 3677, 306, 3751
19234, 3573, 3750, 305, 3460
19235, 156, 1826, 3752, 1938
19236, 1939, 3749, 155, 1826
19237, 1857, 1845, 1930, 5501
19238, 594, 1176, 592, 4494
19239, 4075, 4824, 4683, 5324
19240, 1742, 3619, 5375, 5390
19241, 3631, 3598, 3652, 5154
19242, 2705, 2706, 2854, 4387
19243, 2791, 3168, 2623, 4392
19244, 1734, 3598, 138, 5154
19245, 995, 811, 1641, 5256
19246, 2307, 2305, 3029, 5257
19247, 2577, 2568, 2497, 4394
19248, 3441, 264, 3526, 1992
19249, 359, 114, 1808, 1892
19250, 491, 492, 493, 4399
19251, 3661, 307, 3461, 3572
19252, 563, 568, 569, 5056
19253, 3899, 5200, 4237, 5391
19254, 4237, 5200, 3957, 5391
19255, 2871, 2869, 1963, 4480
19256, 1858, 1894, 1933, 5482
19257, 1864, 164, 1813, 5130
19258, 780, 904, 781, 4366
19259, 3582, 3654, 3633, 5460
19260, 2809, 2227, 2807, 5259
19261, 1133, 4959, 1375, 5318
19262, 2418, 2480, 2554, 4455
19263, 847, 921, 785, 4456
19264, 571, 1356, 590, 5083
19265, 3644, 3641, 3602, 4872
19266, 1527, 1214, 332, 5215
19267, 1191, 545, 1581, 4449
19268, 2824, 2178, 3214, 4450
19269, 311, 1788, 1807, 4356
19270, 3440, 1944, 3421, 4357
19271, 612, 611, 613, 5272
19272, 3774, 4409, 4450, 5499
19273, 3585, 1312, 142, 5458
19274, 1954, 166, 1838, 4916
19275, 4490, 5273, 4318, 5446
19276, 4271, 4805, 4025, 5098
19277, 1550, 1209, 1234, 4482
19278, 2043, 2044, 2042, 5322
19279, 411, 409, 410, 5321
19280, 1002, 1362, 859, 4730
19281, 2298, 3058, 2617, 4953
19282, 4062, 4444, 4397, 5466
19283, 4063, 4443, 4396, 5467
19284, 667, 666, 663, 4853
19285, 4600, 4899, 3848, 5261
19286, 2747, 3420, 2960, 4867
19287, 109, 1841, 1866, 5136
19288, 2964, 3291, 2515, 5320
19289, 3649, 3583, 3604, 5388
19290, 3477, 3508, 259, 5132
19291, 813, 1353, 1005, 5315
19292, 2986, 3305, 3116, 5314
19293, 1133, 310, 1376, 5318
19294, 2198, 2276, 2222, 5278
19295, 1312, 315, 1313, 4676
19296, 3969, 4424, 4976, 5278
19297, 3505, 3543, 3467, 4481
19298, 1513, 499, 537, 4498
19299, 2814, 2696, 2815, 5223
19300, 1403, 1084, 1691, 4672
19301, 3585, 4676, 1312, 5458
19302, 1965, 3160, 2847, 5216
19303, 722, 1605, 1368, 5186
19304, 4366, 4675, 4002, 5181
19305, 4316, 4491, 3998, 5162
19306, 4317, 4492, 3985, 5163
19307, 4045, 5419, 4873, 5423
19308, 3734, 3737, 3696, 4969
19309, 3669, 3731, 3725, 4970
19310, 289, 3609, 3367, 5509
19311, 2790, 2623, 2560, 5327
19312, 1517, 1247, 1625, 5503
19313, 537, 542, 548, 5287
19314, 2234, 3202, 2236, 5290
19315, 3197, 2761, 2685, 5189
19316, 1052, 1564, 1128, 5190
19317, 571, 569, 568, 5056
19318, 3937, 4336, 4446, 5464
19319, 589, 565, 643, 5164
19320, 2735, 2544, 2814, 5176
19321, 529, 532, 1544, 4433
19322, 3722, 3697, 3702, 5304
19323, 1335, 1337, 960, 5251
19324, 2303, 3052, 3091, 5191
19325, 4459, 4708, 4037, 5409
19326, 2088, 3307, 2022, 5301
19327, 1119, 1049, 969, 5155
19328, 2335, 3073, 2032, 4408
19329, 1440, 399, 702, 4409
19330, 408, 406, 405, 4407
19331, 2038, 2041, 2039, 4406
19332, 998, 887, 997, 4410
19333, 2561, 2560, 2489, 4411
19334, 2919, 2078, 2882, 4412
19335, 4389, 4757, 4016, 5060
19336, 4390, 4758, 4015, 5059
19337, 3712, 3720, 3672, 4920
19338, 3648, 3645, 3607, 5078
19339, 1842, 1900, 1920, 5526
19340, 646, 1265, 1149, 4413
19341, 2279, 2898, 2782, 4414
19342, 1169, 354, 1171, 5136
19343, 2048, 2046, 2047, 4499
19344, 1441, 1156, 446, 4500
19345, 3074, 2789, 2079, 4501
19346, 2207, 2265, 2309, 4503
19347, 1286, 441, 445, 4502
19348, 2804, 2802, 1987, 5132
19349, 414, 415, 413, 4504
19350, 1712, 1140, 1137, 5252
19351, 1530, 1356, 627, 5296
19352, 3224, 2257, 3220, 5069
19353, 1671, 1672, 1004, 5065
19354, 2692, 3009, 3010, 5356
19355, 3677, 3571, 306, 3460
19356, 156, 1826, 3676, 3752
19357, 3460, 3750, 305, 3677
19358, 1826, 3749, 155, 3676
19359, 3959, 4969, 4263, 5455
19360, 882, 1663, 1331, 5340
19361, 1377, 1059, 1376, 4764
19362, 3609, 4497, 3367, 5509
19363, 2024, 2022, 3307, 5301
19364, 2427, 2125, 2123, 5366
19365, 3587, 1940, 201, 1827
19366, 3574, 3588, 308, 3461
19367, 1941, 3587, 202, 1827
19368, 3461, 3588, 307, 3661
19369, 1630, 416, 1432, 5367
19370, 1834, 1895, 1911, 4451
19371, 1675, 1351, 1005, 5173
19372, 4032, 5080, 4420, 5154
19373, 3304, 2637, 2995, 5086
19374, 1658, 882, 1331, 5340
19375, 1406, 930, 1405, 4983
19376, 3502, 3540, 3535, 4954
19377, 161, 3438, 2775, 1835
19378, 3563, 3521, 3462, 4711
19379, 1926, 1885, 1828, 4710
19380, 3738, 3739, 3708, 4979
19381, 1305, 322, 1306, 4636
19382, 737, 736, 731, 5283
19383, 2370, 2369, 2364, 5282
19384, 1866, 354, 109, 5136
19385, 410, 1432, 416, 4934
19386, 1987, 259, 3508, 5132
19387, 934, 1002, 859, 4730
19388, 2638, 2986, 3116, 5314
19389, 1353, 1483, 1005, 5315
19390, 3332, 3165, 2870, 5523
19391, 3296, 2964, 2515, 5320
19392, 1335, 1336, 1337, 5251
19393, 2049, 2043, 3065, 4434
19394, 3107, 3014, 2285, 4439
19395, 2039, 2042, 2308, 4907
19396, 409, 675, 406, 4908
19397, 1264, 1572, 952, 4440
19398, 1521, 889, 784, 4909
19399, 4428, 4715, 4006, 5079
19400, 2032, 2033, 2031, 5521
19401, 398, 399, 400, 5522
19402, 1408, 490, 486, 5520
19403, 4424, 4712, 3969, 5076
19404, 2069, 2068, 2067, 4405
19405, 3265, 2624, 3135, 5291
19406, 1804, 1872, 86, 1258
19407, 4427, 5168, 4024, 5219
19408, 931, 1349, 1071, 5269
19409, 2564, 2982, 2704, 5268
19410, 3048, 3047, 3049, 5342
19411, 1415, 1414, 1416, 5343
19412, 4426, 5171, 4023, 5220
19413, 2679, 3361, 3282, 5258
19414, 1133, 1374, 1375, 4959
19415, 3577, 329, 149, 5375
19416, 1214, 1201, 1752, 4961
19417, 2234, 2294, 3202, 5290
19418, 534, 542, 537, 5287
19419, 3656, 350, 5154, 5233
19420, 1171, 1384, 1168, 5171
19421, 3329, 2776, 2764, 5299
19422, 1696, 1143, 1131, 5298
19423, 3712, 3741, 3720, 4920
19424, 2021, 3015, 3273, 4509
19425, 1640, 388, 1382, 4508
19426, 3160, 1813, 164, 5130
19427, 1983, 3354, 3367, 4497
19428, 1218, 342, 1782, 4753
19429, 3415, 2851, 1975, 4752
19430, 2801, 2804, 3017, 5168
19431, 4023, 4651, 4426, 5220
19432, 4024, 4652, 4427, 5219
19433, 1367, 353, 1749, 5059
19434, 1986, 3382, 3000, 5060
19435, 1373, 1194, 1472, 5353
19436, 1302, 1689, 320, 5250
19437, 3260, 3240, 2719, 5423
19438, 3345, 2467, 2681, 4681
19439, 2260, 2989, 2204, 4421
19440, 4240, 5203, 4827, 5473
19441, 237, 3466, 3506, 3437
19442, 1479, 1480, 992, 5224
19443, 3306, 2309, 2265, 5225
19444, 2277, 2222, 2276, 5278
19445, 4278, 5300, 4959, 5318
19446, 4873, 5419, 3936, 5423
19447, 2830, 1954, 2759, 4916
19448, 2459, 3213, 2731, 5276
19449, 826, 1580, 1098, 5275
19450, 4248, 5211, 5072, 5502
19451, 3544, 3553, 3453, 4758
19452, 1919, 1820, 1913, 4757
19453, 4137, 5275, 4506, 5368
19454, 1615, 1350, 1064, 5107
19455, 3248, 2983, 2697, 5108
19456, 4359, 5416, 4061, 5421
19457, 4101, 5416, 4359, 5421
19458, 3731, 3683, 3688, 4395
19459, 3439, 3422, 1995, 4710
19460, 1789, 362, 1806, 4711
19461, 3055, 5106, 2510, 5420
19462, 3385, 2847, 2834, 4952
19463, 14, 1805, 3467, 3503
19464, 4644, 5202, 4241, 5472
19465, 4643, 5203, 4240, 5473
19466, 4046, 4784, 4404, 4994
19467, 2604, 3047, 3048, 5342
19468, 1414, 1415, 971, 5343
19469, 1104, 5294, 1763, 5504
19470, 1674, 1657, 391, 5178
19471, 571, 627, 1356, 5296
19472, 4045, 4763, 4873, 5419
19473, 1367, 1389, 1775, 5059
19474, 3022, 3408, 3000, 5060
19475, 604, 605, 1425, 5365
19476, 1221, 905, 1210, 4737
19477, 1916, 1930, 1845, 4432
19478, 3522, 3513, 274, 5303
19479, 124, 1888, 1811, 5302
19480, 3850, 4468, 4380, 5310
19481, 4376, 4471, 3892, 5311
19482, 3908, 4478, 4376, 5312
19483, 3753, 4757, 4389, 5060
19484, 3754, 4758, 4390, 5059
19485, 4645, 4226, 5205, 5495
19486, 1835, 162, 3438, 1871
19487, 3311, 2930, 5092, 5508
19488, 1666, 1420, 1655, 5238
19489, 1586, 1423, 1087, 5241
19490, 3219, 3056, 2720, 5240
19491, 1675, 1483, 1673, 5239
19492, 1707, 1360, 1706, 5242
19493, 1994, 164, 1864, 5130
19494, 1172, 1616, 1068, 5326
19495, 2805, 3249, 2701, 5325
19496, 3593, 3637, 3638, 5395
19497, 3639, 3592, 3636, 5394
19498, 3701, 60, 3680, 5498
19499, 1238, 60, 345, 5498
19500, 3868, 4976, 4424, 5278
19501, 16, 3446, 3567, 5120
19502, 1031, 1232, 1028, 5226
19503, 1573, 982, 1537, 5228
19504, 3170, 3206, 2615, 5227
19505, 1022, 1612, 1244, 5229
19506, 1542, 1602, 746, 5230
19507, 1341, 1340, 1338, 4429
19508, 1954, 3418, 166, 4916
19509, 3592, 3639, 3625, 5394
19510, 3593, 3638, 3624, 5395
19511, 1197, 1126, 1196, 5445
19512, 1194, 944, 1472, 5353
19513, 3147, 3108, 2687, 4804
19514, 389, 391, 390, 5323
19515, 612, 613, 663, 5272
19516, 2070, 2282, 2068, 5489
19517, 4706, 5205, 4226, 5495
19518, 1874, 1912, 1835, 4496
19519, 2247, 2248, 2246, 4635
19520, 2519, 3068, 2640, 5277
19521, 3733, 3730, 3668, 5513
19522, 811, 1471, 1641, 5256
19523, 3029, 2385, 2307, 5257
19524, 985, 890, 1015, 5391
19525, 3672, 3705, 3704, 4852
19526, 4138, 4860, 4505, 5276
19527, 4137, 4861, 4506, 5275
19528, 1354, 1507, 363, 5265
19529, 2903, 1977, 2774, 5199
19530, 344, 1141, 1270, 5198
19531, 1354, 1096, 1754, 5447
19532, 2123, 3041, 2427, 5366
19533, 3754, 4390, 4807, 5059
19534, 3753, 4389, 4808, 5060
19535, 676, 632, 1673, 5308
19536, 2643, 2626, 2728, 5310
19537, 1291, 1289, 1619, 5311
19538, 1396, 1390, 752, 5312
19539, 1024, 1190, 1612, 5313
19540, 3733, 3691, 3730, 5357
19541, 2904, 3430, 1977, 5199
19542, 1271, 1797, 344, 5198
19543, 3437, 237, 3466, 1969
19544, 4138, 5276, 4505, 5381
19545, 1143, 1694, 366, 5362
19546, 3327, 1998, 2776, 5363
19547, 4127, 5363, 4259, 5376
19548, 4126, 5362, 4260, 5377
19549, 1263, 645, 643, 5249
19550, 2278, 2276, 2896, 5248
19551, 1615, 515, 517, 5247
19552, 3248, 2148, 2150, 5246
19553, 1431, 1576, 1411, 4846
19554, 1600, 1484, 1577, 4809
19555, 3210, 3233, 3117, 4810
19556, 1459, 479, 1458, 4435
19557, 3747, 3677, 3718, 5363
19558, 3676, 3717, 3748, 5362
19559, 907, 1241, 1225, 5360
19560, 2874, 2858, 2540, 5359
19561, 3402, 2687, 2686, 5396
19562, 4276, 5482, 4078, 5501
19563, 823, 748, 829, 5307
19564, 3020, 2060, 2057, 4430
19565, 2746, 2683, 2682, 5339
19566, 3335, 2656, 2654, 5254
19567, 1124, 357, 1375, 5300
19568, 2749, 2744, 2748, 4441
19569, 1115, 1116, 1111, 4442
19570, 4241, 5202, 4738, 5472
19571, 1227, 1226, 1770, 4517
19572, 2809, 2807, 2569, 5259
19573, 4398, 4804, 4140, 5410
19574, 2930, 3264, 3311, 5092
19575, 1850, 1935, 1891, 5356
19576, 3130, 3526, 264, 1992
19577, 114, 359, 1497, 1892
19578, 2860, 2859, 3403, 4650
19579, 109, 1783, 1841, 5136
19580, 3477, 259, 3416, 5132
19581, 928, 927, 856, 4431
19582, 1238, 3680, 60, 5498
19583, 2501, 2805, 2502, 4444
19584, 868, 1172, 869, 4443
19585, 2539, 5338, 2419, 5465
19586, 3742, 3704, 3705, 4852
19587, 1628, 1567, 660, 5488
19588, 3596, 3620, 3649, 4401
19589, 455, 1674, 389, 5263
19590, 3407, 2798, 2797, 4390
19591, 1164, 1774, 1165, 4389
19592, 1575, 710, 1557, 5245
19593, 472, 1304, 473, 5244
19594, 313, 1761, 1120, 5133
19595, 419, 442, 421, 5469
19596, 3252, 2922, 3024, 4701
19597, 808, 807, 811, 4700
19598, 3024, 3023, 3029, 4702
19599, 3740, 3746, 3698, 4968
19600, 2534, 4862, 2410, 5305
19601, 2753, 1946, 3394, 5137
19602, 2858, 2857, 2540, 5359
19603, 1224, 907, 1225, 5360
19604, 1081, 961, 876, 5234
19605, 4176, 5401, 4729, 5511
19606, 3296, 2619, 2882, 5047
19607, 2066, 2813, 3223, 4446
19608, 2681, 2467, 2539, 5338
19609, 935, 864, 944, 4457
19610, 2359, 2416, 2360, 4458
19611, 1220, 3624, 127, 5235
19612, 2853, 3625, 277, 5236
19613, 3567, 361, 16, 5120
19614, 365, 154, 3628, 1798
19615, 3431, 3629, 304, 1999
19616, 3432, 1998, 231, 3718
19617, 366, 81, 1799, 3717
19618, 1800, 367, 126, 3627
19619, 3433, 2000, 276, 3626
19620, 3618, 142, 348, 5458
19621, 1627, 987, 1607, 5217
19622, 4090, 5125, 4481, 5334
19623, 4098, 5121, 4496, 5333
19624, 1643, 1000, 998, 5054
19625, 1915, 1859, 1822, 5129
19626, 4326, 4703, 4695, 5347
19627, 4325, 4704, 4694, 5348
19628, 3232, 2880, 3178, 4462
19629, 1599, 1247, 1545, 4461
19630, 2170, 2181, 2203, 4463
19631, 1527, 3446, 16, 5120
19632, 2362, 2500, 2499, 5260
19633, 1771, 1358, 1051, 5316
19634, 3404, 2991, 2684, 5317
19635, 1475, 1755, 1054, 4818
19636, 2634, 3256, 3239, 4978
19637, 3313, 2522, 3154, 4756
19638, 4140, 4804, 4398, 5265
19639, 142, 1312, 348, 5458
19640, 3041, 2121, 3043, 5203
19641, 1410, 1408, 488, 5202
19642, 3109, 2302, 2488, 5201
19643, 2915, 3153, 2071, 5204
19644, 2528, 2524, 2527, 5205
19645, 2650, 2526, 2649, 5200
19646, 1250, 1588, 1585, 5208
19647, 2883, 3221, 3218, 5207
19648, 719, 678, 879, 5209
19649, 2512, 2352, 2311, 5210
19650, 567, 575, 574, 5206
19651, 3631, 3652, 3623, 5080
19652, 2730, 3421, 3003, 4651
19653, 1370, 1097, 1788, 4652
19654, 2585, 2855, 2897, 5211
19655, 3051, 2710, 2846, 5232
19656, 1678, 1186, 1646, 5341
19657, 1213, 1418, 1077, 5231
19658, 1587, 1200, 1591, 5212
19659, 2478, 2477, 3057, 5243
19660, 2847, 2859, 2573, 4952
19661, 3733, 3668, 3699, 5513
19662, 1255, 1257, 1716, 5195
19663, 3349, 2888, 2890, 5194
19664, 3348, 3433, 1890, 5151
19665, 1800, 3525, 1715, 5152
19666, 4454, 5049, 4083, 5356
19667, 940, 1214, 1226, 4961
19668, 3337, 3336, 2779, 5455
19669, 1054, 901, 1053, 5297
19670, 866, 729, 867, 5271
19671, 3290, 2024, 3307, 5253
19672, 2458, 2958, 2957, 4437
19673, 3618, 3585, 142, 5458
19674, 3367, 3352, 289, 5509
19675, 3249, 2418, 2701, 5325
19676, 1616, 785, 1068, 5326
19677, 1231, 1212, 1128, 5280
19678, 2864, 2845, 2761, 5279
19679, 1890, 3433, 1941, 5151
19680, 3525, 1800, 3574, 5152
19681, 2943, 3368, 3370, 5500
19682, 1650, 654, 1450, 4881
19683, 3083, 3283, 2287, 4880
19684, 2739, 2934, 3422, 4673
19685, 1301, 1789, 1106, 4674
19686, 783, 838, 784, 4733
19687, 794, 492, 490, 4739
19688, 2555, 2774, 2711, 5121
19689, 644, 715, 1529, 4707
19690, 172, 1839, 1933, 5270
19691, 2817, 2818, 2695, 4483
19692, 3342, 2765, 2776, 5303
19693, 1143, 1709, 1132, 5302
19694, 1078, 922, 1141, 5125
19695, 1334, 655, 1336, 5352
19696, 2154, 2156, 2155, 4485
19697, 523, 522, 521, 4486
19698, 3301, 3303, 2635, 4484
19699, 2343, 3190, 3208, 4487
19700, 1814, 1876, 1910, 4766
19701, 127, 3627, 367, 5235
19702, 277, 3626, 2000, 5236
19703, 1180, 933, 1624, 5172
19704, 2463, 2392, 2393, 4489
19705, 830, 759, 760, 4488
19706, 525, 528, 1540, 5170
19707, 2410, 2534, 2535, 4862
19708, 1807, 1230, 1746, 5337
19709, 777, 901, 902, 4447
19710, 2679, 3282, 3280, 5258
19711, 1133, 951, 915, 5379
19712, 1931, 1861, 1899, 4398
19713, 3440, 2863, 3379, 5372
19714, 3529, 3447, 3510, 4731
19715, 1769, 1054, 1053, 5297
19716, 1315, 948, 1603, 5180
19717, 3746, 3719, 3694, 4400
19718, 3716, 368, 53, 1801
19719, 3085, 2588, 2616, 5157
19720, 1452, 955, 983, 5156
19721, 1487, 664, 1614, 5160
19722, 3054, 3278, 2841, 5159
19723, 1421, 1645, 1208, 5158
19724, 1025, 1024, 1023, 5161
19725, 1449, 1344, 1796, 4954
19726, 3388, 2978, 2687, 5410
19727, 2450, 2563, 2491, 5185
19728, 3969, 4712, 4424, 5278
19729, 1781, 124, 1811, 5302
19730, 274, 3513, 3414, 5303
19731, 2205, 2225, 3143, 5175
19732, 172, 1942, 1839, 5270
19733, 1114, 1787, 1327, 4824
19734, 2018, 2019, 2017, 5144
19735, 385, 386, 384, 5145
19736, 895, 1695, 1014, 5141
19737, 3329, 3172, 2777, 4492
19738, 1696, 1539, 1144, 4491
19739, 4699, 5386, 4071, 5519
19740, 1375, 4959, 5300, 5318
19741, 772, 1597, 863, 5281
19742, 87, 1834, 1872, 1804
19743, 3163, 2574, 2831, 5142
19744, 415, 417, 418, 4743
19745, 3347, 3496, 239, 5293
19746, 1530, 941, 1198, 5140
19747, 2484, 3266, 3138, 5373
19748, 1506, 851, 1633, 5374
19749, 3635, 3606, 3652, 4420
19750, 2634, 2828, 3256, 4978
19751, 3552, 3486, 3530, 4699
19752, 2879, 2881, 2403, 5138
19753, 3187, 3201, 2614, 5135
19754, 1288, 1287, 874, 4704
19755, 2921, 2920, 2507, 4703
19756, 3662, 1800, 126, 3627
19757, 3433, 276, 3663, 3626
19758, 3751, 3716, 53, 1801
19759, 1491, 544, 498, 5264
19760, 3715, 3714, 204, 5377
19761, 54, 3716, 3713, 5376
19762, 3431, 304, 3629, 3661
19763, 3660, 3628, 154, 1798
19764, 3432, 231, 3750, 3718
19765, 3749, 1799, 81, 3717
19766, 1439, 606, 1264, 5332
19767, 89, 1893, 1929, 5306
19768, 2391, 3292, 2629, 5019
19769, 3268, 5291, 4778, 5400
19770, 3613, 3614, 3590, 4419
19771, 767, 840, 1388, 4397
19772, 2400, 2473, 3021, 4396
19773, 1432, 1639, 1630, 5367
19774, 731, 697, 730, 5329
19775, 2364, 2330, 2363, 5328
19776, 2061, 3089, 2059, 5109
19777, 2869, 2870, 2868, 5110
19778, 3135, 2390, 2341, 5111
19779, 3342, 3522, 274, 5303
19780, 124, 1709, 1888, 5302
19781, 2365, 2288, 2223, 5392
19782, 3311, 3264, 2819, 5092
19783, 429, 876, 877, 4763
19784, 427, 426, 424, 5099
19785, 1540, 680, 1252, 4698
19786, 1554, 1568, 981, 5097
19787, 1594, 1603, 988, 5095
19788, 2621, 3227, 3236, 5096
19789, 1803, 336, 1751, 4451
19790, 2832, 2988, 2282, 5090
19791, 3225, 2375, 2336, 4696
19792, 2511, 2718, 3217, 4697
19793, 2407, 2388, 2507, 4695
19794, 755, 874, 774, 4694
19795, 3203, 3184, 2421, 4692
19796, 1570, 1551, 788, 4693
19797, 3131, 2286, 3330, 4779
19798, 1146, 1021, 1019, 5358
19799, 861, 736, 790, 5146
19800, 2423, 2494, 2369, 5147
19801, 977, 1543, 1038, 5193
19802, 531, 1373, 546, 5103
19803, 2566, 3257, 2813, 5449
19804, 2063, 2062, 3055, 5106
19805, 1113, 1762, 1469, 5501
19806, 531, 546, 532, 5103
19807, 2062, 2510, 3055, 5106
19808, 2240, 2242, 2241, 5081
19809, 3662, 3627, 3588, 5152
19810, 3626, 3587, 3663, 5151
19811, 2397, 2399, 2421, 5370
19812, 764, 766, 788, 5369
19813, 496, 538, 1577, 5119
19814, 2129, 2171, 3210, 5118
19815, 2282, 2070, 2919, 5489
19816, 1243, 646, 1563, 5346
19817, 2876, 2279, 3196, 5345
19818, 2957, 2962, 2729, 4910
19819, 1375, 5300, 1780, 5318
19820, 3257, 2566, 2491, 5449
19821, 4496, 5121, 4129, 5333
19822, 3578, 300, 3377, 5389
19823, 3580, 150, 1744, 5390
19824, 435, 436, 437, 5074
19825, 715, 762, 1608, 5512
19826, 2133, 2171, 2129, 5118
19827, 500, 538, 496, 5119
19828, 667, 668, 666, 4853
19829, 289, 3605, 3609, 5509
19830, 3375, 300, 3622, 5389
19831, 1742, 150, 3619, 5390
19832, 1643, 1094, 1000, 5054
19833, 4481, 5125, 4128, 5334
19834, 3186, 2977, 2738, 4683
19835, 1994, 3160, 164, 5130
19836, 3296, 2495, 2619, 5047
19837, 1220, 127, 367, 5235
19838, 277, 2000, 2853, 5236
19839, 3627, 127, 3624, 5235
19840, 3626, 277, 3625, 5236
19841, 1112, 1363, 1365, 5267
19842, 2998, 2745, 2996, 5266
19843, 1074, 920, 1072, 5484
19844, 906, 786, 1654, 5424
19845, 1785, 3566, 18, 5038
19846, 180, 1935, 1928, 5356
19847, 2937, 2108, 2424, 4512
19848, 1182, 1790, 1102, 4767
19849, 172, 1933, 3429, 5270
19850, 2308, 2042, 3094, 4907
19851, 409, 1461, 675, 4908
19852, 1680, 889, 1521, 4909
19853, 2238, 2237, 2236, 5058
19854, 1349, 1348, 1071, 5269
19855, 2982, 2981, 2704, 5268
19856, 3371, 3372, 2939, 5446
19857, 2076, 2072, 2372, 4762
19858, 753, 972, 1470, 4926
19859, 2605, 3103, 2386, 4925
19860, 361, 1527, 16, 5120
19861, 525, 527, 523, 4863
19862, 18, 3471, 321, 5038
19863, 3566, 3471, 18, 5038
19864, 350, 137, 1346, 5233
19865, 2819, 3315, 2818, 5335
19866, 1723, 1742, 329, 5375
19867, 3352, 3605, 289, 5509
19868, 89, 1929, 1773, 5306
19869, 354, 1783, 109, 5136
19870, 1987, 3416, 259, 5132
19871, 2539, 2419, 3287, 5465
19872, 2635, 2492, 2567, 4875
19873, 137, 3634, 1346, 5233
19874, 1169, 1168, 1167, 4426
19875, 2801, 2800, 2802, 4427
19876, 2425, 2520, 3193, 5413
19877, 535, 536, 478, 4883
19878, 1226, 1227, 942, 4517
19879, 3536, 3464, 3507, 4964
19880, 1332, 714, 759, 4864
19881, 1721, 1734, 350, 5154
19882, 2296, 3097, 2300, 4825
19883, 2347, 2392, 2965, 4865
19884, 3355, 3373, 2941, 5098
19885, 2320, 2579, 2318, 4955
19886, 607, 608, 605, 4835
19887, 2446, 2447, 2449, 4950
19888, 816, 813, 814, 4949
19889, 377, 653, 379, 4951
19890, 2088, 3314, 3289, 4947
19891, 3059, 2861, 3004, 4974
19892, 1416, 576, 510, 4946
19893, 2143, 3049, 2209, 4945
19894, 2906, 3060, 2911, 4942
19895, 1427, 1278, 1273, 4941
19896, 3275, 3281, 2949, 4944
19897, 1648, 1316, 1642, 4943
19898, 3746, 3674, 3719, 4400
19899, 416, 412, 410, 4934
19900, 4070, 5294, 4342, 5339
19901, 1426, 1228, 1371, 4971
19902, 2868, 2576, 3183, 4928
19903, 350, 3656, 137, 5233
19904, 2860, 2575, 2859, 4650
19905, 2566, 2812, 2567, 4924
19906, 1616, 1667, 773, 4922
19907, 3249, 3300, 2406, 4923
19908, 336, 1804, 1751, 4451
19909, 2160, 2886, 2980, 5385
19910, 873, 919, 945, 4507
19911, 2773, 3081, 2769, 4964
19912, 2052, 2053, 2051, 5053
19913, 1332, 903, 761, 4957
19914, 1158, 769, 1494, 5462
19915, 2394, 2965, 2536, 4948
19916, 204, 2001, 3715, 5377
19917, 54, 368, 3716, 5376
19918, 978, 1638, 1628, 4960
19919, 2459, 2547, 2460, 4860
19920, 914, 827, 826, 4861
19921, 794, 1589, 1491, 4735
19922, 1239, 1238, 345, 5498
19923, 470, 1314, 474, 4858
19924, 2103, 2947, 2107, 4859
19925, 3120, 2297, 3247, 4511
19926, 3429, 1942, 172, 5270
19927, 3203, 2786, 2785, 5285
19928, 1570, 1153, 1152, 5286
19929, 3208, 2462, 2381, 5046
19930, 898, 756, 1534, 5045
19931, 2389, 3167, 2531, 5044
19932, 2405, 3230, 2496, 5274
19933, 2175, 2170, 2167, 5417
19934, 3568, 3531, 29, 5300
19935, 3326, 2556, 2717, 4838
19936, 1785, 18, 321, 5038
19937, 421, 1459, 422, 5415
19938, 896, 1036, 897, 5381
19939, 1065, 1027, 1700, 5292
19940, 1714, 1893, 89, 5306
19941, 2969, 2410, 2535, 4862
19942, 1575, 829, 748, 5307
19943, 2051, 3127, 2402, 5237
19944, 2757, 2553, 2707, 4403
19945, 1282, 1277, 1280, 5088
19946, 750, 1538, 824, 5041
19947, 2457, 2383, 3171, 5040
19948, 1178, 1006, 1177, 4740
19949, 3194, 3192, 2177, 5032
19950, 2837, 2003, 2856, 5149
19951, 1204, 370, 1223, 5148
19952, 3384, 3436, 1969, 4493
19953, 3302, 3298, 3093, 5048
19954, 2684, 2760, 3404, 5317
19955, 1051, 1127, 1771, 5316
19956, 358, 1447, 1759, 5129
19957, 1179, 934, 933, 4802
19958, 2607, 2606, 2608, 5031
19959, 2258, 2254, 2253, 5028
19960, 621, 620, 625, 5029
19961, 2298, 2617, 2405, 4953
19962, 1628, 1089, 1567, 5488
19963, 701, 726, 705, 5026
19964, 2356, 2357, 2291, 5023
19965, 724, 658, 723, 5024
19966, 600, 662, 661, 5025
19967, 692, 691, 690, 5003
19968, 2323, 2325, 2324, 5004
19969, 547, 577, 578, 5006
19970, 2162, 3177, 2166, 5007
19971, 2036, 2037, 2035, 5011
19972, 402, 403, 404, 5012
19973, 3111, 2716, 3145, 5008
19974, 1478, 1083, 1512, 5009
19975, 2290, 2289, 2173, 5018
19976, 657, 656, 540, 5017
19977, 1560, 1443, 792, 5010
19978, 698, 688, 1611, 5014
19979, 1606, 999, 1001, 5013
19980, 2482, 2434, 2368, 5016
19981, 849, 801, 735, 5015
19982, 689, 1392, 687, 5005
19983, 3164, 2033, 2840, 5021
19984, 400, 1207, 1531, 5020
19985, 582, 584, 583, 5002
19986, 503, 506, 502, 4997
19987, 2139, 2135, 2136, 4996
19988, 2914, 2909, 2907, 5001
19989, 1276, 1274, 1281, 5000
19990, 2095, 3119, 2097, 4999
19991, 462, 1486, 464, 4998
19992, 1533, 848, 732, 4787
19993, 2481, 2365, 3166, 4785
19994, 2480, 2371, 3084, 4789
19995, 847, 738, 1451, 4788
19996, 2334, 2355, 3001, 5022
19997, 2724, 2820, 2821, 4972
19998, 3121, 2712, 2504, 5030
19999, 2012, 2013, 2011, 4995
20000, 3189, 2431, 2613, 4984
20001, 980, 1556, 798, 4985
20002, 762, 715, 761, 5512
20003, 2799, 2476, 2415, 4781
20004, 1166, 843, 782, 4780
20005, 387, 388, 386, 4777
20006, 2020, 2021, 2019, 4776
20007, 770, 1246, 1248, 4774
20008, 2284, 2249, 2247, 4775
20009, 3021, 3022, 3000, 4808
20010, 1388, 1389, 1367, 4807
20011, 1282, 1406, 1405, 4983
20012, 3147, 2687, 3402, 4804
20013, 3437, 3384, 1969, 4493
20014, 3714, 2002, 204, 5377
20015, 369, 54, 3713, 5376
20016, 926, 1160, 1202, 4784
20017, 2730, 3003, 3002, 4651
20018, 1370, 1369, 1097, 4652
20019, 1188, 1091, 1187, 4510
20020, 1685, 1695, 1239, 4754
20021, 2858, 2875, 2751, 5084
20022, 1225, 1242, 1118, 5085
20023, 1651, 1652, 1090, 4748
20024, 2723, 3284, 3285, 4749
20025, 2441, 2440, 2444, 4986
20026, 2426, 2122, 2120, 4988
20027, 793, 489, 487, 4987
20028, 1279, 1490, 815, 4990
20029, 2448, 2912, 3123, 4989
20030, 3261, 2722, 3200, 4991
20031, 373, 943, 375, 4992
20032, 2064, 2988, 3316, 4745
20033, 2196, 2201, 2202, 4746
20034, 1476, 990, 1535, 4744
20035, 548, 574, 1515, 4647
20036, 2525, 2444, 2628, 4646
20037, 2528, 2645, 2646, 4645
20038, 494, 488, 489, 4644
20039, 2127, 2121, 2122, 4643
20040, 2010, 2008, 3165, 4648
20041, 2274, 2408, 2425, 4516
20042, 2310, 2835, 2558, 4515
20043, 980, 800, 1066, 4514
20044, 2613, 2433, 2699, 4513
20045, 2548, 2584, 2583, 5416
20046, 978, 1588, 976, 4649
20047, 2532, 2390, 2624, 4747
20048, 2752, 3019, 3392, 5386
20049, 3422, 3133, 1995, 4710
20050, 1789, 1500, 362, 4711
20051, 670, 1458, 481, 5174
20052, 2402, 3139, 2048, 4518
20053, 1249, 1664, 1663, 5412
20054, 2503, 3191, 2470, 5027
20055, 1222, 952, 1221, 4750
20056, 2615, 2588, 2587, 4723
20057, 954, 982, 955, 4722
20058, 1664, 1372, 947, 4725
20059, 2580, 3297, 3005, 4724
20060, 3245, 2655, 2657, 4720
20061, 1021, 1023, 1022, 4721
20062, 2342, 2629, 3199, 4727
20063, 709, 996, 1566, 4726
20064, 744, 1542, 704, 4719
20065, 2184, 2183, 2185, 4718
20066, 552, 551, 550, 4717
20067, 599, 602, 1487, 4716
20068, 2126, 3288, 2124, 4637
20069, 954, 856, 1493, 5408
20070, 2201, 2928, 2260, 5405
20071, 2661, 2660, 2662, 4729
20072, 1027, 1029, 1028, 4728
20073, 1436, 799, 875, 4935
20074, 2508, 3069, 2432, 4936
20075, 2587, 2489, 3126, 5406
20076, 3302, 2631, 2630, 4687
20077, 2192, 2901, 2195, 4688
20078, 559, 1268, 562, 4689
20079, 3318, 3328, 2872, 4519
20080, 950, 953, 1251, 4770
20081, 911, 831, 912, 4520
20082, 2544, 2464, 2545, 4521
20083, 972, 828, 973, 4655
20084, 2606, 2605, 2461, 4656
20085, 3111, 2254, 2259, 4527
20086, 1478, 621, 626, 4528
20087, 693, 962, 1392, 4610
20088, 2595, 3025, 2326, 4611
20089, 2018, 2016, 3319, 4522
20090, 383, 1686, 385, 4523
20091, 1444, 600, 597, 4576
20092, 3046, 2138, 2135, 4551
20093, 1413, 505, 502, 4550
20094, 1547, 1584, 1457, 4588
20095, 2173, 2139, 2140, 4532
20096, 540, 506, 507, 4531
20097, 2271, 2368, 2270, 4534
20098, 735, 637, 638, 4533
20099, 466, 1272, 468, 4563
20100, 2101, 2099, 2905, 4562
20101, 463, 464, 465, 4566
20102, 2097, 2098, 2096, 4565
20103, 467, 804, 1617, 4578
20104, 2100, 2437, 3250, 4577
20105, 2291, 3062, 2289, 4575
20106, 658, 1429, 656, 4574
20107, 1274, 631, 1486, 4560
20108, 2907, 2264, 3119, 4559
20109, 1428, 452, 456, 4555
20110, 2085, 2089, 3061, 4554
20111, 478, 460, 477, 4571
20112, 2093, 2110, 2111, 4570
20113, 449, 447, 450, 4546
20114, 2080, 2083, 2082, 4545
20115, 641, 1443, 577, 4535
20116, 451, 1516, 803, 4544
20117, 2436, 2084, 3149, 4543
20118, 3076, 3035, 2211, 4539
20119, 2210, 2179, 2273, 4536
20120, 1606, 1402, 1560, 4538
20121, 578, 580, 579, 4542
20122, 2213, 2215, 2214, 4556
20123, 2212, 3215, 2180, 4537
20124, 1592, 742, 703, 4579
20125, 520, 1193, 1489, 4548
20126, 2153, 2826, 3122, 4547
20127, 1277, 1275, 1276, 4587
20128, 2908, 2909, 2910, 4586
20129, 634, 1407, 582, 4564
20130, 2716, 2434, 2483, 4585
20131, 801, 850, 1083, 4584
20132, 966, 1293, 1574, 4568
20133, 3207, 2599, 2926, 4567
20134, 2162, 2164, 2165, 4557
20135, 581, 583, 623, 4561
20136, 2054, 2055, 2053, 4540
20137, 1582, 1622, 1480, 4541
20138, 3195, 2216, 2268, 4569
20139, 2333, 2266, 2334, 4552
20140, 3262, 3255, 2256, 4549
20141, 598, 1320, 595, 4601
20142, 3112, 3177, 3113, 4553
20143, 2431, 2429, 2430, 4530
20144, 796, 797, 798, 4529
20145, 2116, 3251, 2303, 4594
20146, 2146, 2145, 3136, 4582
20147, 513, 512, 1503, 4581
20148, 1001, 1195, 1623, 4583
20149, 894, 1260, 1012, 4573
20150, 2521, 3308, 3306, 4598
20151, 686, 699, 1611, 4580
20152, 2317, 2319, 2318, 4572
20153, 705, 727, 1676, 4558
20154, 2885, 2579, 2886, 4589
20155, 2295, 3077, 2593, 4616
20156, 1174, 1175, 929, 4593
20157, 2562, 2807, 2808, 4592
20158, 2034, 2040, 2036, 4590
20159, 403, 401, 407, 4591
20160, 440, 1460, 395, 4526
20161, 2073, 3093, 2028, 4525
20162, 690, 689, 688, 4596
20163, 2323, 2322, 2321, 4597
20164, 2794, 2620, 2832, 4605
20165, 2693, 2784, 3164, 4604
20166, 1151, 1531, 1060, 4603
20167, 3325, 2174, 3131, 4599
20168, 1498, 1692, 541, 4600
20169, 1590, 433, 1180, 4609
20170, 524, 1404, 526, 4524
20171, 2653, 2652, 2654, 4595
20172, 2840, 2035, 2087, 4606
20173, 454, 1207, 402, 4607
20174, 923, 821, 1009, 4602
20175, 2258, 3011, 2350, 4641
20176, 1378, 717, 625, 4642
20177, 1399, 611, 610, 4612
20178, 615, 1477, 613, 4608
20179, 3118, 2475, 2361, 4620
20180, 779, 716, 662, 4627
20181, 1604, 1233, 692, 4613
20182, 2325, 3237, 2866, 4614
20183, 1474, 1381, 652, 4619
20184, 1485, 728, 651, 4621
20185, 3088, 3032, 2243, 4615
20186, 1368, 825, 726, 4634
20187, 3106, 3064, 3045, 4622
20188, 1431, 1412, 1473, 4623
20189, 2839, 2578, 2838, 4624
20190, 2357, 2419, 2420, 4630
20191, 724, 786, 787, 4631
20192, 3194, 2873, 2712, 4626
20193, 812, 1093, 1534, 4654
20194, 3167, 2445, 2726, 4653
20195, 629, 628, 1463, 4629
20196, 2261, 3096, 2262, 4628
20197, 180, 3424, 1935, 5356
20198, 1230, 1802, 1767, 5337
20199, 1561, 1079, 1488, 4625
20200, 381, 382, 380, 4632
20201, 2013, 2014, 2015, 4633
20202, 1108, 1548, 909, 4669
20203, 2542, 2741, 3181, 4670
20204, 1957, 3417, 266, 5123
20205, 324, 1784, 116, 5124
20206, 3689, 3744, 3679, 4480
20207, 3337, 2650, 2780, 5153
20208, 2365, 2223, 2989, 5392
20209, 2518, 2517, 2498, 5393
20210, 2413, 2412, 2549, 4790
20211, 1580, 826, 823, 5275
20212, 1538, 751, 1523, 4658
20213, 2384, 3156, 3171, 4659
20214, 2456, 3213, 2459, 5276
20215, 348, 1312, 1311, 5458
20216, 3176, 2608, 2672, 4657
20217, 1384, 1654, 1385, 4639
20218, 3018, 3017, 3287, 4640
20219, 2760, 2761, 2762, 4453
20220, 1129, 1127, 1128, 4452
20221, 2091, 2090, 2092, 4661
20222, 3066, 2086, 2600, 4662
20223, 2454, 2455, 2380, 4663
20224, 2439, 3185, 2316, 4660
20225, 3115, 2526, 2651, 4664
20226, 1637, 1154, 1155, 5350
20227, 2788, 3270, 2787, 5349
20228, 678, 718, 659, 4667
20229, 2311, 2351, 2292, 4666
20230, 1916, 1825, 1930, 4432
20231, 1050, 1605, 1200, 4993
20232, 3068, 2900, 2640, 5277
20233, 1571, 624, 567, 5115
20234, 3205, 2294, 2349, 5116
20235, 2673, 3157, 2461, 5035
20236, 820, 1192, 993, 5114
20237, 979, 977, 1038, 5193
20238, 2344, 2346, 2345, 4933
20239, 1325, 1328, 1329, 4459
20240, 3010, 180, 1928, 5356
20241, 2457, 2675, 2673, 4677
20242, 824, 1042, 1040, 4678
20243, 1508, 1790, 1182, 4766
20244, 1659, 1092, 1653, 5117
20245, 3423, 2815, 3141, 4731
20246, 3343, 3339, 2993, 4682
20247, 3496, 3499, 239, 5293
20248, 1199, 1683, 1355, 5464
20249, 837, 836, 835, 4751
20250, 1834, 87, 336, 1804
20251, 2355, 2833, 3238, 4675
20252, 1718, 1219, 339, 4800
20253, 3351, 2852, 1972, 4801
20254, 3400, 2863, 3435, 5372
20255, 1422, 877, 1179, 5419
20256, 3055, 2510, 2812, 5420
20257, 2527, 2378, 3027, 4706
20258, 1927, 1925, 1808, 4939
20259, 3564, 3562, 3441, 4937
20260, 791, 1357, 1682, 5380
20261, 1300, 1430, 725, 4741
20262, 2933, 3063, 2358, 4742
20263, 2469, 2468, 2470, 4668
20264, 1729, 1044, 1730, 4805
20265, 1310, 1737, 1307, 4857
20266, 1568, 1398, 1595, 5197
20267, 2747, 3238, 2683, 5181
20268, 845, 844, 1424, 5421
20269, 2946, 3353, 3376, 4843
20270, 939, 942, 941, 4690
20271, 1094, 1657, 1674, 5178
20272, 1211, 1446, 1760, 5519
20273, 3037, 3122, 2827, 5309
20274, 3732, 3684, 3690, 4482
20275, 3012, 3013, 2565, 4769
20276, 1380, 932, 1379, 4768
20277, 3545, 3452, 3504, 4752
20278, 1819, 1870, 1914, 4753
20279, 2367, 2874, 2009, 4980
20280, 734, 1241, 376, 4981
20281, 1363, 1112, 853, 5267
20282, 2996, 2745, 2486, 5266
20283, 1094, 1677, 1003, 4691
20284, 2217, 3040, 2336, 5169
20285, 1235, 1236, 1237, 4771
20286, 1908, 1932, 1817, 4709
20287, 2831, 2703, 3166, 4820
20288, 2572, 2575, 2574, 4705
20289, 1198, 1070, 1533, 4819
20290, 2504, 2503, 2478, 4638
20291, 2759, 2829, 2830, 4448
20292, 1738, 1662, 1739, 4665
20293, 596, 1335, 1444, 5112
20294, 3220, 2838, 2601, 5113
20295, 1315, 989, 948, 5180
20296, 1114, 1327, 1326, 4824
20297, 1733, 1524, 1721, 4736
20298, 2451, 2450, 2491, 5185
20299, 2769, 2768, 2770, 5414
20300, 519, 520, 521, 4966
20301, 2152, 2153, 2154, 4965
20302, 672, 674, 673, 4714
20303, 3175, 2379, 2269, 4713
20304, 1957, 266, 3528, 5123
20305, 1897, 324, 116, 5124
20306, 845, 872, 871, 4671
20307, 1580, 1037, 1726, 4759
20308, 3609, 3651, 3597, 4497
20309, 3368, 3369, 2531, 4679
20310, 1735, 1736, 898, 4680
20311, 3213, 2670, 3359, 4760
20312, 2500, 2362, 2846, 5260
20313, 3568, 29, 357, 5300
20314, 1671, 1004, 1362, 5065
20315, 1743, 1523, 1736, 5039
20316, 4778, 5291, 4261, 5400
20317, 2245, 2299, 3114, 5453
20318, 1510, 569, 572, 5452
20319, 2253, 2250, 3014, 5454
20320, 833, 768, 832, 4618
20321, 2466, 2401, 2465, 4617
20322, 1763, 1104, 1105, 5294
20323, 3307, 2727, 3290, 5253
20324, 4078, 5482, 4432, 5501
20325, 1411, 1409, 1410, 4738
20326, 1382, 1383, 1661, 5494
20327, 3015, 3016, 3294, 5493
20328, 1213, 867, 729, 5271
20329, 2686, 2759, 3402, 5396
20330, 3224, 2208, 2257, 5069
20331, 3311, 2176, 2930, 5508
20332, 2143, 2142, 2141, 5188
20333, 508, 510, 509, 5187
20334, 1297, 1631, 1678, 4929
20335, 1722, 1740, 1308, 4732
20336, 2172, 2176, 2894, 4918
20337, 539, 543, 1261, 4917
20338, 3137, 3254, 3138, 4855
20339, 1505, 1621, 1506, 4856
20340, 3604, 3582, 3646, 4636
20341, 2338, 2360, 3309, 4755
20342, 442, 1400, 650, 4876
20343, 1557, 1045, 1647, 4932
20344, 3363, 3362, 2677, 4975
20345, 778, 841, 915, 4786
20346, 1607, 863, 1597, 5281
20347, 3574, 9, 1800, 3525
20348, 3433, 1941, 157, 1890
20349, 3578, 3622, 300, 5389
20350, 3580, 3619, 150, 5390
20351, 2496, 3230, 3240, 5274
20352, 1110, 1453, 1766, 5166
20353, 2743, 3086, 3399, 5165
20354, 2888, 3349, 2546, 5194
20355, 913, 1255, 1716, 5195
20356, 3421, 3028, 3440, 5220
20357, 1395, 1807, 1788, 5219
20358, 2529, 2669, 2530, 5368
20359, 783, 825, 1324, 5150
20360, 3313, 2818, 3315, 5335
20361, 1350, 1349, 1064, 5107
20362, 2982, 2697, 2983, 5108
20363, 2930, 2176, 2133, 5508
20364, 968, 1205, 945, 5361
20365, 35, 3492, 1746, 5337
20366, 1096, 1329, 1754, 5447
20367, 137, 3656, 3634, 5233
20368, 741, 809, 740, 4869
20369, 2373, 2374, 2442, 4868
20370, 3186, 2975, 2977, 4683
20371, 1884, 1903, 1881, 4417
20372, 3474, 3537, 3516, 4418
20373, 732, 590, 1356, 5083
20374, 734, 378, 1243, 4686
20375, 2011, 2876, 2367, 4685
20376, 2828, 2453, 3225, 4773
20377, 1384, 1171, 1121, 5171
20378, 35, 3476, 3492, 5337
20379, 1773, 1714, 89, 5306
20380, 3352, 3367, 2734, 5509
20381, 1905, 1878, 1844, 5218
20382, 1715, 1800, 9, 3525
20383, 157, 3348, 3433, 1890
20384, 1965, 3385, 3438, 5216
20385, 3375, 3377, 300, 5389
20386, 1742, 1744, 150, 5390
20387, 2804, 2754, 3017, 5168
20388, 2974, 2973, 2971, 4708
20389, 1824, 3379, 183, 5372
20390, 870, 1080, 1558, 4734
20391, 1632, 991, 1502, 5398
20392, 1357, 1679, 1680, 4782
20393, 1593, 1397, 1438, 4982
20394, 3531, 1780, 29, 5300
20395, 961, 1419, 1178, 4814
20396, 1805, 14, 332, 3503
20397, 1368, 1605, 1326, 5186
20398, 1119, 1762, 1049, 5155
20399, 3091, 2114, 2303, 5191
20400, 1564, 1052, 1451, 5190
20401, 3197, 2685, 3084, 5189
20402, 2816, 2695, 2694, 5222
20403, 332, 1752, 1805, 5215
20404, 1008, 1357, 501, 5451
20405, 559, 558, 561, 5063
20406, 2192, 2191, 2194, 5064
20407, 2551, 2552, 2506, 4813
20408, 1297, 500, 473, 5411
20409, 475, 791, 1304, 5177
20410, 910, 830, 831, 4930
20411, 2543, 2463, 2464, 4931
20412, 3347, 239, 3406, 5293
20413, 2187, 2185, 3218, 5496
20414, 554, 552, 1585, 5497
20415, 82, 1889, 1940, 1798
20416, 3431, 3524, 232, 3572
20417, 2517, 3068, 2409, 4832
20418, 3573, 275, 3432, 3522
20419, 1939, 125, 1799, 1888
20420, 3356, 3268, 2676, 4778
20421, 641, 640, 642, 4866
20422, 162, 1965, 3438, 1871
20423, 2403, 3143, 2878, 4870
20424, 2970, 2971, 2972, 4826
20425, 3153, 2913, 2372, 4849
20426, 3142, 3219, 2512, 4851
20427, 1509, 1586, 879, 4850
20428, 3179, 2372, 3067, 4848
20429, 3270, 2788, 3137, 5349
20430, 1505, 1637, 1155, 5350
20431, 2706, 3088, 2855, 5502
20432, 1199, 1355, 649, 5464
20433, 1661, 1383, 1633, 5494
20434, 3016, 3266, 3294, 5493
20435, 3414, 3342, 274, 5303
20436, 124, 1781, 1709, 5302
20437, 2219, 2194, 2218, 4977
20438, 585, 586, 561, 4976
20439, 312, 1469, 1762, 5501
20440, 1502, 1608, 1632, 5398
20441, 1629, 992, 1480, 5224
20442, 3306, 3116, 2309, 5225
20443, 3687, 3741, 3724, 4672
20444, 1826, 155, 156, 3676
20445, 3460, 305, 306, 3677
20446, 2485, 2486, 2487, 4836
20447, 852, 853, 854, 4837
20448, 975, 974, 973, 4878
20449, 2610, 3176, 2671, 4879
20450, 2147, 2144, 2146, 4886
20451, 513, 514, 511, 4887
20452, 1665, 1460, 1669, 4897
20453, 3325, 2893, 3321, 4900
20454, 2438, 3112, 2625, 4885
20455, 1562, 1634, 623, 4884
20456, 448, 444, 447, 4888
20457, 2080, 2081, 2077, 4889
20458, 2808, 2953, 2954, 4891
20459, 2229, 2968, 3077, 4901
20460, 2215, 2267, 3040, 4896
20461, 2925, 2902, 2926, 4895
20462, 1293, 1292, 1269, 4894
20463, 2096, 2130, 3234, 4893
20464, 463, 497, 1601, 4892
20465, 2321, 3244, 2331, 4899
20466, 3308, 2985, 2984, 4890
20467, 1012, 1013, 895, 4898
20468, 616, 615, 614, 4902
20469, 610, 1439, 1455, 4903
20470, 3204, 3192, 2839, 4904
20471, 1073, 842, 1485, 4906
20472, 1561, 1206, 1559, 4905
20473, 1693, 1361, 1011, 4956
20474, 1889, 82, 1217, 1798
20475, 3431, 232, 3524, 2850
20476, 1066, 1323, 1626, 4913
20477, 2699, 2956, 3259, 4914
20478, 2559, 2793, 2835, 4915
20479, 1702, 1021, 1146, 5358
20480, 307, 308, 3588, 3461
20481, 3587, 201, 202, 1827
20482, 3499, 3406, 239, 5293
20483, 550, 549, 1536, 5510
20484, 2661, 2664, 2865, 5511
20485, 1233, 1465, 1549, 4911
20486, 3182, 2866, 3098, 4912
20487, 1061, 1183, 1062, 4839
20488, 2169, 2925, 2111, 5514
20489, 2331, 2823, 3237, 5518
20490, 685, 686, 687, 5517
20491, 2084, 2280, 2081, 5516
20492, 448, 451, 647, 5515
20493, 1346, 1733, 350, 5233
20494, 2843, 2737, 2844, 4438
20495, 2960, 2959, 2747, 4867
20496, 3655, 3614, 3632, 4967
20497, 2631, 3276, 2633, 5128
20498, 3468, 3547, 3559, 4684
20499, 3016, 2137, 3137, 4962
20500, 1505, 1383, 504, 4963
20501, 1442, 956, 1369, 4834
20502, 2589, 3002, 3075, 4833
20503, 1175, 1320, 1321, 5139
20504, 2106, 2105, 2937, 4821
20505, 3633, 3654, 3614, 5460
20506, 2611, 3221, 2609, 5071
20507, 2315, 2313, 2314, 5070
20508, 2897, 3072, 2239, 5072
20509, 633, 1591, 722, 5073
20510, 2815, 2735, 2814, 5176
20511, 712, 711, 713, 5076
20512, 3335, 2654, 2779, 5254
20513, 1210, 1074, 1072, 5484
20514, 3010, 3424, 180, 5356
20515, 387, 455, 389, 5263
20516, 2676, 2669, 2733, 4882
20517, 3432, 275, 3342, 3522
20518, 1709, 1799, 125, 1888
20519, 1717, 1745, 1219, 5126
20520, 2312, 3146, 3301, 4815
20521, 3350, 3378, 2852, 5127
20522, 899, 900, 758, 5079
20523, 606, 1439, 607, 5332
20524, 669, 855, 1476, 5077
20525, 1252, 946, 1253, 5082
20526, 3079, 2752, 3392, 5386
20527, 2075, 2113, 2112, 5295
20528, 3374, 3356, 1962, 5143
20529, 2532, 3355, 2533, 5525
20530, 1018, 1017, 1019, 5089
20531, 2921, 3269, 2923, 5100
20532, 1636, 1290, 1288, 5101
20533, 3281, 2199, 3199, 5036
20534, 566, 1566, 1648, 5037
20535, 133, 346, 134, 3612
20536, 135, 134, 1322, 3607
20537, 280, 279, 2931, 3599
20538, 130, 129, 1298, 3601
20539, 133, 132, 1294, 3591
20540, 143, 142, 348, 3618
20541, 330, 58, 59, 3691
20542, 1299, 131, 130, 3595
20543, 328, 132, 131, 3602
20544, 59, 60, 1238, 3680
20545, 60, 61, 345, 3701
20546, 61, 62, 1283, 3696
20547, 214, 213, 3708, 2935
20548, 352, 69, 70, 3709
20549, 223, 224, 1984, 3706
20550, 224, 225, 3334, 3699
20551, 341, 55, 56, 3682
20552, 3681, 206, 205, 1974
20553, 225, 226, 1961, 3668
20554, 3344, 226, 227, 3711
20555, 1711, 76, 77, 3707
20556, 3684, 58, 57, 1234
20557, 3331, 227, 228, 3667
20558, 1698, 77, 78, 3669
20559, 78, 79, 338, 3692
20560, 1971, 228, 229, 3700
20561, 207, 206, 3688, 2842
20562, 57, 56, 3690, 1209
20563, 222, 223, 3336, 3670
20564, 2551, 2505, 2680, 5450
20565, 281, 280, 2932, 3594
20566, 3683, 208, 207, 2867
20567, 3686, 215, 214, 1980
20568, 445, 1664, 1249, 5412
20569, 2672, 3366, 3365, 5183
20570, 3581, 295, 296, 2938
20571, 3583, 143, 144, 1309
20572, 71, 70, 3673, 1705
20573, 2739, 2541, 2934, 4673
20574, 1106, 908, 1301, 4674
20575, 1824, 183, 1863, 5372
20576, 643, 644, 589, 5164
20577, 455, 1681, 1656, 4791
20578, 2877, 2332, 3229, 4793
20579, 1095, 1688, 1010, 4792
20580, 420, 423, 1494, 4794
20581, 3277, 2644, 3340, 4795
20582, 3124, 2427, 3222, 4796
20583, 1767, 3476, 35, 5337
20584, 1351, 809, 1005, 5173
20585, 3617, 296, 297, 1982
20586, 2003, 2004, 2005, 5162
20587, 371, 372, 370, 5163
20588, 1141, 922, 1270, 5387
20589, 1043, 1036, 1100, 4811
20590, 1564, 730, 1555, 4797
20591, 3197, 2363, 3188, 4798
20592, 1113, 1114, 1050, 5324
20593, 1453, 1110, 1107, 5166
20594, 2740, 3086, 2743, 5165
20595, 1042, 1720, 1101, 5179
20596, 2979, 287, 286, 3620
20597, 2555, 2903, 2774, 5382
20598, 2572, 2571, 2500, 5057
20599, 2532, 2533, 2391, 5525
20600, 3575, 302, 303, 2848
20601, 3576, 152, 153, 1215
20602, 632, 700, 1673, 5308
20603, 1602, 1542, 985, 5230
20604, 1022, 1244, 1020, 5229
20605, 1026, 1028, 1232, 5226
20606, 1537, 982, 1333, 5228
20607, 3170, 2615, 2966, 5227
20608, 3000, 2997, 3021, 4808
20609, 1367, 1364, 1388, 4807
20610, 229, 230, 3327, 3664
20611, 79, 80, 1694, 3665
20612, 939, 938, 867, 5055
20613, 3031, 3228, 3201, 5042
20614, 1848, 1847, 1927, 4940
20615, 3479, 3478, 3564, 4938
20616, 3610, 297, 298, 2918
20617, 3611, 301, 302, 1972
20618, 151, 339, 152, 3603
20619, 2330, 2329, 2363, 5328
20620, 730, 697, 696, 5329
20621, 451, 648, 647, 5515
20622, 2280, 2084, 2281, 5516
20623, 686, 685, 684, 5517
20624, 2169, 2111, 2168, 5514
20625, 2865, 3237, 2823, 5518
20626, 536, 549, 550, 5510
20627, 2663, 2664, 2661, 5511
20628, 3072, 2855, 3088, 5502
20629, 2733, 3377, 3375, 5389
20630, 1100, 1744, 1742, 5390
20631, 554, 553, 552, 5497
20632, 2186, 2185, 2187, 5496
20633, 2399, 3144, 2421, 5370
20634, 766, 1511, 788, 5369
20635, 1454, 484, 482, 5262
20636, 3579, 298, 299, 1962
20637, 2296, 2299, 2245, 5453
20638, 569, 1510, 770, 5452
20639, 3014, 2250, 2249, 5454
20640, 1494, 1393, 1158, 5462
20641, 2520, 2632, 3193, 5413
20642, 288, 287, 1983, 3597
20643, 3472, 3534, 3498, 4460
20644, 2812, 2510, 2810, 5420
20645, 1177, 1179, 877, 5419
20646, 2167, 2170, 2132, 5417
20647, 422, 1459, 1387, 5415
20648, 2489, 2428, 3126, 5406
20649, 2260, 2928, 2929, 5405
20650, 795, 1493, 856, 5408
20651, 2160, 2980, 2981, 5385
20652, 602, 601, 603, 4973
20653, 1085, 926, 1086, 4994
20654, 1131, 1143, 1132, 5298
20655, 2765, 2764, 2776, 5299
20656, 1584, 1597, 984, 5050
20657, 2026, 3290, 2073, 5051
20658, 393, 1657, 440, 5052
20659, 2973, 2975, 2549, 5409
20660, 2853, 278, 277, 3625
20661, 1220, 128, 127, 3624
20662, 1200, 970, 1050, 4993
20663, 1675, 1673, 888, 5239
20664, 1420, 1618, 1655, 5238
20665, 3161, 3056, 3219, 5240
20666, 1586, 1528, 1423, 5241
20667, 995, 1707, 1706, 5242
20668, 3044, 3042, 3043, 4827
20669, 815, 814, 810, 4828
20670, 2448, 2447, 2443, 4829
20671, 3274, 3267, 2627, 4830
20672, 375, 1532, 377, 4831
20673, 3578, 300, 301, 3377
20674, 150, 151, 3580, 1744
20675, 2505, 2478, 3057, 5243
20676, 2134, 2641, 2990, 4840
20677, 2881, 2193, 2196, 4921
20678, 279, 278, 1973, 3592
20679, 128, 340, 129, 3593
20680, 3622, 299, 300, 3375
20681, 3619, 149, 150, 1742
20682, 3038, 2915, 3039, 4841
20683, 1401, 1400, 988, 4842
20684, 1518, 861, 1579, 4845
20685, 2494, 3212, 3151, 4844
20686, 2892, 2582, 2952, 4765
20687, 2534, 2481, 2686, 5305
20688, 1319, 1259, 949, 4761
20689, 4262, 5397, 4510, 5418
20690, 3371, 2939, 2940, 5446
20691, 213, 212, 3685, 1953
20692, 292, 293, 3584, 1981
20693, 1985, 219, 220, 3672
20694, 1952, 286, 285, 3596
20695, 1098, 1724, 1099, 5104
20696, 1894, 1858, 1930, 5482
20697, 2732, 2731, 3357, 5105
20698, 3665, 3748, 3717, 5362
20699, 3664, 3747, 3718, 5363
20700, 1102, 1181, 1182, 4767
20701, 29, 1780, 357, 5300
20702, 3585, 141, 142, 1312
20703, 3674, 69, 68, 1359
20704, 1793, 1138, 343, 4417
20705, 3426, 2771, 1976, 4418
20706, 1240, 1080, 1079, 5214
20707, 2781, 2876, 3196, 5345
20708, 1148, 1243, 1563, 5346
20709, 3663, 1941, 3433, 5151
20710, 3574, 1800, 3662, 5152
20711, 3689, 209, 208, 1963
20712, 1960, 282, 281, 3600
20713, 3621, 294, 295, 1955
20714, 221, 222, 1956, 3710
20715, 1880, 1900, 1821, 5526
20716, 1133, 1376, 951, 5379
20717, 216, 215, 3698, 3324
20718, 1867, 1910, 1838, 4916
20719, 204, 2002, 2001, 5377
20720, 54, 369, 368, 5376
20721, 1502, 757, 708, 4927
20722, 1393, 925, 1535, 5102
20723, 2961, 3409, 1950, 4772
20724, 327, 75, 76, 3666
20725, 63, 320, 62, 3678
20726, 319, 136, 135, 3589
20727, 2955, 3364, 1952, 5131
20728, 2550, 2694, 2472, 4799
20729, 2884, 3011, 3107, 5122
20730, 3400, 1863, 183, 5372
20731, 4234, 5475, 4830, 5486
20732, 1813, 1865, 1864, 5130
20733, 1145, 1701, 327, 5134
20734, 415, 769, 1504, 5043
20735, 2061, 2063, 2064, 5255
20736, 149, 148, 329, 3577
20737, 3367, 289, 288, 3609
20738, 1979, 284, 283, 3613
20739, 211, 210, 3702, 1978
20740, 1284, 1689, 1687, 5213
20741, 738, 737, 731, 5283
20742, 2371, 2370, 2364, 5282
20743, 3288, 5474, 4637, 5483
20744, 1345, 1054, 1755, 4818
20745, 1248, 560, 563, 5091
20746, 331, 1753, 1139, 5456
20747, 1964, 3386, 2772, 5457
20748, 247, 246, 3101, 3451
20749, 2927, 283, 282, 3590
20750, 210, 209, 3679, 2871
20751, 3615, 293, 294, 2942
20752, 220, 221, 3338, 3704
20753, 3075, 2473, 2398, 5467
20754, 765, 1442, 840, 5466
20755, 1076, 953, 1059, 4854
20756, 4637, 5474, 4233, 5483
20757, 1037, 1649, 1727, 5507
20758, 1449, 1763, 1105, 5294
20759, 3406, 2951, 3347, 5293
20760, 3567, 3446, 3527, 5120
20761, 3268, 2624, 3265, 5291
20762, 2539, 2467, 2419, 5338
20763, 2767, 2758, 2680, 4847
20764, 273, 272, 1976, 3474
20765, 343, 123, 122, 1884
20766, 1746, 1767, 35, 5337
20767, 322, 1309, 1307, 5388
20768, 3598, 3631, 3656, 5154
20769, 1731, 1732, 319, 5221
20770, 312, 100, 99, 1845
20771, 3504, 234, 235, 1975
20772, 342, 85, 84, 1870
20773, 1136, 1137, 1140, 5252
20774, 3322, 2917, 1953, 5196
20775, 2718, 2559, 2719, 5384
20776, 4661, 5471, 4224, 5479
20777, 310, 1375, 1780, 5318
20778, 145, 144, 322, 3604
20779, 72, 323, 71, 3695
20780, 1342, 1553, 916, 4919
20781, 1862, 1932, 1908, 4709
20782, 1270, 922, 914, 5387
20783, 4663, 5475, 4234, 5486
20784, 3379, 3400, 183, 5372
20785, 260, 261, 3487, 2803
20786, 1873, 110, 111, 1170
20787, 2903, 2555, 2547, 5382
20788, 3507, 255, 256, 3081
20789, 2837, 2001, 2002, 5377
20790, 369, 1204, 368, 5376
20791, 268, 267, 1993, 3500
20792, 118, 117, 360, 1868
20793, 596, 593, 1334, 5284
20794, 2687, 3108, 3388, 5410
20795, 25, 26, 1449, 3457
20796, 2203, 3148, 3304, 5182
20797, 1713, 1220, 367, 5235
20798, 2000, 3346, 2853, 5236
20799, 3508, 258, 259, 1987
20800, 109, 108, 354, 1866
20801, 1223, 1786, 1204, 5148
20802, 2856, 3419, 2837, 5149
20803, 3547, 3489, 3559, 4684
20804, 2681, 2753, 3394, 5137
20805, 3102, 249, 248, 3493
20806, 1770, 1527, 361, 5120
20807, 2436, 3207, 3232, 5289
20808, 803, 1574, 1599, 5288
20809, 1120, 1761, 1048, 5133
20810, 3282, 3360, 2670, 5448
20811, 3530, 3473, 3552, 4699
20812, 194, 193, 1853, 1959
20813, 326, 45, 46, 3445
20814, 3009, 2692, 2584, 5049
20815, 37, 38, 1466, 3484
20816, 3099, 185, 186, 1840
20817, 50, 49, 3520, 1541
20818, 198, 197, 1886, 3174
20819, 3421, 2730, 3028, 5220
20820, 1097, 1395, 1788, 5219
20821, 177, 176, 1846, 1989
20822, 358, 102, 101, 1822
20823, 1791, 1377, 1376, 4764
20824, 3557, 3508, 3477, 5132
20825, 32, 33, 1377, 3454
20826, 1866, 1841, 1921, 5136
20827, 254, 253, 1966, 3488
20828, 702, 1665, 1660, 5499
20829, 3586, 290, 291, 1948
20830, 1947, 217, 218, 3675
20831, 11, 12, 344, 3470
20832, 159, 160, 1977, 1837
20833, 356, 21, 22, 3501
20834, 245, 244, 1950, 3450
20835, 906, 834, 786, 5424
20836, 262, 263, 3480, 3125
20837, 112, 113, 1851, 1492
20838, 1994, 3403, 3160, 5130
20839, 309, 23, 24, 3498
20840, 1317, 1103, 1318, 4877
20841, 105, 106, 1821, 1448
20842, 3141, 1958, 3423, 4731
20843, 2845, 2864, 2756, 5279
20844, 1123, 1212, 1231, 5280
20845, 250, 249, 1945, 3469
20846, 2618, 2523, 2648, 5192
20847, 1954, 166, 167, 1838
20848, 48, 47, 3481, 1748
20849, 1852, 196, 195, 3381
20850, 3693, 217, 216, 3036
20851, 4830, 5475, 2627, 5486
20852, 774, 1287, 883, 5348
20853, 2920, 2516, 2407, 5347
20854, 2950, 2736, 2951, 4871
20855, 3483, 45, 44, 1501
20856, 193, 192, 1829, 3134
20857, 1712, 834, 1048, 5184
20858, 3441, 263, 264, 1992
20859, 114, 113, 359, 1808
20860, 1139, 121, 120, 1810
20861, 2772, 271, 270, 3443
20862, 1790, 1508, 325, 4766
20863, 2481, 2534, 2410, 5305
20864, 1991, 252, 251, 3455
20865, 1120, 1121, 1764, 4806
20866, 3397, 2753, 2754, 4803
20867, 2955, 285, 284, 3608
20868, 212, 211, 3697, 2916
20869, 1404, 1489, 1194, 5336
20870, 1773, 1318, 1714, 5306
20871, 3453, 261, 262, 1949
20872, 316, 112, 111, 1820
20873, 1231, 1555, 1162, 5330
20874, 2864, 3188, 2795, 5331
20875, 2754, 2539, 3287, 5465
20876, 239, 240, 3496, 3347
20877, 1017, 1147, 1704, 5351
20878, 2916, 3318, 1978, 5304
20879, 1996, 243, 242, 3449
20880, 3630, 3585, 3657, 4676
20881, 2726, 3371, 3370, 5273
20882, 3352, 290, 289, 3605
20883, 310, 30, 31, 3458
20884, 2286, 3165, 3332, 5523
20885, 1712, 844, 835, 5319
20886, 333, 1779, 1134, 5218
20887, 1749, 39, 40, 3463
20888, 3382, 187, 188, 1830
20889, 1785, 321, 1197, 5038
20890, 291, 292, 3623, 2945
20891, 2992, 218, 219, 3712
20892, 3172, 2663, 2662, 5401
20893, 1539, 1030, 1029, 5402
20894, 127, 126, 367, 3627
20895, 2000, 277, 276, 3626
20896, 164, 165, 1994, 1864
20897, 353, 1367, 1775, 5059
20898, 3000, 3408, 1986, 5060
20899, 3577, 3619, 3640, 5375
20900, 1343, 1777, 309, 4460
20901, 2696, 3401, 2815, 5223
20902, 3564, 3519, 3562, 4937
20903, 1925, 1927, 1882, 4939
20904, 3491, 47, 46, 1757
20905, 195, 194, 1833, 3390
20906, 775, 642, 776, 5344
20907, 1196, 1227, 1197, 5445
20908, 369, 54, 55, 3713
20909, 205, 204, 3714, 2002
20910, 485, 486, 490, 5520
20911, 2030, 2032, 2031, 5521
20912, 398, 397, 399, 5522
20913, 1374, 1124, 1375, 4959
20914, 1247, 1517, 1246, 5503
20915, 2688, 2772, 3386, 5457
20916, 1753, 1055, 1139, 5456
20917, 873, 1488, 871, 5383
20918, 14, 15, 332, 3503
20919, 885, 1091, 1090, 5397
20920, 98, 99, 1857, 1469
20921, 2768, 3057, 2770, 5414
20922, 1935, 1850, 1928, 5356
20923, 3268, 3374, 2674, 5400
20924, 3132, 3159, 3048, 5355
20925, 1415, 1499, 1526, 5354
20926, 2055, 2057, 2056, 5378
20927, 2646, 3317, 3328, 5399
20928, 2713, 2873, 3222, 5407
20929, 2066, 2067, 2065, 5371
20930, 3010, 3009, 3424, 5356
20931, 1920, 1900, 1880, 5526
20932, 3262, 3267, 3104, 5403
20933, 3209, 3044, 3064, 5404
20934, 1125, 1759, 1386, 4874
20935, 3272, 3263, 3065, 5364
20936, 1049, 970, 969, 4817
20937, 170, 169, 1860, 1990
20938, 3529, 3471, 3566, 5038
20939, 3411, 1970, 3174, 5061
20940, 1541, 1778, 337, 5062
20941, 248, 247, 1988, 3514
20942, 1888, 1937, 1811, 5302
20943, 3513, 3522, 3570, 5303
20944, 50, 51, 364, 3444
20945, 1843, 199, 198, 1997
20946, 1865, 1929, 1893, 5306
20947, 1211, 1104, 1763, 5504
20948, 2954, 3247, 3291, 5461
20949, 885, 1323, 1187, 5418
20950, 3383, 188, 189, 1882
20951, 1750, 40, 41, 3519
20952, 2274, 3076, 2210, 5422
20953, 1933, 1839, 1898, 5270
20954, 2469, 3106, 2420, 5425
20955, 2893, 2645, 2527, 5495
20956, 466, 467, 465, 5431
20957, 2098, 2099, 2100, 5430
20958, 966, 1428, 460, 5427
20959, 3061, 2093, 2599, 5426
20960, 1516, 449, 452, 5429
20961, 3149, 2082, 2085, 5428
20962, 2213, 2212, 2211, 5432
20963, 1402, 634, 580, 5437
20964, 2179, 2180, 2165, 5435
20965, 2216, 2256, 2214, 5436
20966, 581, 1622, 579, 5434
20967, 1407, 1623, 1592, 5438
20968, 3113, 3215, 3255, 5433
20969, 3045, 3046, 3062, 5439
20970, 1412, 1413, 1429, 5440
20971, 629, 637, 626, 5442
20972, 2262, 2270, 2259, 5441
20973, 2016, 2014, 2174, 5443
20974, 381, 541, 383, 5444
20975, 909, 854, 908, 5491
20976, 2542, 2487, 2541, 5492
20977, 337, 48, 49, 3465
20978, 197, 196, 1831, 1970
20979, 2904, 1977, 2903, 5199
20980, 1270, 1271, 344, 5198
20981, 1686, 1095, 1681, 5463
20982, 3418, 1954, 2830, 4916
20983, 365, 154, 153, 3628
20984, 3629, 303, 304, 1999
20985, 81, 366, 80, 3717
20986, 1998, 230, 231, 3718
20987, 73, 72, 3671, 1703
20988, 1869, 96, 97, 1468
20989, 191, 190, 1828, 3133
20990, 43, 42, 3462, 1500
20991, 145, 146, 3582, 1305
20992, 494, 505, 1410, 5472
20993, 2127, 2138, 3043, 5473
20994, 3195, 2380, 2627, 5475
20995, 3053, 3251, 3288, 5474
20996, 1060, 964, 965, 5476
20997, 2693, 2597, 2598, 5477
20998, 2086, 2090, 2089, 5470
20999, 2091, 3226, 2110, 5471
21000, 2228, 2229, 2230, 5478
21001, 3234, 3226, 2092, 5479
21002, 704, 636, 703, 5480
21003, 1381, 617, 616, 5481
21004, 1201, 1214, 940, 4961
21005, 2603, 2601, 2602, 5167
21006, 2312, 3299, 3288, 5483
21007, 2627, 2455, 3277, 5486
21008, 3229, 3185, 3115, 5487
21009, 3340, 3339, 2628, 5485
21010, 2573, 2834, 2847, 4952
21011, 1183, 1181, 911, 5459
21012, 588, 708, 709, 5490
21013, 2454, 2379, 3235, 5524
21014, 3395, 2746, 2682, 5339
21015, 1987, 2802, 3416, 5132
21016, 1169, 1783, 354, 5136
21017, 97, 355, 98, 1818
21018, 269, 268, 3158, 3475
21019, 1525, 119, 118, 1812
21020, 3417, 1957, 2762, 5123
21021, 1784, 324, 1129, 5124
21022, 1308, 1306, 1739, 5468
21023, 35, 36, 1746, 3492
21024, 3736, 3701, 3680, 5498
21025, 183, 184, 3379, 1824
21026, 2590, 2366, 2591, 5505
21027, 957, 733, 958, 5506
21028, 3660, 4, 1940, 1798
21029, 3661, 3431, 8, 3572
21030, 1, 1800, 3662, 3574
21031, 2, 3571, 3751, 1801
21032, 3663, 1941, 6, 3433
21033, 3752, 3434, 5, 1938
21034, 3, 1799, 3749, 1939
21035, 7, 3750, 3573, 3432
21036, 38, 39, 353, 3515
21037, 1986, 186, 187, 1883
21038, 368, 53, 54, 3716
21039, 3715, 204, 203, 2001
21040, 332, 1214, 1752, 5215
21041, 3517, 256, 257, 1946
21042, 1942, 3429, 2977, 5270
21043, 237, 238, 3466, 1969
21044, 162, 163, 1965, 1871
21045, 1354, 363, 1768, 5265
21046, 1056, 1058, 1057, 5093
21047, 2691, 2690, 2689, 5094
21048, 3568, 3495, 3531, 5300
21049, 3721, 75, 74, 1701
21050, 2975, 2973, 2976, 5409
21051, 1691, 65, 66, 3687
21052, 103, 333, 104, 1844
21053, 63, 64, 1302, 3723
21054, 3385, 1965, 2847, 5216
21055, 175, 174, 1825, 1967
21056, 3160, 163, 164, 1813
21057, 351, 73, 74, 3743
21058, 1210, 1104, 1211, 5504
21059, 65, 347, 64, 3745
21060, 1889, 82, 83, 1217
21061, 232, 233, 3524, 2850
21062, 1346, 137, 136, 3634
21063, 3651, 3585, 3618, 5458
21064, 3456, 257, 258, 3100
21065, 146, 349, 147, 3654
21066, 3632, 147, 148, 1285
21067, 3342, 275, 274, 3522
21068, 125, 124, 1709, 1888
21069, 1780, 1375, 357, 5300
21070, 2769, 3081, 3425, 4964
21071, 1133, 1375, 310, 5318
21072, 139, 138, 1734, 3598
21073, 137, 350, 138, 3656
21074, 3348, 157, 158, 1890
21075, 1715, 9, 10, 3525
21076, 2766, 3007, 3008, 4958
21077, 2891, 2890, 2889, 5334
21078, 176, 175, 1854, 3080
21079, 1859, 100, 101, 1447
21080, 26, 27, 334, 3485
21081, 321, 18, 19, 3471
21082, 184, 185, 1944, 1855
21083, 311, 36, 37, 3459
21084, 3527, 3499, 3496, 5293
21085, 1258, 1257, 1256, 5333
21086, 107, 108, 1832, 1467
21087, 3609, 3605, 3657, 5509
21088, 3414, 2765, 3342, 5303
21089, 1781, 1132, 1709, 5302
21090, 1230, 1767, 1746, 5337
21091, 3348, 2000, 3433, 5151
21092, 367, 1800, 1715, 5152
21093, 3656, 3616, 3634, 5233
21094, 3523, 52, 51, 1747
21095, 200, 199, 1887, 3380
21096, 3400, 3379, 2863, 5372
21097, 1514, 19, 20, 3511
21098, 1074, 1211, 1760, 5519
21099, 1823, 179, 178, 1943
21100, 363, 93, 92, 1816
21101, 1475, 20, 21, 3468
21102, 244, 243, 3140, 3489
21103, 3748, 3714, 3715, 5377
21104, 3713, 3716, 3747, 5376
21105, 3082, 173, 174, 1894
21106, 362, 43, 44, 3521
21107, 192, 191, 1885, 1995
21108, 172, 171, 1839, 1942
21109, 34, 35, 1767, 3476
21110, 1890, 1941, 1827, 5151
21111, 3525, 3574, 3461, 5152
21112, 1805, 13, 14, 3467
21113, 1113, 1787, 1114, 5324
21114, 28, 29, 357, 3568
21115, 95, 94, 317, 1896
21116, 3624, 3658, 3627, 5235
21117, 3625, 3659, 3626, 5236
21118, 1714, 90, 89, 1893
21119, 169, 168, 1836, 3108
21120, 3448, 235, 236, 3427
21121, 1793, 122, 121, 1881
21122, 272, 271, 3426, 3516
21123, 85, 86, 1815, 1794
21124, 12, 13, 1795, 3505
21125, 160, 161, 3428, 1874
21126, 3476, 3560, 3492, 5337
21127, 158, 159, 3430, 1875
21128, 1797, 10, 11, 3509
21129, 3643, 3622, 3578, 5389
21130, 3642, 3619, 3580, 5390
21131, 1877, 168, 167, 3147
21132, 3452, 233, 234, 3415
21133, 1819, 83, 84, 1782
21134, 3438, 161, 162, 1835
21135, 236, 237, 3506, 3437
21136, 318, 41, 42, 3478
21137, 189, 190, 1951, 1847
21138, 124, 123, 1781, 1811
21139, 274, 273, 3414, 3513
21140, 254, 255, 3464, 3425
21141, 361, 16, 17, 3567
21142, 120, 119, 331, 1856
21143, 270, 269, 1964, 3490
21144, 313, 107, 106, 1880
21145, 3563, 3528, 3442, 5123
21146, 1897, 1809, 1926, 5124
21147, 1863, 1924, 1824, 5372
21148, 1876, 91, 92, 1508
21149, 31, 32, 1791, 3482
21150, 335, 33, 34, 3518
21151, 1777, 22, 23, 3472
21152, 15, 16, 1527, 3446
21153, 241, 242, 3510, 3141
21154, 3400, 182, 183, 1863
21155, 251, 250, 3079, 3486
21156, 1841, 109, 110, 1783
21157, 3477, 259, 260, 3416
21158, 1928, 181, 180, 3010
21159, 88, 87, 336, 1834
21160, 1849, 104, 105, 1792
21161, 324, 116, 115, 1897
21162, 266, 265, 1957, 3528
21163, 1796, 24, 25, 3502
21164, 3571, 2, 52, 1801
21165, 3434, 200, 5, 1938
21166, 3663, 6, 276, 3433
21167, 3434, 5, 203, 3752
21168, 126, 1, 1800, 3662
21169, 3751, 53, 2, 1801
21170, 3660, 154, 4, 1798
21171, 3431, 8, 304, 3661
21172, 3750, 7, 231, 3432
21173, 81, 3, 1799, 3749
21174, 1872, 86, 87, 1804
21175, 3447, 240, 241, 1958
21176, 253, 252, 3412, 3494
21177, 165, 166, 3418, 1867
21178, 267, 266, 3417, 3442
21179, 1784, 117, 116, 1809
21180, 102, 103, 1878, 1779
21181, 140, 315, 141, 3630
21182, 314, 67, 68, 3719
21183, 91, 90, 325, 1814
21184, 27, 28, 1446, 3473
21185, 1879, 178, 177, 3413
21186, 3409, 246, 245, 3512
21187, 8, 307, 3661, 3572
21188, 201, 4, 1940, 3660
21189, 6, 202, 1941, 3663
21190, 3662, 308, 1, 3574
21191, 3750, 305, 7, 3573
21192, 3749, 155, 3, 1939
21193, 5, 156, 3752, 1938
21194, 3571, 306, 2, 3751
21195, 1403, 66, 67, 3724
21196, 1719, 140, 139, 3635
21197, 1800, 1, 9, 3574
21198, 1941, 157, 6, 3433
21199, 4, 82, 1940, 1798
21200, 3431, 232, 8, 3572
21201, 3573, 275, 7, 3432
21202, 1799, 3, 125, 1939
21203, 1931, 93, 94, 1507
21204, 238, 239, 3499, 3406
21205, 3526, 264, 265, 3130
21206, 1497, 115, 114, 1892
21207, 1817, 95, 96, 1776
21208, 171, 170, 1862, 3410
21209, 1968, 181, 182, 1842
21210, 30, 29, 3531, 1780
21211, 1773, 89, 88, 1929
21212, 173, 172, 1933, 3429
21213, 1935, 180, 179, 3424
21214, 3566, 18, 17, 1785
21215, 3538, 5137, 1946, 3517
21216, 1946, 5137, 3538, 4079
21217, 1946, 3507, 3538, 3517
21218, 3538, 3507, 1946, 4079
21219, 4462, 3150, 3258, 2880
21220, 4462, 3258, 3150, 4298
21221, 4462, 3150, 5138, 4296
21222, 4462, 5138, 3150, 2880
21223, 5386, 4255, 3019, 4847
21224, 5386, 3019, 4255, 4145
21225, 4399, 5264, 492, 498
21226, 492, 5264, 4399, 4073
21227, 5478, 3891, 4891, 2228
21228, 5478, 4891, 3891, 4239
21229, 4058, 5305, 2534, 4140
21230, 2534, 5305, 4058, 4862
21231, 1710, 4369, 4265, 1705
21232, 4265, 4369, 1710, 3958
21233, 4893, 2924, 3876, 2130
21234, 4893, 3876, 2924, 4164
21235, 4898, 4170, 4720, 3848
21236, 4898, 4720, 4170, 4812
21237, 4805, 979, 4012, 1044
21238, 4805, 4012, 979, 4178
21239, 4938, 5267, 1365, 4141
21240, 1365, 5267, 4938, 1772
21241, 4940, 5266, 2998, 4142
21242, 2998, 5266, 4940, 3405
21243, 4475, 4436, 2659, 3826
21244, 4475, 2659, 4436, 2657
21245, 5015, 5476, 4470, 4230
21246, 4470, 5476, 5015, 964
21247, 5016, 5477, 4469, 4231
21248, 4469, 5477, 5016, 2597
21249, 4393, 2941, 4271, 4025
21250, 4393, 4271, 2941, 2938
21251, 5476, 3777, 5015, 963
21252, 5476, 5015, 3777, 4230
21253, 5477, 3776, 5016, 2596
21254, 5477, 5016, 3776, 4231
21255, 5478, 3920, 4891, 4239
21256, 5478, 4891, 3920, 2231
21257, 4268, 3390, 2750, 3381
21258, 4268, 2750, 3390, 4042
21259, 4267, 1757, 1117, 1748
21260, 4267, 1117, 1757, 4041
21261, 4890, 3312, 3875, 2985
21262, 4890, 3875, 3312, 4185
21263, 5116, 2233, 5290, 2294
21264, 5116, 5290, 2233, 4247
21265, 3960, 5524, 4838, 2642
21266, 4838, 5524, 3960, 4236
21267, 4926, 671, 673, 4175
21268, 4926, 673, 671, 1470
21269, 5019, 3295, 2533, 3292
21270, 5019, 2533, 3295, 4490
21271, 950, 5379, 4786, 915
21272, 4786, 5379, 950, 4130
21273, 4466, 4725, 647, 4158
21274, 647, 4725, 4466, 947
21275, 4467, 4724, 2280, 4157
21276, 2280, 4724, 4467, 2580
21277, 4718, 4471, 2169, 2183
21278, 4718, 2169, 4471, 4163
21279, 4720, 4475, 2823, 4170
21280, 4720, 2823, 4475, 2657
21281, 3039, 5449, 3223, 3257
21282, 3223, 5449, 3039, 3945
21283, 4345, 5068, 2622, 4150
21284, 2622, 5068, 4345, 2822
21285, 2924, 4893, 3252, 2130
21286, 3252, 4893, 2924, 4701
21287, 5246, 2152, 2151, 2150
21288, 5246, 2151, 2152, 4965
21289, 5247, 519, 518, 517
21290, 5247, 518, 519, 4966
21291, 4400, 1403, 1693, 314
21292, 4400, 1693, 1403, 4207
21293, 5025, 1569, 3978, 661
21294, 5025, 3978, 1569, 4200
21295, 2563, 4989, 3874, 3123
21296, 3874, 4989, 2563, 4197
21297, 3874, 5185, 2563, 3123
21298, 2563, 5185, 3874, 4197
21299, 4176, 4039, 374, 5163
21300, 4176, 374, 4039, 5360
21301, 372, 374, 4039, 5163
21302, 372, 4039, 374, 5360
21303, 4040, 2005, 2007, 5162
21304, 2007, 2005, 4040, 5359
21305, 2007, 4177, 4040, 5162
21306, 4040, 4177, 2007, 5359
21307, 356, 4818, 1341, 1755
21308, 1341, 4818, 356, 3755
21309, 3132, 5188, 3049, 2141
21310, 3049, 5188, 3132, 4153
21311, 1499, 5187, 1416, 508
21312, 1416, 5187, 1499, 4154
21313, 1497, 5316, 1358, 1771
21314, 1358, 5316, 1497, 4142
21315, 3130, 5317, 2991, 3404
21316, 2991, 5317, 3130, 4141
21317, 5204, 2067, 2069, 2071
21318, 5204, 2069, 2067, 4405
21319, 5123, 3500, 3556, 4076
21320, 5123, 3556, 3500, 3442
21321, 5124, 1868, 1918, 4077
21322, 5124, 1918, 1868, 1809
21323, 4395, 3689, 3729, 3683
21324, 4395, 3729, 3689, 4135
21325, 4877, 1102, 910, 1103
21326, 4877, 910, 1102, 4060
21327, 3532, 4418, 5457, 3516
21328, 5457, 4418, 3532, 4267
21329, 4417, 1902, 5456, 4268
21330, 4417, 5456, 1902, 1881
21331, 4905, 5287, 542, 1559
21332, 542, 5287, 4905, 3973
21333, 542, 1571, 4905, 1559
21334, 4905, 1571, 542, 3973
21335, 5086, 4484, 2995, 3303
21336, 5086, 2995, 4484, 4115
21337, 4388, 5295, 2283, 4218
21338, 2283, 5295, 4388, 2113
21339, 5257, 2383, 2384, 2307
21340, 5257, 2384, 2383, 3912
21341, 5256, 994, 1634, 1641
21342, 4395, 1963, 2868, 4135
21343, 4395, 2868, 1963, 2867
21344, 4746, 5175, 2205, 2202
21345, 2205, 5175, 4746, 3972
21346, 2205, 2204, 4746, 2202
21347, 4746, 2204, 2205, 3972
21348, 3413, 4958, 1943, 3008
21349, 1943, 4958, 3413, 4275
21350, 5291, 3241, 3964, 4252
21351, 5291, 3964, 3241, 3265
21352, 5231, 1077, 4090, 5125
21353, 1201, 4090, 1077, 5125
21354, 5451, 1352, 3891, 1008
21355, 5451, 3891, 1352, 4239
21356, 1351, 3891, 1352, 1008
21357, 1351, 1352, 3891, 4239
21358, 4880, 5364, 2287, 4151
21359, 2287, 5364, 4880, 3272
21360, 4858, 476, 3886, 4203
21361, 4858, 3886, 476, 474
21362, 2109, 4859, 3887, 2107
21363, 3887, 4859, 2109, 4204
21364, 5327, 3902, 4047, 4258
21365, 5327, 4047, 3902, 4518
21366, 4876, 4047, 3902, 4258
21367, 4876, 3902, 4047, 4518
21368, 4884, 5256, 994, 1634
21369, 994, 5256, 4884, 3838
21370, 3780, 420, 4184, 4794
21371, 4184, 420, 3780, 5469
21372, 1900, 4083, 1842, 1928
21373, 1900, 1842, 4083, 5526
21374, 1968, 1842, 4083, 1928
21375, 1968, 4083, 1842, 5526
21376, 4709, 1328, 317, 1776
21377, 4709, 317, 1328, 4459
21378, 5327, 4501, 4411, 3074
21379, 5327, 4411, 4501, 4258
21380, 1598, 5197, 981, 1595
21381, 981, 5197, 1598, 4195
21382, 5334, 3543, 4128, 4481
21383, 5334, 4128, 3543, 3448
21384, 3549, 4128, 3543, 4481
21385, 3549, 3543, 4128, 3448
21386, 4844, 4777, 4611, 3924
21387, 4844, 4611, 4777, 4202
21388, 4845, 4776, 4610, 3923
21389, 4845, 4610, 4776, 4201
21390, 4484, 4210, 2639, 3872
21391, 4484, 2639, 4210, 4875
21392, 5278, 2341, 3162, 2222
21393, 5278, 3162, 2341, 3969
21394, 3863, 4859, 2101, 4295
21395, 2101, 4859, 3863, 4562
21396, 3864, 4858, 468, 4296
21397, 468, 4858, 3864, 4563
21398, 4320, 1110, 5166, 4189
21399, 4320, 5166, 1110, 1766
21400, 4321, 2743, 5165, 4190
21401, 4321, 5165, 2743, 3399
21402, 5316, 4673, 5266, 4065
21403, 5316, 5266, 4673, 4066
21404, 5317, 4674, 5267, 4067
21405, 5317, 5267, 4674, 4068
21406, 4936, 2513, 2435, 2508
21407, 4936, 2435, 2513, 4291
21408, 4935, 880, 802, 875
21409, 4935, 802, 880, 4292
21410, 4441, 2743, 4368, 2744
21411, 4441, 4368, 2743, 4190
21412, 4442, 1110, 4367, 1111
21413, 4442, 4367, 1110, 4189
21414, 3699, 5498, 4274, 3736
21415, 4274, 5498, 3699, 4102
21416, 5364, 2049, 3769, 3263
21417, 5364, 3769, 2049, 4434
21418, 4350, 5497, 554, 4160
21419, 554, 5497, 4350, 555
21420, 554, 4465, 4350, 4160
21421, 4350, 4465, 554, 555
21422, 4351, 5496, 2187, 4159
21423, 2187, 5496, 4351, 2188
21424, 2187, 4464, 4351, 4159
21425, 4351, 4464, 2187, 2188
21426, 5230, 636, 746, 1542
21427, 5230, 746, 636, 4472
21428, 4847, 4813, 3019, 2551
21429, 4847, 3019, 4813, 4255
21430, 5333, 1912, 4129, 4496
21431, 5333, 4129, 1912, 1815
21432, 1917, 4129, 1912, 4496
21433, 1917, 1912, 4129, 1815
21434, 931, 5269, 861, 3772
21435, 931, 861, 5269, 1071
21436, 4845, 861, 5269, 3772
21437, 4845, 5269, 861, 1071
21438, 2564, 5268, 2494, 3773
21439, 2564, 2494, 5268, 2704
21440, 4844, 2494, 5268, 3773
21441, 4844, 5268, 2494, 2704
21442, 4974, 2709, 4214, 3059
21443, 4974, 4214, 2709, 4109
21444, 4205, 4486, 4524, 3801
21445, 4205, 4524, 4486, 4863
21446, 1004, 5315, 1672, 1353
21447, 1672, 5315, 1004, 5065
21448, 4506, 2395, 5368, 2529
21449, 4506, 5368, 2395, 4137
21450, 1869, 1776, 4709, 1817
21451, 4709, 1776, 1869, 1468
21452, 5500, 4032, 2944, 4679
21453, 5500, 2944, 4032, 4269
21454, 5065, 1515, 4374, 1671
21455, 5065, 4374, 1515, 4106
21456, 1781, 1884, 5302, 1811
21457, 5302, 1884, 1781, 343
21458, 1976, 3513, 273, 3474
21459, 273, 3513, 1976, 3414
21460, 2803, 3477, 260, 3416
21461, 2803, 260, 3477, 3487
21462, 1873, 1783, 5136, 1841
21463, 5136, 1783, 1873, 1170
21464, 5137, 3081, 2773, 4079
21465, 5137, 2773, 3081, 3394
21466, 3223, 5371, 3945, 2067
21467, 3945, 5371, 3223, 4446
21468, 5353, 3797, 640, 4149
21469, 5353, 640, 3797, 4866
21470, 5058, 2298, 3058, 2237
21471, 5058, 3058, 2298, 4953
21472, 5293, 3436, 4493, 3406
21473, 5293, 4493, 3436, 4089
21474, 4501, 4907, 5322, 4195
21475, 5322, 4907, 4501, 3094
21476, 4500, 4908, 5321, 4194
21477, 5321, 4908, 4500, 1461
21478, 5215, 1214, 1770, 1527
21479, 1770, 1214, 5215, 4089
21480, 1770, 5120, 5215, 1527
21481, 5215, 5120, 1770, 4089
21482, 5342, 2430, 2209, 3884
21483, 5342, 2209, 2430, 3047
21484, 797, 5343, 576, 1414
21485, 576, 5343, 797, 3885
21486, 4456, 1069, 1068, 4080
21487, 4456, 1068, 1069, 921
21488, 2702, 4455, 2701, 2554
21489, 2701, 4455, 2702, 4081
21490, 5380, 4132, 4084, 3972
21491, 5380, 4084, 4132, 5177
21492, 4635, 5264, 4191, 3974
21493, 4191, 5264, 4635, 4073
21494, 1086, 5217, 4046, 1627
21495, 4046, 5217, 1086, 4210
21496, 5038, 1769, 1126, 4209
21497, 5038, 1126, 1769, 321
21498, 5216, 2847, 3403, 3160
21499, 3403, 2847, 5216, 4097
21500, 3403, 5130, 5216, 3160
21501, 5216, 5130, 3403, 4097
21502, 5265, 1182, 1508, 1768
21503, 5265, 1508, 1182, 4095
21504, 4983, 1624, 930, 4307
21505, 4983, 930, 1624, 1406
21506, 5060, 3003, 3099, 4016
21507, 5060, 3099, 3003, 3408
21508, 1370, 5059, 1466, 1775
21509, 1466, 5059, 1370, 4015
21510, 4919, 4437, 4867, 4002
21511, 4919, 4867, 4437, 4082
21512, 2778, 5254, 2656, 3335
21513, 2656, 5254, 2778, 4436
21514, 4073, 2245, 2296, 2246
21515, 4073, 2296, 2245, 5453
21516, 4964, 3488, 3561, 3464
21517, 4964, 3561, 3488, 4181
21518, 5396, 4767, 5265, 4069
21519, 5396, 5265, 4767, 4095
21520, 5488, 3870, 5036, 4171
21521, 5488, 5036, 3870, 4465
21522, 4504, 4934, 5321, 412
21523, 5321, 4934, 4504, 4193
21524, 4482, 3711, 3730, 4136
21525, 4482, 3730, 3711, 3732
21526, 5315, 1004, 816, 1353
21527, 5315, 816, 1004, 3862
21528, 1545, 4466, 860, 648
21529, 860, 4466, 1545, 4361
21530, 3178, 4467, 2493, 2281
21531, 2493, 4467, 3178, 4362
21532, 5320, 2404, 3247, 2515
21533, 5320, 3247, 2404, 3862
21534, 5340, 771, 1614, 882
21535, 5340, 1614, 771, 3861
21536, 5393, 2497, 2409, 2498
21537, 5393, 2409, 2497, 4188
21538, 5462, 4134, 1157, 4218
21539, 4744, 990, 4134, 4218
21540, 4134, 990, 1157, 4218
21541, 4422, 5246, 4287, 3921
21542, 4287, 5246, 4422, 4116
21543, 4423, 5247, 4288, 3922
21544, 4288, 5247, 4423, 4117
21545, 4424, 5248, 4299, 3868
21546, 4299, 5248, 4424, 4122
21547, 4425, 5249, 4300, 3867
21548, 4300, 5249, 4425, 4121
21549, 4929, 5177, 1304, 1631
21550, 1304, 5177, 4929, 4132
21551, 5231, 1201, 4090, 1077
21552, 5231, 4090, 1201, 4208
21553, 5318, 3561, 4764, 4181
21554, 5318, 4764, 3561, 3458
21555, 4672, 3675, 3694, 4207
21556, 4672, 3694, 3675, 3741
21557, 1864, 3418, 5130, 1867
21558, 1864, 5130, 3418, 1994
21559, 4916, 5130, 3418, 1867
21560, 4916, 3418, 5130, 1994
21561, 4709, 5270, 1908, 1839
21562, 1908, 5270, 4709, 4110
21563, 5334, 3437, 3384, 2891
21564, 5334, 3384, 3437, 4493
21565, 1033, 5298, 1539, 1131
21566, 1539, 5298, 1033, 4040
21567, 5299, 2666, 3172, 4039
21568, 5299, 3172, 2666, 2764
21569, 2664, 4272, 2663, 2665
21570, 2663, 4272, 2664, 5511
21571, 1647, 5307, 4261, 829
21572, 4261, 5307, 1647, 4131
21573, 5303, 3444, 4259, 3570
21574, 5303, 4259, 3444, 4113
21575, 5302, 1843, 4260, 1937
21576, 5302, 4260, 1843, 4114
21577, 5346, 380, 4686, 1243
21578, 5346, 4686, 380, 4001
21579, 5345, 2013, 4685, 2876
21580, 5345, 4685, 2013, 4000
21581, 5359, 2005, 2856, 2540
21582, 5359, 2856, 2005, 4040
21583, 5360, 372, 1223, 907
21584, 5360, 1223, 372, 4039
21585, 5339, 1945, 2752, 3395
21586, 5339, 2752, 1945, 4070
21587, 5319, 5416, 5122, 4214
21588, 5122, 5416, 5319, 4061
21589, 5232, 2834, 5121, 2710
21590, 5232, 5121, 2834, 4206
21591, 2770, 4681, 2477, 3345
21592, 2477, 4681, 2770, 4130
21593, 4752, 3509, 3569, 4187
21594, 4752, 3569, 3509, 3545
21595, 4753, 1875, 1936, 4186
21596, 4753, 1936, 1875, 1914
21597, 5447, 4708, 5410, 4058
21598, 5447, 5410, 4708, 4038
21599, 4494, 5284, 591, 593
21600, 591, 5284, 4494, 4185
21601, 5042, 4218, 4500, 4388
21602, 5042, 4500, 4218, 3903
21603, 5327, 2402, 2791, 4047
21604, 5327, 2791, 2402, 2790
21605, 5306, 1803, 4451, 1773
21606, 5306, 4451, 1803, 4097
21607, 5449, 3223, 2813, 4446
21608, 5449, 2813, 3223, 3257
21609, 5333, 1804, 1751, 1258
21610, 5333, 1751, 1804, 4451
21611, 4428, 5258, 4335, 4019
21612, 4335, 5258, 4428, 4120
21613, 5323, 504, 1382, 3773
21614, 5323, 1382, 504, 390
21615, 4713, 5169, 2336, 4161
21616, 2336, 5169, 4713, 2269
21617, 2336, 2337, 4713, 4161
21618, 4713, 2337, 2336, 2269
21619, 5132, 3560, 3456, 4035
21620, 5132, 3456, 3560, 3508
21621, 3100, 5132, 3456, 4035
21622, 3100, 3456, 5132, 3508
21623, 1987, 3100, 5132, 3508
21624, 5385, 3173, 4256, 2160
21625, 5385, 4256, 3173, 3827
21626, 5365, 984, 1457, 1425
21627, 5365, 1457, 984, 3808
21628, 5511, 4912, 2866, 3955
21629, 5511, 2866, 4912, 2664
21630, 4753, 1257, 1794, 4129
21631, 4753, 1794, 1257, 342
21632, 4752, 2890, 3427, 4128
21633, 4752, 3427, 2890, 1975
21634, 1924, 5136, 1832, 1866
21635, 1832, 5136, 1924, 4043
21636, 5136, 1467, 1832, 1866
21637, 1832, 1467, 5136, 4043
21638, 5136, 354, 1467, 1866
21639, 4503, 5069, 2200, 2208
21640, 2200, 5069, 4503, 4200
21641, 5464, 1627, 5217, 1199
21642, 5464, 5217, 1627, 3937
21643, 5446, 2941, 4393, 4025
21644, 5446, 4393, 2941, 2939
21645, 5412, 1331, 4725, 1664
21646, 5412, 4725, 1331, 3874
21647, 5409, 4708, 4826, 2973
21648, 4826, 4708, 5409, 4037
21649, 4826, 2972, 5409, 2973
21650, 5409, 2972, 4826, 4037
21651, 3567, 1785, 5038, 3566
21652, 5038, 1785, 3567, 361
21653, 5413, 3076, 4539, 3193
21654, 5413, 4539, 3076, 3797
21655, 3751, 5376, 3677, 3716
21656, 3677, 5376, 3751, 4259
21657, 5377, 3752, 3676, 4260
21658, 5377, 3676, 3752, 3715
21659, 5405, 2195, 4688, 3938
21660, 5405, 4688, 2195, 2928
21661, 5406, 2966, 4294, 3126
21662, 5406, 4294, 2966, 3788
21663, 2715, 4294, 2966, 3126
21664, 5408, 1333, 4293, 1493
21665, 5408, 4293, 1333, 3787
21666, 1082, 4293, 1333, 1493
21667, 1082, 1333, 4293, 3787
21668, 5415, 420, 4794, 422
21669, 5415, 4794, 420, 3780
21670, 5417, 3192, 5032, 2167
21671, 5417, 5032, 3192, 3760
21672, 5423, 2832, 3316, 3260
21673, 5423, 3316, 2832, 3936
21674, 4494, 1510, 1176, 592
21675, 4494, 1176, 1510, 4360
21676, 4916, 1906, 4804, 4095
21677, 4916, 4804, 1906, 1838
21678, 5462, 1157, 990, 1158
21679, 990, 1157, 5462, 4134
21680, 990, 4744, 5462, 1158
21681, 5462, 4744, 990, 4134
21682, 5419, 1180, 4802, 1179
21683, 5419, 4802, 1180, 3936
21684, 5420, 2813, 4924, 2812
21685, 5420, 4924, 2813, 3937
21686, 418, 5462, 4794, 1494
21687, 4794, 5462, 418, 3942
21688, 4110, 5324, 1787, 4276
21689, 1787, 5324, 4110, 4824
21690, 4360, 5452, 4494, 3764
21691, 4360, 4494, 5452, 1510
21692, 592, 4494, 5452, 3764
21693, 592, 5452, 4494, 1510
21694, 5453, 3180, 4379, 2299
21695, 5453, 4379, 3180, 3794
21696, 4439, 5454, 5122, 3014
21697, 4439, 5122, 5454, 3971
21698, 3011, 5122, 5454, 3014
21699, 3011, 5454, 5122, 3971
21700, 5515, 449, 5429, 3829
21701, 5515, 5429, 449, 451
21702, 2082, 5516, 5428, 2084
21703, 5428, 5516, 2082, 3830
21704, 5517, 688, 4580, 686
21705, 5517, 4580, 688, 3781
21706, 5514, 2599, 5426, 3877
21707, 5514, 5426, 2599, 2111
21708, 5518, 2323, 4614, 3237
21709, 5518, 4614, 2323, 3833
21710, 5510, 671, 4377, 549
21711, 5510, 4377, 671, 3904
21712, 5525, 2674, 4747, 2532
21713, 5525, 4747, 2674, 4012
21714, 5496, 2220, 4718, 2185
21715, 5496, 4718, 2220, 3907
21716, 5497, 587, 4717, 552
21717, 5497, 4717, 587, 3906
21718, 5502, 3118, 4615, 3986
21719, 5502, 4615, 3118, 3088
21720, 5110, 1963, 4135, 2868
21721, 5110, 4135, 1963, 4480
21722, 5120, 5445, 4517, 4112
21723, 4517, 5445, 5120, 1227
21724, 5175, 2223, 2224, 4199
21725, 5175, 2224, 2223, 2205
21726, 5250, 3745, 3705, 3723
21727, 5250, 3705, 3745, 4266
21728, 5221, 5233, 1732, 1346
21729, 1732, 5233, 5221, 4104
21730, 3079, 4699, 3455, 3486
21731, 3455, 4699, 3079, 5386
21732, 5206, 633, 5073, 575
21733, 5206, 5073, 633, 4247
21734, 5211, 2414, 4003, 4250
21735, 5211, 4003, 2414, 2585
21736, 2538, 4003, 2414, 4250
21737, 2538, 2414, 4003, 2585
21738, 5262, 3788, 487, 4304
21739, 5262, 487, 3788, 4987
21740, 5316, 847, 1052, 4065
21741, 5316, 1052, 847, 1051
21742, 2480, 5317, 2685, 2684
21743, 2685, 5317, 2480, 4067
21744, 4808, 2465, 4396, 4080
21745, 4808, 4396, 2465, 3021
21746, 832, 4807, 4397, 1388
21747, 4397, 4807, 832, 4081
21748, 5349, 5033, 4216, 4117
21749, 5349, 4216, 5033, 3950
21750, 5350, 5034, 4217, 4116
21751, 5350, 4217, 5034, 3951
21752, 3735, 5304, 5196, 3697
21753, 5196, 5304, 3735, 4103
21754, 5336, 524, 3801, 4524
21755, 5336, 3801, 524, 1489
21756, 5406, 2488, 4411, 2489
21757, 5406, 4411, 2488, 5201
21758, 5297, 1070, 848, 1053
21759, 5297, 848, 1070, 4064
21760, 1419, 5234, 961, 1081
21761, 961, 5234, 1419, 4814
21762, 5103, 529, 532, 531
21763, 5103, 532, 529, 4433
21764, 5102, 3952, 5191, 4211
21765, 5102, 5191, 3952, 4744
21766, 4931, 2544, 2464, 2543
21767, 4931, 2464, 2544, 4521
21768, 4930, 911, 831, 910
21769, 4930, 831, 911, 4520
21770, 5065, 4730, 818, 1362
21771, 5065, 818, 4730, 4196
21772, 3695, 1703, 72, 323
21773, 72, 1703, 3695, 3671
21774, 5447, 838, 1324, 4058
21775, 5447, 1324, 838, 1096
21776, 4433, 533, 3844, 1544
21777, 4433, 3844, 533, 4257
21778, 1479, 3844, 533, 1544
21779, 1479, 533, 3844, 4257
21780, 5376, 3727, 4317, 4127
21781, 5376, 4317, 3727, 3713
21782, 3728, 5377, 4316, 3714
21783, 4316, 5377, 3728, 4126
21784, 5450, 3057, 4092, 5243
21785, 5450, 4092, 3057, 2680
21786, 3500, 3417, 5123, 3442
21787, 3500, 5123, 3417, 1993
21788, 1868, 1784, 5124, 1809
21789, 1868, 5124, 1784, 360
21790, 5352, 1334, 1335, 1336
21791, 1335, 1334, 5352, 4052
21792, 1335, 5251, 5352, 1336
21793, 5352, 5251, 1335, 4052
21794, 5415, 1081, 4435, 1459
21795, 5415, 4435, 1081, 5234
21796, 5067, 1187, 1188, 1067
21797, 5067, 1188, 1187, 4510
21798, 1782, 1889, 4186, 1819
21799, 1782, 4186, 1889, 1217
21800, 2850, 3452, 233, 3524
21801, 2850, 233, 3452, 3415
21802, 5294, 1344, 4096, 1105
21803, 5294, 4096, 1344, 4954
21804, 5420, 2567, 4210, 2810
21805, 5420, 4210, 2567, 4924
21806, 2393, 4931, 3859, 2464
21807, 3859, 4931, 2393, 4489
21808, 760, 4930, 3860, 831
21809, 3860, 4930, 760, 4488
21810, 5457, 3532, 3551, 4267
21811, 5457, 3551, 3532, 3443
21812, 5456, 1902, 1901, 4268
21813, 5456, 1901, 1902, 1810
21814, 5299, 3172, 3329, 4492
21815, 5299, 3329, 3172, 2764
21816, 5298, 1539, 1696, 4491
21817, 5298, 1696, 1539, 1131
21818, 576, 5343, 1416, 1414
21819, 1416, 5343, 576, 4946
21820, 5342, 2209, 3049, 4945
21821, 5342, 3049, 2209, 3047
21822, 1475, 3511, 4684, 1514
21823, 4684, 3511, 1475, 3468
21824, 4964, 1966, 3488, 3425
21825, 4964, 3488, 1966, 4181
21826, 1818, 1468, 97, 355
21827, 97, 1468, 1818, 1869
21828, 5320, 3247, 3291, 2515
21829, 5320, 3291, 3247, 5461
21830, 2225, 5259, 2227, 2809
21831, 2227, 5259, 2225, 4333
21832, 5339, 3102, 1945, 3395
21833, 5339, 1945, 3102, 4342
21834, 5346, 4742, 4912, 4001
21835, 5346, 4912, 4742, 4093
21836, 5345, 4741, 4911, 4000
21837, 5345, 4911, 4741, 4094
21838, 4452, 5165, 5280, 4077
21839, 5280, 5165, 4452, 4021
21840, 4453, 5166, 5279, 4076
21841, 5279, 5166, 4453, 4022
21842, 4992, 1532, 375, 4831
21843, 4992, 375, 1532, 943
21844, 4989, 2447, 2448, 4829
21845, 4989, 2448, 2447, 3123
21846, 814, 4990, 815, 1490
21847, 815, 4990, 814, 4828
21848, 5065, 1670, 4730, 1362
21849, 5065, 4730, 1670, 4374
21850, 5067, 4972, 4880, 3814
21851, 5067, 4880, 4972, 4049
21852, 5341, 1631, 1678, 1186
21853, 5341, 1678, 1631, 4929
21854, 5315, 816, 813, 1353
21855, 5315, 813, 816, 4949
21856, 5489, 2069, 2068, 2070
21857, 5489, 2068, 2069, 4405
21858, 1875, 3348, 158, 1890
21859, 1875, 158, 3348, 3430
21860, 3525, 1797, 4187, 3509
21861, 3525, 4187, 1797, 1715
21862, 3473, 334, 4699, 1446
21863, 3473, 4699, 334, 3485
21864, 3494, 1991, 252, 3412
21865, 3494, 252, 1991, 3455
21866, 5149, 4491, 5298, 4126
21867, 5149, 5298, 4491, 4040
21868, 5148, 4492, 5299, 4127
21869, 5148, 5299, 4492, 4039
21870, 5263, 5385, 4589, 3827
21871, 4589, 5385, 5263, 4202
21872, 5142, 3166, 2831, 3163
21873, 5142, 2831, 3166, 4820
21874, 5140, 1533, 1198, 1530
21875, 5140, 1198, 1533, 4819
21876, 2204, 5392, 2989, 2223
21877, 2989, 5392, 2204, 4421
21878, 5141, 1685, 1695, 1014
21879, 5141, 1695, 1685, 4754
21880, 5202, 1409, 1410, 1408
21881, 5202, 1410, 1409, 4738
21882, 5339, 5504, 5294, 4220
21883, 5294, 5504, 5339, 4070
21884, 5523, 2010, 4244, 2286
21885, 5523, 4244, 2010, 4648
21886, 4995, 4244, 2010, 2286
21887, 4995, 2010, 4244, 4648
21888, 1776, 1896, 4709, 1817
21889, 1776, 4709, 1896, 317
21890, 3039, 5204, 2915, 2071
21891, 2915, 5204, 3039, 4841
21892, 5203, 3042, 3043, 3041
21893, 5203, 3043, 3042, 4827
21894, 5048, 2630, 3302, 3298
21895, 5048, 3302, 2630, 4687
21896, 3716, 1801, 5376, 368
21897, 5376, 1801, 3716, 3751
21898, 3752, 2001, 203, 3434
21899, 3752, 203, 2001, 3715
21900, 5331, 3197, 4022, 2864
21901, 5331, 4022, 3197, 4798
21902, 5330, 1564, 4021, 1231
21903, 5330, 4021, 1564, 4797
21904, 5407, 4608, 3979, 4796
21905, 5407, 3979, 4608, 4902
21906, 4215, 5179, 315, 1720
21907, 4215, 315, 5179, 4420
21908, 1719, 315, 5179, 1720
21909, 1719, 5179, 315, 4420
21910, 388, 5263, 387, 389
21911, 387, 5263, 388, 4777
21912, 1447, 1845, 4432, 1859
21913, 1447, 4432, 1845, 312
21914, 5353, 864, 944, 1472
21915, 5353, 944, 864, 4457
21916, 5278, 3162, 2277, 2222
21917, 5278, 2277, 3162, 4712
21918, 1879, 1989, 177, 1846
21919, 177, 1989, 1879, 3413
21920, 1457, 5050, 1584, 984
21921, 1584, 5050, 1457, 4588
21922, 5051, 2028, 2073, 2026
21923, 5051, 2073, 2028, 4525
21924, 5052, 395, 440, 393
21925, 5052, 440, 395, 4526
21926, 4940, 5316, 5266, 4142
21927, 5266, 5316, 4940, 4066
21928, 4938, 5317, 5267, 4141
21929, 5267, 5317, 4938, 4068
21930, 2576, 5110, 2868, 2870
21931, 2868, 5110, 2576, 4928
21932, 5184, 4974, 4214, 4013
21933, 5184, 4214, 4974, 4109
21934, 5424, 1048, 834, 5184
21935, 5424, 834, 1048, 906
21936, 718, 5209, 678, 719
21937, 678, 5209, 718, 4667
21938, 5210, 2351, 2311, 4666
21939, 5210, 2311, 2351, 2352
21940, 1516, 5288, 3852, 1574
21941, 3852, 5288, 1516, 4544
21942, 3149, 5289, 3853, 3207
21943, 3853, 5289, 3149, 4543
21944, 5218, 1779, 5129, 1878
21945, 5218, 5129, 1779, 358
21946, 1822, 5129, 1779, 1878
21947, 1822, 1779, 5129, 358
21948, 2378, 5205, 2527, 2524
21949, 2527, 5205, 2378, 4706
21950, 5365, 665, 984, 1425
21951, 5365, 984, 665, 4352
21952, 1590, 5172, 1180, 1624
21953, 1180, 5172, 1590, 4609
21954, 4963, 1506, 1505, 1383
21955, 4963, 1505, 1506, 4856
21956, 4962, 3138, 3137, 3016
21957, 4962, 3137, 3138, 4855
21958, 5144, 2016, 2018, 4522
21959, 5144, 2018, 2016, 2017
21960, 383, 5145, 385, 384
21961, 385, 5145, 383, 4523
21962, 4986, 2525, 2444, 2441
21963, 4986, 2444, 2525, 4646
21964, 4987, 488, 489, 487
21965, 4987, 489, 488, 4644
21966, 4988, 2121, 2122, 2120
21967, 4988, 2122, 2121, 4643
21968, 4400, 1693, 1361, 314
21969, 4400, 1361, 1693, 4956
21970, 4883, 477, 478, 535
21971, 4883, 478, 477, 4571
21972, 5120, 4871, 5293, 4112
21973, 5120, 5293, 4871, 4089
21974, 2794, 5090, 2832, 2282
21975, 2832, 5090, 2794, 4605
21976, 5130, 4877, 5306, 4124
21977, 5130, 5306, 4877, 4097
21978, 4973, 599, 3812, 4716
21979, 4973, 3812, 599, 601
21980, 4882, 3356, 2676, 4778
21981, 4882, 2676, 3356, 2733
21982, 356, 3472, 22, 1777
21983, 22, 3472, 356, 3501
21984, 1588, 4960, 978, 1628
21985, 978, 4960, 1588, 4649
21986, 5137, 4854, 4182, 4079
21987, 5137, 4182, 4854, 4108
21988, 1758, 4182, 4854, 4079
21989, 1758, 4854, 4182, 4108
21990, 1538, 5039, 1523, 1743
21991, 1523, 5039, 1538, 4658
21992, 4955, 2319, 2318, 2320
21993, 4955, 2318, 2319, 4572
21994, 1792, 1821, 4454, 1448
21995, 1792, 4454, 1821, 1849
21996, 4139, 5183, 1983, 3366
21997, 4139, 1983, 5183, 4401
21998, 2979, 1983, 5183, 3366
21999, 2979, 5183, 1983, 4401
22000, 1704, 4369, 1147, 323
22001, 1704, 1147, 4369, 5351
22002, 5456, 120, 1856, 1810
22003, 5456, 1856, 120, 331
22004, 5457, 270, 3490, 3443
22005, 5457, 3490, 270, 1964
22006, 1409, 4846, 1411, 1576
22007, 1411, 4846, 1409, 4738
22008, 5028, 3011, 2258, 4641
22009, 5028, 2258, 3011, 2253
22010, 1378, 5029, 625, 620
22011, 625, 5029, 1378, 4642
22012, 5027, 2469, 2470, 4668
22013, 5027, 2470, 2469, 3191
22014, 5385, 5178, 5263, 4119
22015, 5385, 5263, 5178, 3827
22016, 796, 4985, 798, 1556
22017, 798, 4985, 796, 4529
22018, 2429, 4984, 2431, 3189
22019, 2431, 4984, 2429, 4530
22020, 5026, 1368, 726, 4634
22021, 5026, 726, 1368, 701
22022, 2419, 5023, 2357, 2356
22023, 2357, 5023, 2419, 4630
22024, 5024, 786, 724, 4631
22025, 5024, 724, 786, 723
22026, 5025, 716, 662, 661
22027, 5025, 662, 716, 4627
22028, 2322, 5004, 2323, 2324
22029, 2323, 5004, 2322, 4597
22030, 5003, 689, 690, 4596
22031, 5003, 690, 689, 691
22032, 5006, 579, 578, 547
22033, 5006, 578, 579, 4542
22034, 5007, 3112, 3177, 2166
22035, 5007, 3177, 3112, 4553
22036, 2087, 5011, 2035, 2037
22037, 2035, 5011, 2087, 4606
22038, 454, 5012, 402, 404
22039, 402, 5012, 454, 4607
22040, 4996, 2140, 2139, 4532
22041, 4996, 2139, 2140, 2136
22042, 507, 4997, 506, 503
22043, 506, 4997, 507, 4531
22044, 4980, 2011, 2367, 4685
22045, 4980, 2367, 2011, 2009
22046, 4998, 463, 464, 462
22047, 4998, 464, 463, 4566
22048, 4999, 2096, 2097, 2095
22049, 4999, 2097, 2096, 4565
22050, 5000, 1486, 1274, 1281
22051, 5000, 1274, 1486, 4560
22052, 5001, 3119, 2907, 2914
22053, 5001, 2907, 3119, 4559
22054, 5008, 2254, 3111, 4527
22055, 5008, 3111, 2254, 3145
22056, 621, 5009, 1478, 1512
22057, 1478, 5009, 621, 4528
22058, 5002, 1407, 582, 584
22059, 5002, 582, 1407, 4564
22060, 4981, 378, 734, 4686
22061, 4981, 734, 378, 376
22062, 2014, 4995, 2013, 2012
22063, 2013, 4995, 2014, 4633
22064, 688, 5005, 689, 687
22065, 689, 5005, 688, 4596
22066, 690, 5014, 688, 698
22067, 688, 5014, 690, 4596
22068, 5010, 641, 1443, 792
22069, 5010, 1443, 641, 4535
22070, 5013, 1560, 1606, 999
22071, 5013, 1606, 1560, 4538
22072, 5020, 402, 1207, 4607
22073, 5020, 1207, 402, 400
22074, 2035, 5021, 2840, 2033
22075, 2840, 5021, 2035, 4606
22076, 850, 5015, 801, 849
22077, 801, 5015, 850, 4584
22078, 5016, 2483, 2434, 4585
22079, 5016, 2434, 2483, 2482
22080, 658, 5017, 656, 657
22081, 656, 5017, 658, 4574
22082, 2291, 5018, 2289, 2290
22083, 2289, 5018, 2291, 4575
22084, 3194, 5030, 2712, 3121
22085, 2712, 5030, 3194, 4626
22086, 2606, 5035, 2461, 3157
22087, 2461, 5035, 2606, 4656
22088, 5022, 3238, 2355, 3001
22089, 5022, 2355, 3238, 4675
22090, 2873, 5032, 3194, 2177
22091, 3194, 5032, 2873, 4626
22092, 2605, 5031, 2606, 2607
22093, 2606, 5031, 2605, 4656
22094, 5395, 3601, 3637, 4340
22095, 5395, 3637, 3601, 3593
22096, 3599, 5394, 3636, 3592
22097, 3636, 5394, 3599, 4341
22098, 751, 5041, 1538, 750
22099, 1538, 5041, 751, 4658
22100, 2384, 5040, 3171, 2383
22101, 3171, 5040, 2384, 4659
22102, 5044, 2445, 3167, 4653
22103, 5044, 3167, 2445, 2389
22104, 812, 5045, 1534, 756
22105, 1534, 5045, 812, 4654
22106, 5053, 2054, 2053, 4540
22107, 5053, 2053, 2054, 2052
22108, 5301, 4863, 4201, 3828
22109, 5301, 4201, 4863, 4118
22110, 5218, 4958, 1879, 4111
22111, 5218, 1879, 4958, 4275
22112, 3413, 1879, 4958, 4111
22113, 3413, 4958, 1879, 4275
22114, 1860, 3410, 4709, 1862
22115, 4709, 3410, 1860, 1990
22116, 5503, 1248, 3897, 1517
22117, 5503, 3897, 1248, 4774
22118, 5176, 5445, 4819, 4209
22119, 4819, 5445, 5176, 4059
22120, 5381, 1043, 1036, 897
22121, 5381, 1036, 1043, 4811
22122, 5462, 5295, 4540, 4134
22123, 5462, 4540, 5295, 3942
22124, 5451, 1679, 1357, 4782
22125, 5451, 1357, 1679, 1008
22126, 3397, 5168, 2754, 2804
22127, 2754, 5168, 3397, 4803
22128, 5171, 1764, 1121, 4806
22129, 5171, 1121, 1764, 1171
22130, 3571, 1747, 52, 3523
22131, 52, 1747, 3571, 1801
22132, 1938, 3380, 200, 1887
22133, 1938, 200, 3380, 3434
22134, 5123, 266, 3442, 3417
22135, 5123, 3442, 266, 3528
22136, 116, 5124, 1809, 1897
22137, 1809, 5124, 116, 1784
22138, 3651, 3597, 5458, 3650
22139, 3651, 5458, 3597, 4497
22140, 4139, 5458, 3597, 3650
22141, 4139, 3597, 5458, 4497
22142, 348, 5458, 3583, 3618
22143, 348, 3583, 5458, 4139
22144, 3650, 3583, 5458, 3618
22145, 3650, 5458, 3583, 4139
22146, 3100, 5132, 3397, 1987
22147, 3100, 3397, 5132, 4035
22148, 2804, 3397, 5132, 1987
22149, 2804, 5132, 3397, 4035
22150, 5136, 1171, 1764, 354
22151, 1764, 1171, 5136, 4043
22152, 1764, 1467, 5136, 354
22153, 5136, 1467, 1764, 4043
22154, 4294, 2966, 4241, 2715
22155, 4294, 4241, 2966, 3788

*NSET, NSET=CONSTRAINT_1
1, 8, 126, 127, 128, 129, 130, 131, 299, 300, 301, 302, 303, 304, 307, 308
3575, 3578, 3579, 3588, 3593, 3595, 3601, 3602, 3611, 3622, 3624, 3627, 3629, 3637, 3638, 3641
3643, 3658, 3661, 3662

*NSET, NSET=CONSTRAINT_2
4, 6, 149, 150, 151, 152, 153, 154, 201, 202, 276, 277, 278, 279, 280, 281
3576, 3577, 3580, 3587, 3592, 3594, 3599, 3600, 3603, 3619, 3625, 3626, 3628, 3636, 3639, 3640
3642, 3659, 3660, 3663

*NSET, NSET=DLOAD_1
5, 6, 7, 8, 157, 158, 159, 160, 161, 162, 163, 164, 165, 166, 167, 168
169, 170, 171, 172, 173, 174, 175, 176, 177, 178, 179, 180, 181, 182, 183, 184
185, 186, 187, 188, 189, 190, 191, 192, 193, 194, 195, 196, 197, 198, 199, 200
203, 204, 205, 206, 207, 208, 209, 210, 211, 212, 213, 214, 215, 216, 217, 218
219, 220, 221, 222, 223, 224, 225, 226, 227, 228, 229, 230, 231, 232, 233, 234
235, 236, 237, 238, 239, 240, 241, 242, 243, 244, 245, 246, 247, 248, 249, 250
251, 252, 253, 254, 255, 256, 257, 258, 259, 260, 261, 262, 263, 264, 265, 266
267, 268, 269, 270, 271, 272, 273, 274, 275, 276, 277, 278, 279, 280, 281, 282
283, 284, 285, 286, 287, 288, 289, 290, 291, 292, 293, 294, 295, 296, 297, 298
299, 300, 301, 302, 303, 304, 1942, 1943, 1944, 1945, 1946, 1947, 1948, 1949, 1950, 1951
1952, 1953, 1954, 1955, 1956, 1957, 1958, 1959, 1960, 1961, 1962, 1963, 1964, 1965, 1966, 1967
1968, 1969, 1970, 1971, 1972, 1973, 1974, 1975, 1976, 1977, 1978, 1979, 1980, 1981, 1982, 1983
1984, 1985, 1986, 1987, 1988, 1989, 1990, 1991, 1992, 1993, 1994, 1995, 1996, 1997, 1998, 1999
2000, 2001, 2002, 2003, 2004, 2005, 2006, 2007, 2008, 2009, 2010, 2011, 2012, 2013, 2014, 2015
2016, 2017, 2018, 2019, 2020, 2021, 2022, 2023, 2024, 2025, 2026, 2027, 2028, 2029, 2030, 2031
2032, 2033, 2034, 2035, 2036, 2037, 2038, 2039, 2040, 2041, 2042, 2043, 2044, 2045, 2046, 2047
2048, 2049, 2050, 2051, 2052, 2053, 2054, 2055, 2056, 2057, 2058, 2059, 2060, 2061, 2062, 2063
2064, 2065, 2066, 2067, 2068, 2069, 2070, 2071, 2072, 2073, 2074, 2075, 2076, 2077, 2078, 2079
2080, 2081, 2082, 2083, 2084, 2085, 2086, 2087, 2088, 2089, 2090, 2091, 2092, 2093, 2094, 2095
2096, 2097, 2098, 2099, 2100, 2101, 2102, 2103, 2104, 2105, 2106, 2107, 2108, 2109, 2110, 2111
2112, 2113, 2114, 2115, 2116, 2117, 2118, 2119, 2120, 2121, 2122, 2123, 2124, 2125, 2126, 2127
2128, 2129, 2130, 2131, 2132, 2133, 2134, 2135, 2136, 2137, 2138, 2139, 2140, 2141, 2142, 2143
2144, 2145, 2146, 2147, 2148, 2149, 2150, 2151, 2152, 2153, 2154, 2155, 2156, 2157, 2158, 2159
2160, 2161, 2162, 2163, 2164, 2165, 2166, 2167, 2168, 2169, 2170, 2171, 2172, 2173, 2174, 2175
2176, 2177, 2178, 2179, 2180, 2181, 2182, 2183, 2184, 2185, 2186, 2187, 2188, 2189, 2190, 2191
2192, 2193, 2194, 2195, 2196, 2197, 2198, 2199, 2200, 2201, 2202, 2203, 2204, 2205, 2206, 2207
2208, 2209, 2210, 2211, 2212, 2213, 2214, 2215, 2216, 2217, 2218, 2219, 2220, 2221, 2222, 2223
2224, 2225, 2226, 2227, 2228, 2229, 2230, 2231, 2232, 2233, 2234, 2235, 2236, 2237, 2238, 2239
2240, 2241, 2242, 2243, 2244, 2245, 2246, 2247, 2248, 2249, 2250, 2251, 2252, 2253, 2254, 2255
2256, 2257, 2258, 2259, 2260, 2261, 2262, 2263, 2264, 2265, 2266, 2267, 2268, 2269, 2270, 2271
2272, 2273, 2274, 2275, 2276, 2277, 2278, 2279, 2280, 2281, 2282, 2283, 2284, 2285, 2286, 2287
2288, 2289, 2290, 2291, 2292, 2293, 2294, 2295, 2296, 2297, 2298, 2299, 2300, 2301, 2302, 2303
2304, 2305, 2306, 2307, 2308, 2309, 2310, 2311, 2312, 2313, 2314, 2315, 2316, 2317, 2318, 2319
2320, 2321, 2322, 2323, 2324, 2325, 2326, 2327, 2328, 2329, 2330, 2331, 2332, 2333, 2334, 2335
2336, 2337, 2338, 2339, 2340, 2341, 2342, 2343, 2344, 2345, 2346, 2347, 2348, 2349, 2350, 2351
2352, 2353, 2354, 2355, 2356, 2357, 2358, 2359, 2360, 2361, 2362, 2363, 2364, 2365, 2366, 2367
2368, 2369, 2370, 2371, 2372, 2373, 2374, 2375, 2376, 2377, 2378, 2379, 2380, 2381, 2382, 2383
2384, 2385, 2386, 2387, 2388, 2389, 2390, 2391, 2392, 2393, 2394, 2395, 2396, 2397, 2398, 2399
2400, 2401, 2402, 2403, 2404, 2405, 2406, 2407, 2408, 2409, 2410, 2411, 2412, 2413, 2414, 2415
2416, 2417, 2418, 2419, 2420, 2421, 2422, 2423, 2424, 2425, 2426, 2427, 2428, 2429, 2430, 2431
2432, 2433, 2434, 2435, 2436, 2437, 2438, 2439, 2440, 2441, 2442, 2443, 2444, 2445, 2446, 2447
2448, 2449, 2450, 2451, 2452, 2453, 2454, 2455, 2456, 2457, 2458, 2459, 2460, 2461, 2462, 2463
2464, 2465, 2466, 2467, 2468, 2469, 2470, 2471, 2472, 2473, 2474, 2475, 2476, 2477, 2478, 2479
2480, 2481, 2482, 2483, 2484, 2485, 2486, 2487, 2488, 2489, 2490, 2491, 2492, 2493, 2494, 2495
2496, 2497, 2498, 2499, 2500, 2501, 2502, 2503, 2504, 2505, 2506, 2507, 2508, 2509, 2510, 2511
2512, 2513, 2514, 2515, 2516, 2517, 2518, 2519, 2520, 2521, 2522, 2523, 2524, 2525, 2526, 2527
2528, 2529, 2530, 2531, 2532, 2533, 2534, 2535, 2536, 2537, 2538, 2539, 2540, 2541, 2542, 2543
2544, 2545, 2546, 2547, 2548, 2549, 2550, 2551, 2552, 2553, 2554, 2555, 2556, 2557, 2558, 2559
2560, 2561, 2562, 2563, 2564, 2565, 2566, 2567, 2568, 2569, 2570, 2571, 2572, 2573, 2574, 2575
2576, 2577, 2578, 2579, 2580, 2581, 2582, 2583, 2584, 2585, 2586, 2587, 2588, 2589, 2590, 2591
2592, 2593, 2594, 2595, 2596, 2597, 2598, 2599, 2600, 2601, 2602, 2603, 2604, 2605, 2606, 2607
2608, 2609, 2610, 2611, 2612, 2613, 2614, 2615, 2616, 2617, 2618, 2619, 2620, 2621, 2622, 2623
2624, 2625, 2626, 2627, 2628, 2629, 2630, 2631, 2632, 2633, 2634, 2635, 2636, 2637, 2638, 2639
2640, 2641, 2642, 2643, 2644, 2645, 2646, 2647, 2648, 2649, 2650, 2651, 2652, 2653, 2654, 2655
2656, 2657, 2658, 2659, 2660, 2661, 2662, 2663, 2664, 2665, 2666, 2667, 2668, 2669, 2670, 2671
2672, 2673, 2674, 2675, 2676, 2677, 2678, 2679, 2680, 2681, 2682, 2683, 2684, 2685, 2686, 2687
2688, 2689, 2690, 2691, 2692, 2693, 2694, 2695, 2696, 2697, 2698, 2699, 2700, 2701, 2702, 2703
2704, 2705, 2706, 2707, 2708, 2709, 2710, 2711, 2712, 2713, 2714, 2715, 2716, 2717, 2718, 2719
2720, 2721, 2722, 2723, 2724, 2725, 2726, 2727, 2728, 2729, 2730, 2731, 2732, 2733, 2734, 2735
2736, 2737, 2738, 2739, 2740, 2741, 2742, 2743, 2744, 2745, 2746, 2747, 2748, 2749, 2750, 2751
2752, 2753, 2754, 2755, 2756, 2757, 2758, 2759, 2760, 2761, 2762, 2763, 2764, 2765, 2766, 2767
2768, 2769, 2770, 2771, 2772, 2773, 2774, 2775, 2776, 2777, 2778, 2779, 2780, 2781, 2782, 2783
2784, 2785, 2786, 2787, 2788, 2789, 2790, 2791, 2792, 2793, 2794, 2795, 2796, 2797, 2798, 2799
2800, 2801, 2802, 2803, 2804, 2805, 2806, 2807, 2808, 2809, 2810, 2811, 2812, 2813, 2814, 2815
2816, 2817, 2818, 2819, 2820, 2821, 2822, 2823, 2824, 2825, 2826, 2827, 2828, 2829, 2830, 2831
2832, 2833, 2834, 2835, 2836, 2837, 2838, 2839, 2840, 2841, 2842, 2843, 2844, 2845, 2846, 2847
2848, 2849, 2850, 2851, 2852, 2853, 2854, 2855, 2856, 2857, 2858, 2859, 2860, 2861, 2862, 2863
2864, 2865, 2866, 2867, 2868, 2869, 2870, 2871, 2872, 2873, 2874, 2875, 2876, 2877, 2878, 2879
2880, 2881, 2882, 2883, 2884, 2885, 2886, 2887, 2888, 2889, 2890, 2891, 2892, 2893, 2894, 2895
2896, 2897, 2898, 2899, 2900, 2901, 2902, 2903, 2904, 2905, 2906, 2907, 2908, 2909, 2910, 2911
2912, 2913, 2914, 2915, 2916, 2917, 2918, 2919, 2920, 2921, 2922, 2923, 2924, 2925, 2926, 2927
2928, 2929, 2930, 2931, 2932, 2933, 2934, 2935, 2936, 2937, 2938, 2939, 2940, 2941, 2942, 2943
2944, 2945, 2946, 2947, 2948, 2949, 2950, 2951, 2952, 2953, 2954, 2955, 2956, 2957, 2958, 2959
2960, 2961, 2962, 2963, 2964, 2965, 2966, 2967, 2968, 2969, 2970, 2971, 2972, 2973, 2974, 2975
2976, 2977, 2978, 2979, 2980, 2981, 2982, 2983, 2984, 2985, 2986, 2987, 2988, 2989, 2990, 2991
2992, 2993, 2994, 2995, 2996, 2997, 2998, 2999, 3000, 3001, 3002, 3003, 3004, 3005, 3006, 3007
3008, 3009, 3010, 3011, 3012, 3013, 3014, 3015, 3016, 3017, 3018, 3019, 3020, 3021, 3022, 3023
3024, 3025, 3026, 3027, 3028, 3029, 3030, 3031, 3032, 3033, 3034, 3035, 3036, 3037, 3038, 3039
3040, 3041, 3042, 3043, 3044, 3045, 3046, 3047, 3048, 3049, 3050, 3051, 3052, 3053, 3054, 3055
3056, 3057, 3058, 3059, 3060, 3061, 3062, 3063, 3064, 3065, 3066, 3067, 3068, 3069, 3070, 3071
3072, 3073, 3074, 3075, 3076, 3077, 3078, 3079, 3080, 3081, 3082, 3083, 3084, 3085, 3086, 3087
3088, 3089, 3090, 3091, 3092, 3093, 3094, 3095, 3096, 3097, 3098, 3099, 3100, 3101, 3102, 3103
3104, 3105, 3106, 3107, 3108, 3109, 3110, 3111, 3112, 3113, 3114, 3115, 3116, 3117, 3118, 3119
3120, 3121, 3122, 3123, 3124, 3125, 3126, 3127, 3128, 3129, 3130, 3131, 3132, 3133, 3134, 3135
3136, 3137, 3138, 3139, 3140, 3141, 3142, 3143, 3144, 3145, 3146, 3147, 3148, 3149, 3150, 3151
3152, 3153, 3154, 3155, 3156, 3157, 3158, 3159, 3160, 3161, 3162, 3163, 3164, 3165, 3166, 3167
3168, 3169, 3170, 3171, 3172, 3173, 3174, 3175, 3176, 3177, 3178, 3179, 3180, 3181, 3182, 3183
3184, 3185, 3186, 3187, 3188, 3189, 3190, 3191, 3192, 3193, 3194, 3195, 3196, 3197, 3198, 3199
3200, 3201, 3202, 3203, 3204, 3205, 3206, 3207, 3208, 3209, 3210, 3211, 3212, 3213, 3214, 3215
3216, 3217, 3218, 3219, 3220, 3221, 3222, 3223, 3224, 3225, 3226, 3227, 3228, 3229, 3230, 3231
3232, 3233, 3234, 3235, 3236, 3237, 3238, 3239, 3240, 3241, 3242, 3243, 3244, 3245, 3246, 3247
3248, 3249, 3250, 3251, 3252, 3253, 3254, 3255, 3256, 3257, 3258, 3259, 3260, 3261, 3262, 3263
3264, 3265, 3266, 3267, 3268, 3269, 3270, 3271, 3272, 3273, 3274, 3275, 3276, 3277, 3278, 3279
3280, 3281, 3282, 3283, 3284, 3285, 3286, 3287, 3288, 3289, 3290, 3291, 3292, 3293, 3294, 3295
3296, 3297, 3298, 3299, 3300, 3301, 3302, 3303, 3304, 3305, 3306, 3307, 3308, 3309, 3310, 3311
3312, 3313, 3314, 3315, 3316, 3317, 3318, 3319, 3320, 3321, 3322, 3323, 3324, 3325, 3326, 3327
3328, 3329, 3330, 3331, 3332, 3333, 3334, 3335, 3336, 3337, 3338, 3339, 3340, 3341, 3342, 3343
3344, 3345, 3346, 3347, 3348, 3349, 3350, 3351, 3352, 3353, 3354, 3355, 3356, 3357, 3358, 3359
3360, 3361, 3362, 3363, 3364, 3365, 3366, 3367, 3368, 3369, 3370, 3371, 3372, 3373, 3374, 3375
3376, 3377, 3378, 3379, 3380, 3381, 3382, 3383, 3384, 3385, 3386, 3387, 3388, 3389, 3390, 3391
3392, 3393, 3394, 3395, 3396, 3397, 3398, 3399, 3400, 3401, 3402, 3403, 3404, 3405, 3406, 3407
3408, 3409, 3410, 3411, 3412, 3413, 3414, 3415, 3416, 3417, 3418, 3419, 3420, 3421, 3422, 3423
3424, 3425, 3426, 3427, 3428, 3429, 3430, 3431, 3432, 3433, 3434, 3435, 3436, 3437, 3438, 3439
3440

*MATERIAL, NAME=STRUCTURAL_STEEL
*ELASTIC
200000.000000, 0.300000

*SOLID SECTION, ELSET=ALL_ELEMENTS, MATERIAL=STRUCTURAL_STEEL

*BOUNDARY
CONSTRAINT_1, 1, 3

*BOUNDARY
CONSTRAINT_2, 1, 3

*STEP, NLGEOM=NO
*STATIC
0.1, 1.0

*CLOAD
DLOAD_1, 2, -20000.000000

*NODE FILE
U, RF
*EL FILE
S, E

*END STEP
