*HEADING
Portal frame with partial side pressure patch instead of full face. Pressure applied only to upper 40mm of 100mm height. Tests localized pressure selector and non-uniform load distribution.

*NODE, NSET=ALL_NODES
1, 0.000000, 0.000000, 0.000000
2, 0.000000, 0.000000, 100.000000
3, 0.000000, 6.666700, 0.000000
4, 0.000000, 6.666700, 100.000000
5, 10.000000, 0.000000, 0.000000
6, 66.666702, 0.000000, 100.000000
7, 66.666702, 0.000000, 0.000000
8, 56.666698, 0.000000, 0.000000
9, 56.666698, 0.000000, 90.000000
10, 10.000000, 0.000000, 90.000000
11, 66.666702, 6.666700, 100.000000
12, 10.000000, 6.666700, 0.000000
13, 66.666702, 6.666700, 0.000000
14, 56.666698, 6.666700, 0.000000
15, 56.666698, 6.666700, 90.000000
16, 10.000000, 6.666700, 90.000000
17, 0.000000, 0.000000, 2.222222
18, 0.000000, 0.000000, 4.444445
19, 0.000000, 0.000000, 6.666667
20, 0.000000, 0.000000, 8.888889
21, 0.000000, 0.000000, 11.111111
22, 0.000000, 0.000000, 13.333333
23, 0.000000, 0.000000, 15.555555
24, 0.000000, 0.000000, 17.777779
25, 0.000000, 0.000000, 20.000000
26, 0.000000, 0.000000, 22.222221
27, 0.000000, 0.000000, 24.444445
28, 0.000000, 0.000000, 26.666666
29, 0.000000, 0.000000, 28.888889
30, 0.000000, 0.000000, 31.111111
31, 0.000000, 0.000000, 33.333332
32, 0.000000, 0.000000, 35.555557
33, 0.000000, 0.000000, 37.777779
34, 0.000000, 0.000000, 40.000000
35, 0.000000, 0.000000, 42.222221
36, 0.000000, 0.000000, 44.444443
37, 0.000000, 0.000000, 46.666668
38, 0.000000, 0.000000, 48.888889
39, 0.000000, 0.000000, 51.111111
40, 0.000000, 0.000000, 53.333332
41, 0.000000, 0.000000, 55.555557
42, 0.000000, 0.000000, 57.777779
43, 0.000000, 0.000000, 60.000000
44, 0.000000, 0.000000, 62.222221
45, 0.000000, 0.000000, 64.444443
46, 0.000000, 0.000000, 66.666664
47, 0.000000, 0.000000, 68.888885
48, 0.000000, 0.000000, 71.111115
49, 0.000000, 0.000000, 73.333336
50, 0.000000, 0.000000, 75.555557
51, 0.000000, 0.000000, 77.777779
52, 0.000000, 0.000000, 80.000000
53, 0.000000, 0.000000, 82.222221
54, 0.000000, 0.000000, 84.444443
55, 0.000000, 0.000000, 86.666664
56, 0.000000, 0.000000, 88.888885
57, 0.000000, 0.000000, 91.111115
58, 0.000000, 0.000000, 93.333336
59, 0.000000, 0.000000, 95.555557
60, 0.000000, 0.000000, 97.777779
61, 0.000000, 2.222233, 0.000000
62, 0.000000, 4.444467, 0.000000
63, 0.000000, 6.666700, 2.222222
64, 0.000000, 6.666700, 4.444445
65, 0.000000, 6.666700, 6.666667
66, 0.000000, 6.666700, 8.888889
67, 0.000000, 6.666700, 11.111111
68, 0.000000, 6.666700, 13.333333
69, 0.000000, 6.666700, 15.555555
70, 0.000000, 6.666700, 17.777779
71, 0.000000, 6.666700, 20.000000
72, 0.000000, 6.666700, 22.222221
73, 0.000000, 6.666700, 24.444445
74, 0.000000, 6.666700, 26.666666
75, 0.000000, 6.666700, 28.888889
76, 0.000000, 6.666700, 31.111111
77, 0.000000, 6.666700, 33.333332
78, 0.000000, 6.666700, 35.555557
79, 0.000000, 6.666700, 37.777779
80, 0.000000, 6.666700, 40.000000
81, 0.000000, 6.666700, 42.222221
82, 0.000000, 6.666700, 44.444443
83, 0.000000, 6.666700, 46.666668
84, 0.000000, 6.666700, 48.888889
85, 0.000000, 6.666700, 51.111111
86, 0.000000, 6.666700, 53.333332
87, 0.000000, 6.666700, 55.555557
88, 0.000000, 6.666700, 57.777779
89, 0.000000, 6.666700, 60.000000
90, 0.000000, 6.666700, 62.222221
91, 0.000000, 6.666700, 64.444443
92, 0.000000, 6.666700, 66.666664
93, 0.000000, 6.666700, 68.888885
94, 0.000000, 6.666700, 71.111115
95, 0.000000, 6.666700, 73.333336
96, 0.000000, 6.666700, 75.555557
97, 0.000000, 6.666700, 77.777779
98, 0.000000, 6.666700, 80.000000
99, 0.000000, 6.666700, 82.222221
100, 0.000000, 6.666700, 84.444443
101, 0.000000, 6.666700, 86.666664
102, 0.000000, 6.666700, 88.888885
103, 0.000000, 6.666700, 91.111115
104, 0.000000, 6.666700, 93.333336
105, 0.000000, 6.666700, 95.555557
106, 0.000000, 6.666700, 97.777779
107, 0.000000, 2.222233, 100.000000
108, 0.000000, 4.444467, 100.000000
109, 2.000000, 0.000000, 0.000000
110, 4.000000, 0.000000, 0.000000
111, 6.000000, 0.000000, 0.000000
112, 8.000000, 0.000000, 0.000000
113, 2.222223, 0.000000, 100.000000
114, 4.444447, 0.000000, 100.000000
115, 6.666670, 0.000000, 100.000000
116, 8.888893, 0.000000, 100.000000
117, 11.111116, 0.000000, 100.000000
118, 13.333340, 0.000000, 100.000000
119, 15.555563, 0.000000, 100.000000
120, 17.777786, 0.000000, 100.000000
121, 20.000010, 0.000000, 100.000000
122, 22.222233, 0.000000, 100.000000
123, 24.444456, 0.000000, 100.000000
124, 26.666679, 0.000000, 100.000000
125, 28.888903, 0.000000, 100.000000
126, 31.111126, 0.000000, 100.000000
127, 33.333351, 0.000000, 100.000000
128, 35.555573, 0.000000, 100.000000
129, 37.777798, 0.000000, 100.000000
130, 40.000019, 0.000000, 100.000000
131, 42.222244, 0.000000, 100.000000
132, 44.444466, 0.000000, 100.000000
133, 46.666691, 0.000000, 100.000000
134, 48.888912, 0.000000, 100.000000
135, 51.111137, 0.000000, 100.000000
136, 53.333359, 0.000000, 100.000000
137, 55.555584, 0.000000, 100.000000
138, 57.777805, 0.000000, 100.000000
139, 60.000031, 0.000000, 100.000000
140, 62.222252, 0.000000, 100.000000
141, 64.444473, 0.000000, 100.000000
142, 66.666702, 0.000000, 2.222222
143, 66.666702, 0.000000, 4.444445
144, 66.666702, 0.000000, 6.666667
145, 66.666702, 0.000000, 8.888889
146, 66.666702, 0.000000, 11.111111
147, 66.666702, 0.000000, 13.333333
148, 66.666702, 0.000000, 15.555555
149, 66.666702, 0.000000, 17.777779
150, 66.666702, 0.000000, 20.000000
151, 66.666702, 0.000000, 22.222221
152, 66.666702, 0.000000, 24.444445
153, 66.666702, 0.000000, 26.666666
154, 66.666702, 0.000000, 28.888889
155, 66.666702, 0.000000, 31.111111
156, 66.666702, 0.000000, 33.333332
157, 66.666702, 0.000000, 35.555557
158, 66.666702, 0.000000, 37.777779
159, 66.666702, 0.000000, 40.000000
160, 66.666702, 0.000000, 42.222221
161, 66.666702, 0.000000, 44.444443
162, 66.666702, 0.000000, 46.666668
163, 66.666702, 0.000000, 48.888889
164, 66.666702, 0.000000, 51.111111
165, 66.666702, 0.000000, 53.333332
166, 66.666702, 0.000000, 55.555557
167, 66.666702, 0.000000, 57.777779
168, 66.666702, 0.000000, 60.000000
169, 66.666702, 0.000000, 62.222221
170, 66.666702, 0.000000, 64.444443
171, 66.666702, 0.000000, 66.666664
172, 66.666702, 0.000000, 68.888885
173, 66.666702, 0.000000, 71.111115
174, 66.666702, 0.000000, 73.333336
175, 66.666702, 0.000000, 75.555557
176, 66.666702, 0.000000, 77.777779
177, 66.666702, 0.000000, 80.000000
178, 66.666702, 0.000000, 82.222221
179, 66.666702, 0.000000, 84.444443
180, 66.666702, 0.000000, 86.666664
181, 66.666702, 0.000000, 88.888885
182, 66.666702, 0.000000, 91.111115
183, 66.666702, 0.000000, 93.333336
184, 66.666702, 0.000000, 95.555557
185, 66.666702, 0.000000, 97.777779
186, 58.666698, 0.000000, 0.000000
187, 60.666698, 0.000000, 0.000000
188, 62.666698, 0.000000, 0.000000
189, 64.666702, 0.000000, 0.000000
190, 56.666698, 0.000000, 87.804878
191, 56.666698, 0.000000, 85.609756
192, 56.666698, 0.000000, 83.414635
193, 56.666698, 0.000000, 81.219513
194, 56.666698, 0.000000, 79.024391
195, 56.666698, 0.000000, 76.829269
196, 56.666698, 0.000000, 74.634148
197, 56.666698, 0.000000, 72.439026
198, 56.666698, 0.000000, 70.243904
199, 56.666698, 0.000000, 68.048782
200, 56.666698, 0.000000, 65.853661
201, 56.666698, 0.000000, 63.658535
202, 56.666698, 0.000000, 61.463413
203, 56.666698, 0.000000, 59.268291
204, 56.666698, 0.000000, 57.073170
205, 56.666698, 0.000000, 54.878048
206, 56.666698, 0.000000, 52.682926
207, 56.666698, 0.000000, 50.487804
208, 56.666698, 0.000000, 48.292683
209, 56.666698, 0.000000, 46.097561
210, 56.666698, 0.000000, 43.902439
211, 56.666698, 0.000000, 41.707317
212, 56.666698, 0.000000, 39.512196
213, 56.666698, 0.000000, 37.317074
214, 56.666698, 0.000000, 35.121952
215, 56.666698, 0.000000, 32.926830
216, 56.666698, 0.000000, 30.731707
217, 56.666698, 0.000000, 28.536585
218, 56.666698, 0.000000, 26.341463
219, 56.666698, 0.000000, 24.146341
220, 56.666698, 0.000000, 21.951220
221, 56.666698, 0.000000, 19.756098
222, 56.666698, 0.000000, 17.560976
223, 56.666698, 0.000000, 15.365853
224, 56.666698, 0.000000, 13.170732
225, 56.666698, 0.000000, 10.975610
226, 56.666698, 0.000000, 8.780488
227, 56.666698, 0.000000, 6.585366
228, 56.666698, 0.000000, 4.390244
229, 56.666698, 0.000000, 2.195122
230, 12.222224, 0.000000, 90.000000
231, 14.444448, 0.000000, 90.000000
232, 16.666672, 0.000000, 90.000000
233, 18.888895, 0.000000, 90.000000
234, 21.111118, 0.000000, 90.000000
235, 23.333344, 0.000000, 90.000000
236, 25.555567, 0.000000, 90.000000
237, 27.777790, 0.000000, 90.000000
238, 30.000013, 0.000000, 90.000000
239, 32.222237, 0.000000, 90.000000
240, 34.444462, 0.000000, 90.000000
241, 36.666687, 0.000000, 90.000000
242, 38.888908, 0.000000, 90.000000
243, 41.111134, 0.000000, 90.000000
244, 43.333359, 0.000000, 90.000000
245, 45.555580, 0.000000, 90.000000
246, 47.777805, 0.000000, 90.000000
247, 50.000027, 0.000000, 90.000000
248, 52.222252, 0.000000, 90.000000
249, 54.444477, 0.000000, 90.000000
250, 10.000000, 0.000000, 87.804878
251, 10.000000, 0.000000, 85.609756
252, 10.000000, 0.000000, 83.414635
253, 10.000000, 0.000000, 81.219513
254, 10.000000, 0.000000, 79.024391
255, 10.000000, 0.000000, 76.829269
256, 10.000000, 0.000000, 74.634148
257, 10.000000, 0.000000, 72.439026
258, 10.000000, 0.000000, 70.243904
259, 10.000000, 0.000000, 68.048782
260, 10.000000, 0.000000, 65.853661
261, 10.000000, 0.000000, 63.658535
262, 10.000000, 0.000000, 61.463413
263, 10.000000, 0.000000, 59.268291
264, 10.000000, 0.000000, 57.073170
265, 10.000000, 0.000000, 54.878048
266, 10.000000, 0.000000, 52.682926
267, 10.000000, 0.000000, 50.487804
268, 10.000000, 0.000000, 48.292683
269, 10.000000, 0.000000, 46.097561
270, 10.000000, 0.000000, 43.902439
271, 10.000000, 0.000000, 41.707317
272, 10.000000, 0.000000, 39.512196
273, 10.000000, 0.000000, 37.317074
274, 10.000000, 0.000000, 35.121952
275, 10.000000, 0.000000, 32.926830
276, 10.000000, 0.000000, 30.731707
277, 10.000000, 0.000000, 28.536585
278, 10.000000, 0.000000, 26.341463
279, 10.000000, 0.000000, 24.146341
280, 10.000000, 0.000000, 21.951220
281, 10.000000, 0.000000, 19.756098
282, 10.000000, 0.000000, 17.560976
283, 10.000000, 0.000000, 15.365853
284, 10.000000, 0.000000, 13.170732
285, 10.000000, 0.000000, 10.975610
286, 10.000000, 0.000000, 8.780488
287, 10.000000, 0.000000, 6.585366
288, 10.000000, 0.000000, 4.390244
289, 10.000000, 0.000000, 2.195122
290, 66.666702, 2.222233, 100.000000
291, 66.666702, 4.444467, 100.000000
292, 2.222223, 6.666700, 100.000000
293, 4.444447, 6.666700, 100.000000
294, 6.666670, 6.666700, 100.000000
295, 8.888893, 6.666700, 100.000000
296, 11.111116, 6.666700, 100.000000
297, 13.333340, 6.666700, 100.000000
298, 15.555563, 6.666700, 100.000000
299, 17.777786, 6.666700, 100.000000
300, 20.000010, 6.666700, 100.000000
301, 22.222233, 6.666700, 100.000000
302, 24.444456, 6.666700, 100.000000
303, 26.666679, 6.666700, 100.000000
304, 28.888903, 6.666700, 100.000000
305, 31.111126, 6.666700, 100.000000
306, 33.333351, 6.666700, 100.000000
307, 35.555573, 6.666700, 100.000000
308, 37.777798, 6.666700, 100.000000
309, 40.000019, 6.666700, 100.000000
310, 42.222244, 6.666700, 100.000000
311, 44.444466, 6.666700, 100.000000
312, 46.666691, 6.666700, 100.000000
313, 48.888912, 6.666700, 100.000000
314, 51.111137, 6.666700, 100.000000
315, 53.333359, 6.666700, 100.000000
316, 55.555584, 6.666700, 100.000000
317, 57.777805, 6.666700, 100.000000
318, 60.000031, 6.666700, 100.000000
319, 62.222252, 6.666700, 100.000000
320, 64.444473, 6.666700, 100.000000
321, 2.000000, 6.666700, 0.000000
322, 4.000000, 6.666700, 0.000000
323, 6.000000, 6.666700, 0.000000
324, 8.000000, 6.666700, 0.000000
325, 66.666702, 6.666700, 2.222222
326, 66.666702, 6.666700, 4.444445
327, 66.666702, 6.666700, 6.666667
328, 66.666702, 6.666700, 8.888889
329, 66.666702, 6.666700, 11.111111
330, 66.666702, 6.666700, 13.333333
331, 66.666702, 6.666700, 15.555555
332, 66.666702, 6.666700, 17.777779
333, 66.666702, 6.666700, 20.000000
334, 66.666702, 6.666700, 22.222221
335, 66.666702, 6.666700, 24.444445
336, 66.666702, 6.666700, 26.666666
337, 66.666702, 6.666700, 28.888889
338, 66.666702, 6.666700, 31.111111
339, 66.666702, 6.666700, 33.333332
340, 66.666702, 6.666700, 35.555557
341, 66.666702, 6.666700, 37.777779
342, 66.666702, 6.666700, 40.000000
343, 66.666702, 6.666700, 42.222221
344, 66.666702, 6.666700, 44.444443
345, 66.666702, 6.666700, 46.666668
346, 66.666702, 6.666700, 48.888889
347, 66.666702, 6.666700, 51.111111
348, 66.666702, 6.666700, 53.333332
349, 66.666702, 6.666700, 55.555557
350, 66.666702, 6.666700, 57.777779
351, 66.666702, 6.666700, 60.000000
352, 66.666702, 6.666700, 62.222221
353, 66.666702, 6.666700, 64.444443
354, 66.666702, 6.666700, 66.666664
355, 66.666702, 6.666700, 68.888885
356, 66.666702, 6.666700, 71.111115
357, 66.666702, 6.666700, 73.333336
358, 66.666702, 6.666700, 75.555557
359, 66.666702, 6.666700, 77.777779
360, 66.666702, 6.666700, 80.000000
361, 66.666702, 6.666700, 82.222221
362, 66.666702, 6.666700, 84.444443
363, 66.666702, 6.666700, 86.666664
364, 66.666702, 6.666700, 88.888885
365, 66.666702, 6.666700, 91.111115
366, 66.666702, 6.666700, 93.333336
367, 66.666702, 6.666700, 95.555557
368, 66.666702, 6.666700, 97.777779
369, 58.666698, 6.666700, 0.000000
370, 60.666698, 6.666700, 0.000000
371, 62.666698, 6.666700, 0.000000
372, 64.666702, 6.666700, 0.000000
373, 56.666698, 6.666700, 87.804878
374, 56.666698, 6.666700, 85.609756
375, 56.666698, 6.666700, 83.414635
376, 56.666698, 6.666700, 81.219513
377, 56.666698, 6.666700, 79.024391
378, 56.666698, 6.666700, 76.829269
379, 56.666698, 6.666700, 74.634148
380, 56.666698, 6.666700, 72.439026
381, 56.666698, 6.666700, 70.243904
382, 56.666698, 6.666700, 68.048782
383, 56.666698, 6.666700, 65.853661
384, 56.666698, 6.666700, 63.658535
385, 56.666698, 6.666700, 61.463413
386, 56.666698, 6.666700, 59.268291
387, 56.666698, 6.666700, 57.073170
388, 56.666698, 6.666700, 54.878048
389, 56.666698, 6.666700, 52.682926
390, 56.666698, 6.666700, 50.487804
391, 56.666698, 6.666700, 48.292683
392, 56.666698, 6.666700, 46.097561
393, 56.666698, 6.666700, 43.902439
394, 56.666698, 6.666700, 41.707317
395, 56.666698, 6.666700, 39.512196
396, 56.666698, 6.666700, 37.317074
397, 56.666698, 6.666700, 35.121952
398, 56.666698, 6.666700, 32.926830
399, 56.666698, 6.666700, 30.731707
400, 56.666698, 6.666700, 28.536585
401, 56.666698, 6.666700, 26.341463
402, 56.666698, 6.666700, 24.146341
403, 56.666698, 6.666700, 21.951220
404, 56.666698, 6.666700, 19.756098
405, 56.666698, 6.666700, 17.560976
406, 56.666698, 6.666700, 15.365853
407, 56.666698, 6.666700, 13.170732
408, 56.666698, 6.666700, 10.975610
409, 56.666698, 6.666700, 8.780488
410, 56.666698, 6.666700, 6.585366
411, 56.666698, 6.666700, 4.390244
412, 56.666698, 6.666700, 2.195122
413, 12.222224, 6.666700, 90.000000
414, 14.444448, 6.666700, 90.000000
415, 16.666672, 6.666700, 90.000000
416, 18.888895, 6.666700, 90.000000
417, 21.111118, 6.666700, 90.000000
418, 23.333344, 6.666700, 90.000000
419, 25.555567, 6.666700, 90.000000
420, 27.777790, 6.666700, 90.000000
421, 30.000013, 6.666700, 90.000000
422, 32.222237, 6.666700, 90.000000
423, 34.444462, 6.666700, 90.000000
424, 36.666687, 6.666700, 90.000000
425, 38.888908, 6.666700, 90.000000
426, 41.111134, 6.666700, 90.000000
427, 43.333359, 6.666700, 90.000000
428, 45.555580, 6.666700, 90.000000
429, 47.777805, 6.666700, 90.000000
430, 50.000027, 6.666700, 90.000000
431, 52.222252, 6.666700, 90.000000
432, 54.444477, 6.666700, 90.000000
433, 10.000000, 6.666700, 87.804878
434, 10.000000, 6.666700, 85.609756
435, 10.000000, 6.666700, 83.414635
436, 10.000000, 6.666700, 81.219513
437, 10.000000, 6.666700, 79.024391
438, 10.000000, 6.666700, 76.829269
439, 10.000000, 6.666700, 74.634148
440, 10.000000, 6.666700, 72.439026
441, 10.000000, 6.666700, 70.243904
442, 10.000000, 6.666700, 68.048782
443, 10.000000, 6.666700, 65.853661
444, 10.000000, 6.666700, 63.658535
445, 10.000000, 6.666700, 61.463413
446, 10.000000, 6.666700, 59.268291
447, 10.000000, 6.666700, 57.073170
448, 10.000000, 6.666700, 54.878048
449, 10.000000, 6.666700, 52.682926
450, 10.000000, 6.666700, 50.487804
451, 10.000000, 6.666700, 48.292683
452, 10.000000, 6.666700, 46.097561
453, 10.000000, 6.666700, 43.902439
454, 10.000000, 6.666700, 41.707317
455, 10.000000, 6.666700, 39.512196
456, 10.000000, 6.666700, 37.317074
457, 10.000000, 6.666700, 35.121952
458, 10.000000, 6.666700, 32.926830
459, 10.000000, 6.666700, 30.731707
460, 10.000000, 6.666700, 28.536585
461, 10.000000, 6.666700, 26.341463
462, 10.000000, 6.666700, 24.146341
463, 10.000000, 6.666700, 21.951220
464, 10.000000, 6.666700, 19.756098
465, 10.000000, 6.666700, 17.560976
466, 10.000000, 6.666700, 15.365853
467, 10.000000, 6.666700, 13.170732
468, 10.000000, 6.666700, 10.975610
469, 10.000000, 6.666700, 8.780488
470, 10.000000, 6.666700, 6.585366
471, 10.000000, 6.666700, 4.390244
472, 10.000000, 6.666700, 2.195122
473, 10.000000, 2.222233, 0.000000
474, 10.000000, 4.444467, 0.000000
475, 10.000000, 2.222233, 90.000000
476, 10.000000, 4.444467, 90.000000
477, 56.666698, 2.222233, 90.000000
478, 56.666698, 4.444467, 90.000000
479, 56.666698, 2.222233, 0.000000
480, 56.666698, 4.444467, 0.000000
481, 66.666702, 2.222233, 0.000000
482, 66.666702, 4.444467, 0.000000
483, 0.000000, 4.742199, 72.222221
484, 0.000000, 4.742199, 87.777779
485, 0.000000, 1.704216, 78.933830
486, 0.000000, 1.924501, 94.444443
487, 0.000000, 4.829095, 83.333336
488, 0.000000, 1.704216, 21.066172
489, 0.000000, 4.829095, 16.666666
490, 0.000000, 1.924501, 10.000000
491, 0.000000, 1.870551, 32.238598
492, 0.000000, 1.870551, 25.539179
493, 0.000000, 1.924501, 5.555555
494, 0.000000, 1.924501, 36.666668
495, 0.000000, 4.742199, 67.777779
496, 0.000000, 1.924501, 41.111111
497, 0.000000, 1.888177, 50.062916
498, 0.000000, 4.796149, 54.460823
499, 0.000000, 1.924501, 61.111111
500, 0.000000, 1.924501, 45.555557
501, 0.000000, 3.333350, 97.915108
502, 0.000000, 3.333350, 2.084890
503, 0.000000, 4.742199, 76.666664
504, 0.000000, 1.924501, 70.000000
505, 0.000000, 1.924501, 90.000000
506, 0.000000, 4.742199, 58.888889
507, 0.000000, 1.870551, 85.571930
508, 0.000000, 1.870551, 14.428067
509, 0.000000, 4.742199, 12.222222
510, 0.000000, 4.829095, 27.777779
511, 0.000000, 4.742199, 7.777778
512, 0.000000, 4.742199, 23.333334
513, 0.000000, 4.742199, 34.444443
514, 0.000000, 4.742199, 38.888889
515, 0.000000, 4.742199, 43.333332
516, 0.000000, 1.924501, 74.444443
517, 0.000000, 1.924501, 65.555557
518, 0.000000, 1.924501, 56.666668
519, 0.000000, 4.742199, 63.333332
520, 0.000000, 4.962484, 47.822716
521, 0.000000, 4.742199, 92.222221
522, 0.000000, 1.848481, 76.669395
523, 0.000000, 4.742199, 70.000000
524, 0.000000, 1.831550, 52.232708
525, 0.000000, 3.483688, 51.249172
526, 0.000000, 1.924501, 87.777779
527, 0.000000, 1.875477, 54.444901
528, 0.000000, 4.793005, 81.174026
529, 0.000000, 3.184417, 82.358536
530, 0.000000, 4.742199, 74.444443
531, 0.000000, 4.742199, 41.111111
532, 0.000000, 1.924501, 43.333332
533, 0.000000, 1.924501, 63.333332
534, 0.000000, 4.742199, 65.555557
535, 0.000000, 4.790960, 85.555557
536, 0.000000, 1.924501, 38.888889
537, 0.000000, 1.924501, 58.888889
538, 0.000000, 4.843578, 30.000000
539, 0.000000, 2.821786, 28.888889
540, 0.000000, 1.924501, 34.444443
541, 0.000000, 4.793005, 18.825975
542, 0.000000, 3.184417, 17.641464
543, 0.000000, 4.742199, 61.111111
544, 0.000000, 4.790960, 14.444445
545, 0.000000, 1.924501, 7.777778
546, 0.000000, 4.872932, 21.037710
547, 0.000000, 1.924501, 12.222222
548, 0.000000, 4.742199, 10.000000
549, 0.000000, 4.742199, 5.555555
550, 0.000000, 4.742199, 36.666668
551, 0.000000, 1.813486, 23.328119
552, 0.000000, 4.790960, 25.555555
553, 0.000000, 4.818219, 45.558285
554, 0.000000, 4.742199, 94.444443
555, 0.000000, 4.742199, 90.000000
556, 0.000000, 4.791589, 32.222221
557, 0.000000, 1.924501, 72.222221
558, 0.000000, 1.796181, 47.851177
559, 0.000000, 4.742199, 56.666668
560, 0.000000, 4.872932, 78.962288
561, 0.000000, 1.924501, 67.777779
562, 0.000000, 1.924501, 92.222221
563, 0.000000, 4.963702, 96.601677
564, 0.000000, 1.702998, 96.601677
565, 0.000000, 4.963702, 3.398325
566, 0.000000, 1.702998, 3.398325
567, 0.000000, 5.034073, 52.247963
568, 0.000000, 3.215174, 80.052925
569, 0.000000, 1.632861, 83.358780
570, 0.000000, 3.215174, 19.947073
571, 0.000000, 1.632861, 16.641218
572, 0.000000, 1.606283, 30.447720
573, 0.000000, 1.606283, 27.330057
574, 0.000000, 3.454576, 48.942108
575, 0.000000, 3.333350, 91.111115
576, 0.000000, 3.333350, 88.888885
577, 0.000000, 3.381552, 46.695713
578, 0.000000, 3.333350, 33.333332
579, 0.000000, 3.333350, 86.666664
580, 0.000000, 3.314937, 24.440845
581, 0.000000, 3.277157, 22.192209
582, 0.000000, 3.333350, 11.111111
583, 0.000000, 3.333350, 13.333333
584, 0.000000, 3.333350, 35.555557
585, 0.000000, 3.333350, 6.666667
586, 0.000000, 3.333350, 55.555557
587, 0.000000, 3.333350, 68.888885
588, 0.000000, 3.333350, 8.888889
589, 0.000000, 3.286059, 77.806778
590, 0.000000, 3.343913, 44.447147
591, 0.000000, 3.335110, 42.222672
592, 0.000000, 3.333350, 37.777779
593, 0.000000, 3.333643, 40.000076
594, 0.000000, 3.333350, 57.777779
595, 0.000000, 3.333350, 93.333336
596, 0.000000, 3.333350, 62.222221
597, 0.000000, 3.333350, 66.666664
598, 0.000000, 3.333350, 73.333336
599, 0.000000, 3.333350, 64.444443
600, 0.000000, 3.333350, 60.000000
601, 0.000000, 3.333350, 71.111115
602, 0.000000, 3.322864, 75.558250
603, 0.000000, 3.339077, 84.444443
604, 0.000000, 3.292471, 31.139299
605, 0.000000, 5.044703, 50.043659
606, 0.000000, 1.622778, 81.154381
607, 0.000000, 1.622778, 18.845617
608, 0.000000, 3.339077, 15.555555
609, 0.000000, 3.290435, 26.638260
610, 0.000000, 3.327623, 53.333332
611, 0.000000, 3.333350, 4.451374
612, 0.000000, 3.333350, 95.556778
613, 0.000000, 5.039910, 98.373215
614, 0.000000, 1.626790, 98.373215
615, 0.000000, 1.626790, 1.626787
616, 0.000000, 5.039910, 1.626787
617, 61.085026, 0.000000, 97.893135
618, 5.581673, 0.000000, 97.893135
619, 5.000462, 0.000000, 1.618998
620, 61.667625, 0.000000, 1.619458
621, 64.532104, 0.000000, 92.063789
622, 2.134594, 0.000000, 92.063789
623, 58.566681, 0.000000, 7.682793
624, 8.099426, 0.000000, 7.680861
625, 8.087172, 0.000000, 12.071684
626, 58.599075, 0.000000, 11.850667
627, 58.567730, 0.000000, 16.463415
628, 8.073589, 0.000000, 16.470041
629, 8.059595, 0.000000, 20.868937
630, 58.611603, 0.000000, 20.864195
631, 58.510181, 0.000000, 25.201387
632, 8.045568, 0.000000, 25.267942
633, 58.620129, 0.000000, 29.571478
634, 8.038693, 0.000000, 29.481936
635, 58.621273, 0.000000, 33.964283
636, 8.048374, 0.000000, 33.969303
637, 58.621891, 0.000000, 38.361374
638, 8.045627, 0.000000, 38.361984
639, 58.614208, 0.000000, 42.754177
640, 8.052557, 0.000000, 42.754883
641, 58.127361, 0.000000, 47.212517
642, 8.539677, 0.000000, 47.213367
643, 58.594734, 0.000000, 51.480862
644, 8.071967, 0.000000, 51.480862
645, 58.775375, 0.000000, 55.869389
646, 7.891324, 0.000000, 55.869389
647, 58.501587, 0.000000, 60.395256
648, 7.968075, 0.000000, 60.178188
649, 8.174736, 0.000000, 64.996780
650, 58.477074, 0.000000, 65.030525
651, 58.635239, 0.000000, 69.086983
652, 8.031462, 0.000000, 69.086983
653, 58.710648, 0.000000, 73.500237
654, 7.956054, 0.000000, 73.500237
655, 8.063699, 0.000000, 78.061646
656, 58.603001, 0.000000, 78.061646
657, 58.456596, 0.000000, 82.318359
658, 8.210103, 0.000000, 82.318359
659, 58.538933, 0.000000, 86.700081
660, 8.127769, 0.000000, 86.700081
661, 56.663441, 0.000000, 97.942215
662, 10.004568, 0.000000, 97.892410
663, 52.220856, 0.000000, 97.938850
664, 14.445848, 0.000000, 97.941353
665, 47.675335, 0.000000, 98.048927
666, 18.892397, 0.000000, 98.039337
667, 43.333466, 0.000000, 98.162254
668, 23.333345, 0.000000, 98.075500
669, 38.892441, 0.000000, 98.087570
670, 27.769037, 0.000000, 97.993713
671, 34.448502, 0.000000, 98.024231
672, 31.111126, 0.000000, 91.924500
673, 64.596848, 0.000000, 10.019118
674, 2.038173, 0.000000, 10.033067
675, 64.743881, 0.000000, 14.442022
676, 1.924501, 0.000000, 14.444445
677, 64.742592, 0.000000, 18.885534
678, 1.924501, 0.000000, 18.888889
679, 64.742203, 0.000000, 23.333334
680, 1.924501, 0.000000, 23.333334
681, 64.743622, 0.000000, 27.781212
682, 1.899719, 0.000000, 27.865410
683, 64.744362, 0.000000, 32.223846
684, 1.924501, 0.000000, 32.222221
685, 64.743813, 0.000000, 36.670101
686, 1.924501, 0.000000, 36.666668
687, 64.744362, 0.000000, 41.112736
688, 1.923037, 0.000000, 41.113926
689, 64.749435, 0.000000, 45.543552
690, 1.917263, 0.000000, 45.544205
691, 64.742203, 0.000000, 50.000000
692, 1.924501, 0.000000, 50.000000
693, 64.744080, 0.000000, 54.441681
694, 1.922621, 0.000000, 54.441681
695, 64.832787, 0.000000, 58.887787
696, 1.803820, 0.000000, 58.886189
697, 1.959701, 0.000000, 63.192375
698, 64.652435, 0.000000, 63.228912
699, 64.472565, 0.000000, 67.648254
700, 2.194134, 0.000000, 67.648254
701, 64.743172, 0.000000, 72.220123
702, 1.923526, 0.000000, 72.220123
703, 64.762077, 0.000000, 76.674225
704, 1.904626, 0.000000, 76.674553
705, 1.808927, 0.000000, 81.172691
706, 64.857773, 0.000000, 81.172035
707, 1.924501, 0.000000, 85.555557
708, 64.742203, 0.000000, 85.555557
709, 55.554676, 0.000000, 91.913170
710, 57.766621, 0.000000, 91.914810
711, 11.112023, 0.000000, 91.913170
712, 8.900080, 0.000000, 91.914810
713, 17.831110, 0.000000, 91.949860
714, 48.806049, 0.000000, 91.990028
715, 22.272299, 0.000000, 92.051765
716, 44.397743, 0.000000, 91.815163
717, 26.641563, 0.000000, 91.964310
718, 40.027279, 0.000000, 92.044067
719, 35.580688, 0.000000, 91.964310
720, 2.019382, 0.000000, 5.493961
721, 64.648842, 0.000000, 5.497161
722, 10.010154, 0.000000, 93.831329
723, 12.223918, 0.000000, 93.826515
724, 7.796363, 0.000000, 93.831688
725, 6.690061, 0.000000, 91.913132
726, 5.631860, 0.000000, 93.801674
727, 56.656548, 0.000000, 93.831329
728, 54.442783, 0.000000, 93.826515
729, 58.870338, 0.000000, 93.831688
730, 59.976639, 0.000000, 91.913132
731, 61.034840, 0.000000, 93.801674
732, 64.742203, 0.000000, 96.666664
733, 1.924501, 0.000000, 96.666664
734, 58.676228, 0.000000, 3.212998
735, 7.992459, 0.000000, 3.210757
736, 4.513626, 0.000000, 91.903084
737, 5.569444, 0.000000, 90.005165
738, 3.410272, 0.000000, 90.020721
739, 4.612701, 0.000000, 88.033760
740, 62.153072, 0.000000, 91.903084
741, 61.097256, 0.000000, 90.005165
742, 63.256428, 0.000000, 90.020721
743, 62.053997, 0.000000, 88.033760
744, 55.547684, 0.000000, 95.793472
745, 53.329998, 0.000000, 95.797066
746, 52.163288, 0.000000, 93.870430
747, 51.066467, 0.000000, 95.792526
748, 11.119246, 0.000000, 95.790077
749, 13.336750, 0.000000, 95.801819
750, 14.446301, 0.000000, 93.837944
751, 15.557967, 0.000000, 95.813721
752, 59.972683, 0.000000, 95.791359
753, 62.542385, 0.000000, 95.769875
754, 6.694015, 0.000000, 95.791359
755, 4.124313, 0.000000, 95.769875
756, 2.189271, 0.000000, 87.971703
757, 64.477432, 0.000000, 87.971703
758, 16.668467, 0.000000, 97.862335
759, 17.842554, 0.000000, 95.944107
760, 20.102589, 0.000000, 96.101845
761, 18.974928, 0.000000, 94.009888
762, 21.154213, 0.000000, 94.034882
763, 49.921734, 0.000000, 97.961716
764, 48.587032, 0.000000, 96.012421
765, 46.397686, 0.000000, 96.285339
766, 47.157948, 0.000000, 94.271751
767, 45.321869, 0.000000, 94.783974
768, 7.790233, 0.000000, 97.888153
769, 58.880180, 0.000000, 97.845978
770, 12.225145, 0.000000, 97.904274
771, 54.441822, 0.000000, 97.911934
772, 49.657307, 0.000000, 94.030655
773, 58.580246, 0.000000, 5.474502
774, 60.463928, 0.000000, 6.581583
775, 60.428337, 0.000000, 8.710121
776, 62.366043, 0.000000, 7.677847
777, 62.360027, 0.000000, 5.484426
778, 62.156502, 0.000000, 9.933155
779, 60.569897, 0.000000, 4.517033
780, 8.088245, 0.000000, 5.471154
781, 6.208474, 0.000000, 6.569507
782, 6.192497, 0.000000, 8.764954
783, 4.298343, 0.000000, 7.650008
784, 4.318362, 0.000000, 5.456764
785, 4.277497, 0.000000, 9.845696
786, 1.731412, 0.000000, 7.727122
787, 64.880066, 0.000000, 7.749251
788, 64.933792, 0.000000, 3.136791
789, 1.734670, 0.000000, 3.135859
790, 6.101718, 0.000000, 4.507504
791, 6.176962, 0.000000, 10.963749
792, 4.252825, 0.000000, 12.050289
793, 6.163218, 0.000000, 13.165090
794, 4.202068, 0.000000, 14.178389
795, 6.143152, 0.000000, 15.355685
796, 4.179657, 0.000000, 16.383263
797, 6.129049, 0.000000, 17.555998
798, 4.160609, 0.000000, 18.592073
799, 6.102492, 0.000000, 19.777367
800, 4.139510, 0.000000, 20.802065
801, 6.099200, 0.000000, 21.966413
802, 4.121018, 0.000000, 23.010761
803, 6.062087, 0.000000, 24.196110
804, 4.062994, 0.000000, 25.166725
805, 6.056339, 0.000000, 26.243067
806, 2.043660, 0.000000, 12.301065
807, 1.995536, 0.000000, 16.666666
808, 1.956938, 0.000000, 21.111111
809, 46.666695, 0.000000, 92.097603
810, 2.019014, 0.000000, 69.908058
811, 3.909803, 0.000000, 71.024834
812, 3.896880, 0.000000, 73.385422
813, 5.759928, 0.000000, 72.217827
814, 5.792732, 0.000000, 74.493286
815, 5.986454, 0.000000, 69.987709
816, 7.967054, 0.000000, 75.795471
817, 5.730201, 0.000000, 77.133270
818, 6.326008, 0.000000, 79.364082
819, 4.320877, 0.000000, 78.826324
820, 4.836248, 0.000000, 80.897957
821, 3.769365, 0.000000, 75.595016
822, 7.955649, 0.000000, 71.245949
823, 6.289140, 0.000000, 67.835968
824, 4.170480, 0.000000, 68.785400
825, 4.624333, 0.000000, 66.307564
826, 2.139629, 0.000000, 65.375076
827, 4.059606, 0.000000, 63.991154
828, 3.652656, 0.000000, 61.850502
829, 5.673833, 0.000000, 62.476295
830, 4.989810, 0.000000, 60.793434
831, 1.925462, 0.000000, 74.443039
832, 64.647682, 0.000000, 69.908058
833, 62.756897, 0.000000, 71.024834
834, 62.769821, 0.000000, 73.385422
835, 60.906773, 0.000000, 72.217827
836, 60.873970, 0.000000, 74.493286
837, 60.680248, 0.000000, 69.987709
838, 58.699646, 0.000000, 75.795471
839, 60.936501, 0.000000, 77.133270
840, 60.340691, 0.000000, 79.364082
841, 62.345821, 0.000000, 78.826088
842, 61.830452, 0.000000, 80.897957
843, 62.897335, 0.000000, 75.594963
844, 58.711052, 0.000000, 71.245949
845, 60.372253, 0.000000, 67.848251
846, 62.495335, 0.000000, 68.787445
847, 62.059517, 0.000000, 66.378067
848, 64.501678, 0.000000, 65.414711
849, 62.576866, 0.000000, 64.084267
850, 62.952320, 0.000000, 61.916367
851, 60.868099, 0.000000, 62.603668
852, 61.333439, 0.000000, 60.604687
853, 64.741241, 0.000000, 74.443024
854, 64.673912, 0.000000, 52.133591
855, 62.742329, 0.000000, 53.228394
856, 62.809242, 0.000000, 55.528896
857, 60.863716, 0.000000, 54.493134
858, 60.903751, 0.000000, 56.647213
859, 60.607197, 0.000000, 52.272133
860, 59.014736, 0.000000, 58.191261
861, 62.927563, 0.000000, 57.715752
862, 58.695736, 0.000000, 53.612747
863, 60.351124, 0.000000, 49.912537
864, 62.511162, 0.000000, 50.643185
865, 61.768116, 0.000000, 48.465824
866, 1.992788, 0.000000, 52.133591
867, 3.924370, 0.000000, 53.228394
868, 3.857459, 0.000000, 55.528896
869, 5.802986, 0.000000, 54.493134
870, 5.762949, 0.000000, 56.647213
871, 6.059502, 0.000000, 52.272133
872, 7.755739, 0.000000, 57.987541
873, 3.723976, 0.000000, 57.707417
874, 7.970963, 0.000000, 53.612747
875, 6.315859, 0.000000, 49.913242
876, 4.155632, 0.000000, 50.643379
877, 4.898582, 0.000000, 48.465824
878, 1.878301, 0.000000, 83.387718
879, 3.925343, 0.000000, 84.467117
880, 64.788399, 0.000000, 83.387611
881, 62.741356, 0.000000, 84.467102
882, 64.743881, 0.000000, 43.331352
883, 62.829849, 0.000000, 44.426655
884, 62.825737, 0.000000, 42.219795
885, 62.824139, 0.000000, 40.007442
886, 60.880695, 0.000000, 41.164494
887, 60.852467, 0.000000, 39.007828
888, 62.815231, 0.000000, 37.804798
889, 60.874382, 0.000000, 36.748531
890, 60.907829, 0.000000, 43.325577
891, 61.108971, 0.000000, 45.326969
892, 1.922850, 0.000000, 43.331638
893, 3.835875, 0.000000, 44.430485
894, 3.841698, 0.000000, 42.224091
895, 3.845107, 0.000000, 40.011101
896, 5.787519, 0.000000, 41.170799
897, 5.818218, 0.000000, 39.013130
898, 3.857708, 0.000000, 37.813084
899, 5.812102, 0.000000, 36.780670
900, 3.861134, 0.000000, 35.597565
901, 5.832547, 0.000000, 34.602146
902, 3.867471, 0.000000, 33.388107
903, 5.825568, 0.000000, 32.365673
904, 3.869726, 0.000000, 31.170000
905, 5.992929, 0.000000, 30.348537
906, 3.958922, 0.000000, 29.129265
907, 64.744705, 0.000000, 34.444962
908, 62.824883, 0.000000, 33.333965
909, 62.823997, 0.000000, 31.119061
910, 60.880051, 0.000000, 32.284756
911, 60.866257, 0.000000, 30.102867
912, 60.827953, 0.000000, 34.613419
913, 62.817291, 0.000000, 28.913315
914, 60.861439, 0.000000, 27.894716
915, 62.814335, 0.000000, 35.578617
916, 64.743851, 0.000000, 16.663933
917, 62.823647, 0.000000, 17.773457
918, 62.857895, 0.000000, 19.926922
919, 60.873005, 0.000000, 18.955187
920, 61.109993, 0.000000, 21.264118
921, 59.760815, 0.000000, 22.636700
922, 61.272339, 0.000000, 23.401270
923, 60.869194, 0.000000, 16.750818
924, 64.785286, 0.000000, 21.032295
925, 64.760941, 0.000000, 12.296349
926, 62.863441, 0.000000, 13.421829
927, 62.823082, 0.000000, 15.585351
928, 60.860481, 0.000000, 14.545688
929, 60.896046, 0.000000, 12.260004
930, 64.767647, 0.000000, 25.597265
931, 62.839695, 0.000000, 26.745243
932, 60.768867, 0.000000, 25.655897
933, 1.814819, 0.000000, 47.764912
934, 64.852051, 0.000000, 47.764481
935, 2.101665, 0.000000, 78.857269
936, 64.565033, 0.000000, 78.857094
937, 1.923382, 0.000000, 38.893215
938, 1.942145, 0.000000, 30.064484
939, 5.758860, 0.000000, 43.334801
940, 5.557870, 0.000000, 45.330433
941, 1.922720, 0.000000, 34.447529
942, 64.690887, 0.000000, 94.507072
943, 1.975811, 0.000000, 94.507072
944, 1.923287, 0.000000, 25.612698
945, 7.928148, 0.000000, 40.512966
946, 58.979237, 0.000000, 90.062271
947, 7.687462, 0.000000, 90.062271
948, 58.739048, 0.000000, 40.511868
949, 1.884646, 0.000000, 56.649586
950, 64.774513, 0.000000, 56.651241
951, 64.744560, 0.000000, 38.894115
952, 64.744942, 0.000000, 30.004745
953, 58.731949, 0.000000, 36.118282
954, 21.116373, 0.000000, 98.062897
955, 8.902430, 0.000000, 95.837502
956, 57.765144, 0.000000, 95.839340
957, 28.835518, 0.000000, 91.960327
958, 29.941919, 0.000000, 93.884163
959, 32.261753, 0.000000, 93.884056
960, 31.110359, 0.000000, 95.844086
961, 33.350899, 0.000000, 95.813484
962, 28.819679, 0.000000, 95.980888
963, 32.226379, 0.000000, 97.881943
964, 35.659191, 0.000000, 96.076698
965, 34.739651, 0.000000, 94.024132
966, 36.902954, 0.000000, 94.256439
967, 37.816250, 0.000000, 92.151863
968, 29.987581, 0.000000, 97.950104
969, 26.553665, 0.000000, 96.099518
970, 27.677366, 0.000000, 94.031441
971, 25.513094, 0.000000, 94.070457
972, 24.442953, 0.000000, 92.055672
973, 36.666683, 0.000000, 98.049515
974, 25.543411, 0.000000, 98.059807
975, 33.393322, 0.000000, 91.966164
976, 42.186821, 0.000000, 91.907631
977, 41.104847, 0.000000, 94.044281
978, 20.038761, 0.000000, 92.007729
979, 41.111740, 0.000000, 98.091972
980, 40.030453, 0.000000, 96.149788
981, 42.194317, 0.000000, 96.113289
982, 7.934031, 0.000000, 36.148815
983, 58.733398, 0.000000, 31.744617
984, 58.713848, 0.000000, 27.352009
985, 7.962563, 0.000000, 31.731340
986, 58.567730, 0.000000, 18.658537
987, 58.604622, 0.000000, 14.183545
988, 58.526817, 0.000000, 9.761076
989, 8.077855, 0.000000, 14.266514
990, 8.044408, 0.000000, 23.066160
991, 8.015609, 0.000000, 62.587379
992, 8.092676, 0.000000, 9.872890
993, 8.060787, 0.000000, 18.664902
994, 7.843756, 0.000000, 45.093861
995, 8.089998, 0.000000, 27.358368
996, 58.694126, 0.000000, 62.660446
997, 58.823170, 0.000000, 45.091972
998, 8.121547, 0.000000, 84.511200
999, 5.889139, 0.000000, 85.945480
1000, 58.545155, 0.000000, 84.511200
1001, 60.777561, 0.000000, 85.945473
1002, 60.765579, 0.000000, 83.122322
1003, 5.901122, 0.000000, 83.122322
1004, 53.321114, 0.000000, 91.921288
1005, 13.336068, 0.000000, 91.915878
1006, 15.565214, 0.000000, 91.922447
1007, 51.028339, 0.000000, 91.968735
1008, 16.692633, 0.000000, 93.889572
1009, 62.732506, 0.000000, 46.813831
1010, 3.934483, 0.000000, 46.815914
1011, 58.452602, 0.000000, 67.025887
1012, 8.205427, 0.000000, 67.005936
1013, 3.005370, 0.000000, 1.678202
1014, 37.867363, 0.000000, 96.149078
1015, 24.419828, 0.000000, 96.071098
1016, 22.244101, 0.000000, 96.034645
1017, 4.030210, 0.000000, 3.537088
1018, 63.666698, 0.000000, 1.690171
1019, 62.640297, 0.000000, 3.544722
1020, 59.733456, 0.000000, 1.530357
1021, 6.933808, 0.000000, 1.529958
1022, 63.286457, 0.000000, 98.127563
1023, 3.380241, 0.000000, 98.127563
1024, 59.993568, 0.000000, 88.177483
1025, 6.673132, 0.000000, 88.177483
1026, 6.214224, 0.000000, 64.428772
1027, 39.004356, 0.000000, 94.202087
1028, 64.865494, 0.000000, 61.077736
1029, 45.511448, 0.000000, 98.190239
1030, 60.428886, 0.000000, 64.507355
1031, 43.588432, 0.000000, 94.041374
1032, 58.465378, 0.000000, 49.111416
1033, 8.201706, 0.000000, 49.112385
1034, 58.425449, 0.000000, 80.179512
1035, 8.241252, 0.000000, 80.179512
1036, 1.763470, 0.000000, 61.050861
1037, 62.963879, 0.000000, 24.693218
1038, 23.341082, 0.000000, 94.053085
1039, 62.995522, 0.000000, 82.411530
1040, 3.671180, 0.000000, 82.411560
1041, 44.431087, 0.000000, 96.433723
1042, 61.074883, 0.000000, 58.549095
1043, 3.676041, 0.000000, 93.609100
1044, 62.990658, 0.000000, 93.609100
1045, 62.997746, 0.000000, 59.791904
1046, 3.680988, 0.000000, 86.363838
1047, 62.985714, 0.000000, 86.363831
1048, 5.967651, 0.000000, 28.278425
1049, 5.742424, 0.000000, 59.206272
1050, 3.826744, 0.000000, 27.078712
1051, 1.513560, 0.000000, 90.002930
1052, 65.153137, 0.000000, 90.002930
1053, 62.955265, 0.000000, 22.275192
1054, 6.702947, 0.000000, 81.176445
1055, 59.963753, 0.000000, 81.176445
1056, 3.612693, 0.000000, 59.915779
1057, 60.250660, 0.000000, 47.380096
1058, 6.416693, 0.000000, 47.382328
1059, 60.121357, 0.000000, 10.503005
1060, 63.054756, 0.000000, 11.586091
1061, 65.039917, 0.000000, 98.373222
1062, 1.626780, 0.000000, 98.373222
1063, 8.467450, 0.000000, 88.504982
1064, 58.199249, 0.000000, 88.504982
1065, 63.328468, 0.000000, 80.338608
1066, 3.338231, 0.000000, 80.338768
1067, 63.433468, 0.000000, 48.887245
1068, 3.234239, 0.000000, 48.889202
1069, 58.083763, 0.000000, 1.414545
1070, 8.583301, 0.000000, 1.414168
1071, 1.348008, 0.000000, 1.407257
1072, 65.320122, 0.000000, 1.409837
1073, 58.129471, 0.000000, 23.125587
1074, 6.550034, 0.000000, 61.083836
1075, 6.724232, 0.000000, 66.177567
1076, 59.928253, 0.000000, 61.268543
1077, 3.565347, 0.000000, 77.417290
1078, 63.101353, 0.000000, 77.417130
1079, 63.528233, 0.000000, 6.697258
1080, 6.031507, 0.000000, 2.868324
1081, 60.635201, 0.000000, 2.868015
1082, 3.149282, 0.000000, 6.665306
1083, 63.509953, 0.000000, 8.772553
1084, 59.919659, 0.000000, 66.240082
1085, 3.166699, 0.000000, 8.737207
1086, 45.453091, 0.000000, 93.229980
1087, 59.971661, 0.000000, 59.664963
1088, 59.688335, 0.000000, 24.004168
1089, 38.888908, 1.924502, 100.000000
1090, 45.600517, 4.962484, 100.000000
1091, 52.238625, 4.796148, 100.000000
1092, 61.111141, 1.924502, 100.000000
1093, 56.666695, 4.742198, 100.000000
1094, 34.444462, 4.742198, 100.000000
1095, 5.555558, 4.742198, 100.000000
1096, 10.044944, 4.962484, 100.000000
1097, 18.951813, 1.888178, 100.000000
1098, 25.555569, 1.924502, 100.000000
1099, 14.381537, 1.888178, 100.000000
1100, 30.000015, 1.924502, 100.000000
1101, 2.084891, 3.333350, 100.000000
1102, 64.581810, 3.333350, 100.000000
1103, 43.333355, 1.924502, 100.000000
1104, 54.444473, 1.924502, 100.000000
1105, 50.000027, 1.837605, 100.000000
1106, 41.111130, 4.742198, 100.000000
1107, 23.349722, 4.796148, 100.000000
1108, 7.777781, 1.924502, 100.000000
1109, 16.666676, 4.736687, 100.000000
1110, 27.777792, 4.742198, 100.000000
1111, 61.111141, 4.742198, 100.000000
1112, 34.444462, 1.924502, 100.000000
1113, 58.888920, 1.924502, 100.000000
1114, 56.666695, 1.924502, 100.000000
1115, 36.666683, 4.742198, 100.000000
1116, 36.666683, 1.924502, 100.000000
1117, 43.336086, 4.818218, 100.000000
1118, 58.888920, 4.742198, 100.000000
1119, 41.111130, 1.924502, 100.000000
1120, 54.444473, 4.742198, 100.000000
1121, 30.000015, 4.742198, 100.000000
1122, 23.333345, 1.924502, 100.000000
1123, 21.121607, 1.831551, 100.000000
1124, 20.138073, 3.483689, 100.000000
1125, 52.222248, 1.875740, 100.000000
1126, 38.888908, 4.742198, 100.000000
1127, 16.666676, 2.253595, 100.000000
1128, 10.062920, 1.802236, 100.000000
1129, 7.780511, 4.818218, 100.000000
1130, 12.285143, 1.861747, 100.000000
1131, 13.333340, 3.589868, 100.000000
1132, 32.222237, 4.742198, 100.000000
1133, 5.555558, 1.924502, 100.000000
1134, 47.840717, 1.873695, 100.000000
1135, 49.025227, 3.482284, 100.000000
1136, 25.555569, 4.742198, 100.000000
1137, 27.777792, 1.924502, 100.000000
1138, 32.222237, 1.924502, 100.000000
1139, 45.628979, 1.793768, 100.000000
1140, 63.268375, 1.702999, 100.000000
1141, 63.268375, 4.963701, 100.000000
1142, 3.398326, 1.702999, 100.000000
1143, 3.398326, 4.963701, 100.000000
1144, 50.025475, 5.033839, 100.000000
1145, 46.719620, 3.451527, 100.000000
1146, 11.139578, 3.468877, 100.000000
1147, 18.209944, 3.577023, 100.000000
1148, 21.136862, 5.034073, 100.000000
1149, 15.121262, 3.570576, 100.000000
1150, 42.222244, 3.333350, 100.000000
1151, 53.333359, 3.333350, 100.000000
1152, 55.555584, 3.333350, 100.000000
1153, 44.473465, 3.380641, 100.000000
1154, 40.000019, 3.333350, 100.000000
1155, 33.333351, 3.333350, 100.000000
1156, 8.912067, 3.384944, 100.000000
1157, 6.669859, 3.344202, 100.000000
1158, 24.444456, 3.333350, 100.000000
1159, 37.777798, 3.333350, 100.000000
1160, 26.666679, 3.333350, 100.000000
1161, 35.555573, 3.333350, 100.000000
1162, 57.777805, 3.333350, 100.000000
1163, 28.888903, 3.333350, 100.000000
1164, 60.000031, 3.333350, 100.000000
1165, 31.111126, 3.333350, 100.000000
1166, 47.821072, 5.043922, 100.000000
1167, 51.111137, 3.327623, 100.000000
1168, 18.914753, 5.202120, 100.000000
1169, 14.418073, 5.197534, 100.000000
1170, 12.227826, 5.141042, 100.000000
1171, 22.222233, 3.327623, 100.000000
1172, 62.223476, 3.333350, 100.000000
1173, 4.456052, 3.333350, 100.000000
1174, 65.039917, 1.626789, 100.000000
1175, 1.626787, 1.626789, 100.000000
1176, 1.626787, 5.039911, 100.000000
1177, 65.039917, 5.039911, 100.000000
1178, 61.085026, 6.666700, 97.893135
1179, 5.581673, 6.666700, 97.893135
1180, 5.000462, 6.666700, 1.618998
1181, 61.667625, 6.666700, 1.619458
1182, 64.532104, 6.666700, 92.063789
1183, 2.134594, 6.666700, 92.063789
1184, 58.566681, 6.666700, 7.682793
1185, 8.099426, 6.666700, 7.680861
1186, 58.599075, 6.666700, 11.850667
1187, 8.087172, 6.666700, 12.071684
1188, 8.073589, 6.666700, 16.470041
1189, 58.567730, 6.666700, 16.463415
1190, 58.611603, 6.666700, 20.864195
1191, 8.059595, 6.666700, 20.868937
1192, 58.510181, 6.666700, 25.201387
1193, 8.045568, 6.666700, 25.267942
1194, 58.620129, 6.666700, 29.571478
1195, 8.038693, 6.666700, 29.481936
1196, 58.621273, 6.666700, 33.964283
1197, 8.048374, 6.666700, 33.969303
1198, 58.621891, 6.666700, 38.361374
1199, 8.045627, 6.666700, 38.361984
1200, 58.614208, 6.666700, 42.754177
1201, 8.052557, 6.666700, 42.754883
1202, 58.127361, 6.666700, 47.212517
1203, 8.539677, 6.666700, 47.213367
1204, 58.594734, 6.666700, 51.480862
1205, 8.071967, 6.666700, 51.480862
1206, 58.775375, 6.666700, 55.869389
1207, 7.891324, 6.666700, 55.869389
1208, 7.968075, 6.666700, 60.178188
1209, 58.501587, 6.666700, 60.395256
1210, 8.174736, 6.666700, 64.996780
1211, 58.477074, 6.666700, 65.030525
1212, 58.635239, 6.666700, 69.086983
1213, 8.031462, 6.666700, 69.086983
1214, 58.710648, 6.666700, 73.500237
1215, 7.956054, 6.666700, 73.500237
1216, 8.063699, 6.666700, 78.061646
1217, 58.603001, 6.666700, 78.061646
1218, 58.456596, 6.666700, 82.318359
1219, 8.210103, 6.666700, 82.318359
1220, 8.127769, 6.666700, 86.700081
1221, 58.538933, 6.666700, 86.700081
1222, 56.663441, 6.666700, 97.942215
1223, 10.004568, 6.666700, 97.892410
1224, 52.220856, 6.666700, 97.938850
1225, 14.445848, 6.666700, 97.941353
1226, 47.675335, 6.666700, 98.048927
1227, 18.892397, 6.666700, 98.039337
1228, 43.333466, 6.666700, 98.162254
1229, 23.333345, 6.666700, 98.075500
1230, 38.892441, 6.666700, 98.087570
1231, 27.769037, 6.666700, 97.993713
1232, 34.448502, 6.666700, 98.024231
1233, 31.111126, 6.666700, 91.924500
1234, 64.596848, 6.666700, 10.019118
1235, 2.038173, 6.666700, 10.033067
1236, 64.743881, 6.666700, 14.442022
1237, 1.924501, 6.666700, 14.444445
1238, 64.742592, 6.666700, 18.885534
1239, 1.924501, 6.666700, 18.888889
1240, 64.742203, 6.666700, 23.333334
1241, 1.924501, 6.666700, 23.333334
1242, 64.743622, 6.666700, 27.781212
1243, 1.899719, 6.666700, 27.865410
1244, 64.744362, 6.666700, 32.223846
1245, 1.924501, 6.666700, 32.222221
1246, 64.743813, 6.666700, 36.670101
1247, 1.924501, 6.666700, 36.666668
1248, 64.744362, 6.666700, 41.112736
1249, 1.923037, 6.666700, 41.113926
1250, 64.749435, 6.666700, 45.543552
1251, 1.917263, 6.666700, 45.544205
1252, 64.742203, 6.666700, 50.000000
1253, 1.924501, 6.666700, 50.000000
1254, 64.744080, 6.666700, 54.441681
1255, 1.922621, 6.666700, 54.441681
1256, 64.832787, 6.666700, 58.887787
1257, 1.803820, 6.666700, 58.886189
1258, 1.959701, 6.666700, 63.192375
1259, 64.652435, 6.666700, 63.228912
1260, 64.472565, 6.666700, 67.648254
1261, 2.194134, 6.666700, 67.648254
1262, 64.743172, 6.666700, 72.220123
1263, 1.923526, 6.666700, 72.220123
1264, 64.762077, 6.666700, 76.674225
1265, 1.904626, 6.666700, 76.674553
1266, 1.808927, 6.666700, 81.172691
1267, 64.857773, 6.666700, 81.172035
1268, 1.924501, 6.666700, 85.555557
1269, 64.742203, 6.666700, 85.555557
1270, 55.554676, 6.666700, 91.913170
1271, 57.766621, 6.666700, 91.914810
1272, 11.112023, 6.666700, 91.913170
1273, 8.900080, 6.666700, 91.914810
1274, 17.831110, 6.666700, 91.949860
1275, 48.806049, 6.666700, 91.990028
1276, 22.272299, 6.666700, 92.051765
1277, 44.397743, 6.666700, 91.815163
1278, 26.641563, 6.666700, 91.964310
1279, 40.027279, 6.666700, 92.044067
1280, 35.580688, 6.666700, 91.964310
1281, 2.019382, 6.666700, 5.493961
1282, 64.648842, 6.666700, 5.497161
1283, 10.010154, 6.666700, 93.831329
1284, 12.223918, 6.666700, 93.826515
1285, 7.796363, 6.666700, 93.831688
1286, 6.690061, 6.666700, 91.913132
1287, 5.631860, 6.666700, 93.801674
1288, 56.656548, 6.666700, 93.831329
1289, 54.442783, 6.666700, 93.826515
1290, 58.870338, 6.666700, 93.831688
1291, 59.976639, 6.666700, 91.913132
1292, 61.034840, 6.666700, 93.801674
1293, 64.742203, 6.666700, 96.666664
1294, 1.924501, 6.666700, 96.666664
1295, 58.676228, 6.666700, 3.212998
1296, 7.992459, 6.666700, 3.210757
1297, 4.513626, 6.666700, 91.903084
1298, 5.569444, 6.666700, 90.005165
1299, 3.410272, 6.666700, 90.020721
1300, 4.612701, 6.666700, 88.033760
1301, 62.153072, 6.666700, 91.903084
1302, 61.097256, 6.666700, 90.005165
1303, 63.256428, 6.666700, 90.020721
1304, 62.053997, 6.666700, 88.033760
1305, 55.547684, 6.666700, 95.793472
1306, 53.329998, 6.666700, 95.797066
1307, 52.163288, 6.666700, 93.870430
1308, 51.066467, 6.666700, 95.792526
1309, 11.119246, 6.666700, 95.790077
1310, 13.336750, 6.666700, 95.801819
1311, 14.446301, 6.666700, 93.837944
1312, 15.557967, 6.666700, 95.813721
1313, 59.972683, 6.666700, 95.791359
1314, 62.542385, 6.666700, 95.769875
1315, 6.694015, 6.666700, 95.791359
1316, 4.124313, 6.666700, 95.769875
1317, 2.189271, 6.666700, 87.971703
1318, 64.477432, 6.666700, 87.971703
1319, 16.668467, 6.666700, 97.862335
1320, 17.842554, 6.666700, 95.944107
1321, 20.102589, 6.666700, 96.101845
1322, 18.974928, 6.666700, 94.009888
1323, 21.154213, 6.666700, 94.034882
1324, 49.921734, 6.666700, 97.961716
1325, 48.587032, 6.666700, 96.012421
1326, 46.397686, 6.666700, 96.285339
1327, 47.157948, 6.666700, 94.271751
1328, 45.321869, 6.666700, 94.783974
1329, 7.790233, 6.666700, 97.888153
1330, 58.880180, 6.666700, 97.845978
1331, 12.225145, 6.666700, 97.904274
1332, 54.441822, 6.666700, 97.911934
1333, 49.657307, 6.666700, 94.030655
1334, 58.580246, 6.666700, 5.474502
1335, 60.463928, 6.666700, 6.581583
1336, 60.428337, 6.666700, 8.710121
1337, 62.366043, 6.666700, 7.677847
1338, 62.360027, 6.666700, 5.484426
1339, 62.156502, 6.666700, 9.933155
1340, 60.569897, 6.666700, 4.517033
1341, 8.088245, 6.666700, 5.471154
1342, 6.208474, 6.666700, 6.569507
1343, 6.192497, 6.666700, 8.764954
1344, 4.298343, 6.666700, 7.650008
1345, 4.318362, 6.666700, 5.456764
1346, 4.277497, 6.666700, 9.845696
1347, 1.731412, 6.666700, 7.727122
1348, 64.880066, 6.666700, 7.749251
1349, 64.933792, 6.666700, 3.136791
1350, 1.734670, 6.666700, 3.135859
1351, 6.101718, 6.666700, 4.507504
1352, 6.176962, 6.666700, 10.963749
1353, 4.252825, 6.666700, 12.050289
1354, 6.163218, 6.666700, 13.165090
1355, 4.202068, 6.666700, 14.178389
1356, 6.143152, 6.666700, 15.355685
1357, 4.179657, 6.666700, 16.383263
1358, 6.129049, 6.666700, 17.555998
1359, 4.160609, 6.666700, 18.592073
1360, 6.102492, 6.666700, 19.777367
1361, 4.139510, 6.666700, 20.802065
1362, 6.099200, 6.666700, 21.966413
1363, 4.121018, 6.666700, 23.010761
1364, 6.062087, 6.666700, 24.196110
1365, 4.062994, 6.666700, 25.166725
1366, 6.056339, 6.666700, 26.243067
1367, 2.043660, 6.666700, 12.301065
1368, 1.995536, 6.666700, 16.666666
1369, 1.956938, 6.666700, 21.111111
1370, 46.666695, 6.666700, 92.097603
1371, 2.019014, 6.666700, 69.908058
1372, 3.909803, 6.666700, 71.024834
1373, 3.896880, 6.666700, 73.385422
1374, 5.759928, 6.666700, 72.217827
1375, 5.792732, 6.666700, 74.493286
1376, 5.986454, 6.666700, 69.987709
1377, 7.967054, 6.666700, 75.795471
1378, 5.730201, 6.666700, 77.133270
1379, 6.326008, 6.666700, 79.364082
1380, 4.320877, 6.666700, 78.826324
1381, 4.836248, 6.666700, 80.897957
1382, 3.769365, 6.666700, 75.595016
1383, 7.955649, 6.666700, 71.245949
1384, 6.289140, 6.666700, 67.835968
1385, 4.170480, 6.666700, 68.785400
1386, 4.624333, 6.666700, 66.307564
1387, 2.139629, 6.666700, 65.375076
1388, 4.059606, 6.666700, 63.991154
1389, 3.652656, 6.666700, 61.850502
1390, 5.673833, 6.666700, 62.476295
1391, 4.989810, 6.666700, 60.793434
1392, 1.925462, 6.666700, 74.443039
1393, 64.647682, 6.666700, 69.908058
1394, 62.756897, 6.666700, 71.024834
1395, 62.769821, 6.666700, 73.385422
1396, 60.906773, 6.666700, 72.217827
1397, 60.873970, 6.666700, 74.493286
1398, 60.680248, 6.666700, 69.987709
1399, 58.699646, 6.666700, 75.795471
1400, 60.936501, 6.666700, 77.133270
1401, 60.340691, 6.666700, 79.364082
1402, 62.345821, 6.666700, 78.826088
1403, 61.830452, 6.666700, 80.897957
1404, 62.897335, 6.666700, 75.594963
1405, 58.711052, 6.666700, 71.245949
1406, 60.372253, 6.666700, 67.848251
1407, 62.495335, 6.666700, 68.787445
1408, 62.059517, 6.666700, 66.378067
1409, 64.501678, 6.666700, 65.414711
1410, 62.576866, 6.666700, 64.084267
1411, 62.952320, 6.666700, 61.916367
1412, 60.868099, 6.666700, 62.603668
1413, 61.333439, 6.666700, 60.604687
1414, 64.741241, 6.666700, 74.443024
1415, 64.673912, 6.666700, 52.133591
1416, 62.742329, 6.666700, 53.228394
1417, 62.809242, 6.666700, 55.528896
1418, 60.863716, 6.666700, 54.493134
1419, 60.903751, 6.666700, 56.647213
1420, 60.607197, 6.666700, 52.272133
1421, 59.014736, 6.666700, 58.191261
1422, 62.927563, 6.666700, 57.715752
1423, 58.695736, 6.666700, 53.612747
1424, 60.351124, 6.666700, 49.912537
1425, 62.511162, 6.666700, 50.643185
1426, 61.768116, 6.666700, 48.465824
1427, 1.992788, 6.666700, 52.133591
1428, 3.924370, 6.666700, 53.228394
1429, 3.857459, 6.666700, 55.528896
1430, 5.802986, 6.666700, 54.493134
1431, 5.762949, 6.666700, 56.647213
1432, 6.059502, 6.666700, 52.272133
1433, 7.755739, 6.666700, 57.987541
1434, 3.723976, 6.666700, 57.707417
1435, 7.970963, 6.666700, 53.612747
1436, 6.315859, 6.666700, 49.913242
1437, 4.155632, 6.666700, 50.643379
1438, 4.898582, 6.666700, 48.465824
1439, 1.878301, 6.666700, 83.387718
1440, 3.925343, 6.666700, 84.467117
1441, 64.788399, 6.666700, 83.387611
1442, 62.741356, 6.666700, 84.467102
1443, 64.743881, 6.666700, 43.331352
1444, 62.829849, 6.666700, 44.426655
1445, 62.825737, 6.666700, 42.219795
1446, 62.824139, 6.666700, 40.007442
1447, 60.880695, 6.666700, 41.164494
1448, 60.852467, 6.666700, 39.007828
1449, 62.815231, 6.666700, 37.804798
1450, 60.874382, 6.666700, 36.748531
1451, 60.907829, 6.666700, 43.325577
1452, 61.108971, 6.666700, 45.326969
1453, 1.922850, 6.666700, 43.331638
1454, 3.835875, 6.666700, 44.430485
1455, 3.841698, 6.666700, 42.224091
1456, 3.845107, 6.666700, 40.011101
1457, 5.787519, 6.666700, 41.170799
1458, 5.818218, 6.666700, 39.013130
1459, 3.857708, 6.666700, 37.813084
1460, 5.812102, 6.666700, 36.780670
1461, 3.861134, 6.666700, 35.597565
1462, 5.832547, 6.666700, 34.602146
1463, 3.867471, 6.666700, 33.388107
1464, 5.825568, 6.666700, 32.365673
1465, 3.869726, 6.666700, 31.170000
1466, 5.992929, 6.666700, 30.348537
1467, 3.958922, 6.666700, 29.129265
1468, 64.744705, 6.666700, 34.444962
1469, 62.824883, 6.666700, 33.333965
1470, 62.823997, 6.666700, 31.119061
1471, 60.880051, 6.666700, 32.284756
1472, 60.866257, 6.666700, 30.102867
1473, 60.827953, 6.666700, 34.613419
1474, 62.817291, 6.666700, 28.913315
1475, 60.861439, 6.666700, 27.894716
1476, 62.814335, 6.666700, 35.578617
1477, 64.743851, 6.666700, 16.663933
1478, 62.823647, 6.666700, 17.773457
1479, 62.857895, 6.666700, 19.926922
1480, 60.873005, 6.666700, 18.955187
1481, 61.109993, 6.666700, 21.264118
1482, 59.760815, 6.666700, 22.636700
1483, 61.272339, 6.666700, 23.401270
1484, 60.869194, 6.666700, 16.750818
1485, 64.785286, 6.666700, 21.032295
1486, 64.760941, 6.666700, 12.296349
1487, 62.863441, 6.666700, 13.421829
1488, 62.823082, 6.666700, 15.585351
1489, 60.860481, 6.666700, 14.545688
1490, 60.896046, 6.666700, 12.260004
1491, 64.767647, 6.666700, 25.597265
1492, 62.839695, 6.666700, 26.745243
1493, 60.768867, 6.666700, 25.655897
1494, 1.814819, 6.666700, 47.764912
1495, 64.852051, 6.666700, 47.764481
1496, 2.101665, 6.666700, 78.857269
1497, 64.565033, 6.666700, 78.857094
1498, 1.923382, 6.666700, 38.893215
1499, 1.942145, 6.666700, 30.064484
1500, 5.758860, 6.666700, 43.334801
1501, 5.557870, 6.666700, 45.330433
1502, 1.922720, 6.666700, 34.447529
1503, 64.690887, 6.666700, 94.507072
1504, 1.975811, 6.666700, 94.507072
1505, 1.923287, 6.666700, 25.612698
1506, 7.928148, 6.666700, 40.512966
1507, 58.979237, 6.666700, 90.062271
1508, 7.687462, 6.666700, 90.062271
1509, 58.739048, 6.666700, 40.511868
1510, 1.884646, 6.666700, 56.649586
1511, 64.774513, 6.666700, 56.651241
1512, 64.744560, 6.666700, 38.894115
1513, 64.744942, 6.666700, 30.004745
1514, 58.731949, 6.666700, 36.118282
1515, 21.116373, 6.666700, 98.062897
1516, 8.902430, 6.666700, 95.837502
1517, 57.765144, 6.666700, 95.839340
1518, 28.835518, 6.666700, 91.960327
1519, 29.941919, 6.666700, 93.884163
1520, 32.261753, 6.666700, 93.884056
1521, 31.110359, 6.666700, 95.844086
1522, 33.350899, 6.666700, 95.813484
1523, 28.819679, 6.666700, 95.980888
1524, 32.226379, 6.666700, 97.881943
1525, 35.659191, 6.666700, 96.076698
1526, 34.739651, 6.666700, 94.024132
1527, 36.902954, 6.666700, 94.256439
1528, 37.816250, 6.666700, 92.151863
1529, 29.987581, 6.666700, 97.950104
1530, 26.553665, 6.666700, 96.099518
1531, 27.677366, 6.666700, 94.031441
1532, 25.513094, 6.666700, 94.070457
1533, 24.442953, 6.666700, 92.055672
1534, 36.666683, 6.666700, 98.049515
1535, 25.543411, 6.666700, 98.059807
1536, 33.393322, 6.666700, 91.966164
1537, 42.186821, 6.666700, 91.907631
1538, 41.104847, 6.666700, 94.044281
1539, 20.038761, 6.666700, 92.007729
1540, 41.111740, 6.666700, 98.091972
1541, 40.030453, 6.666700, 96.149788
1542, 42.194317, 6.666700, 96.113289
1543, 7.934031, 6.666700, 36.148815
1544, 58.733398, 6.666700, 31.744617
1545, 58.713848, 6.666700, 27.352009
1546, 7.962563, 6.666700, 31.731340
1547, 58.567730, 6.666700, 18.658537
1548, 58.604622, 6.666700, 14.183545
1549, 8.077855, 6.666700, 14.266514
1550, 8.044408, 6.666700, 23.066160
1551, 8.015609, 6.666700, 62.587379
1552, 58.526817, 6.666700, 9.761076
1553, 8.092676, 6.666700, 9.872890
1554, 8.060787, 6.666700, 18.664902
1555, 7.843756, 6.666700, 45.093861
1556, 8.089998, 6.666700, 27.358368
1557, 58.694126, 6.666700, 62.660446
1558, 58.823170, 6.666700, 45.091972
1559, 8.121547, 6.666700, 84.511200
1560, 5.889139, 6.666700, 85.945480
1561, 58.545155, 6.666700, 84.511200
1562, 60.777561, 6.666700, 85.945473
1563, 60.765579, 6.666700, 83.122322
1564, 5.901122, 6.666700, 83.122322
1565, 53.321114, 6.666700, 91.921288
1566, 13.336068, 6.666700, 91.915878
1567, 15.565214, 6.666700, 91.922447
1568, 51.028339, 6.666700, 91.968735
1569, 16.692633, 6.666700, 93.889572
1570, 62.732506, 6.666700, 46.813831
1571, 3.934483, 6.666700, 46.815914
1572, 58.452602, 6.666700, 67.025887
1573, 8.205427, 6.666700, 67.005936
1574, 3.005370, 6.666700, 1.678202
1575, 37.867363, 6.666700, 96.149078
1576, 24.419828, 6.666700, 96.071098
1577, 22.244101, 6.666700, 96.034645
1578, 4.030210, 6.666700, 3.537088
1579, 63.666698, 6.666700, 1.690171
1580, 62.640297, 6.666700, 3.544722
1581, 59.733456, 6.666700, 1.530357
1582, 6.933808, 6.666700, 1.529958
1583, 63.286457, 6.666700, 98.127563
1584, 3.380241, 6.666700, 98.127563
1585, 59.993568, 6.666700, 88.177483
1586, 6.673132, 6.666700, 88.177483
1587, 6.214224, 6.666700, 64.428772
1588, 39.004356, 6.666700, 94.202087
1589, 64.865494, 6.666700, 61.077736
1590, 45.511448, 6.666700, 98.190239
1591, 60.428886, 6.666700, 64.507355
1592, 43.588432, 6.666700, 94.041374
1593, 58.465378, 6.666700, 49.111416
1594, 8.201706, 6.666700, 49.112385
1595, 58.425449, 6.666700, 80.179512
1596, 8.241252, 6.666700, 80.179512
1597, 1.763470, 6.666700, 61.050861
1598, 62.963879, 6.666700, 24.693218
1599, 23.341082, 6.666700, 94.053085
1600, 62.995522, 6.666700, 82.411530
1601, 3.671180, 6.666700, 82.411560
1602, 44.431087, 6.666700, 96.433723
1603, 61.074883, 6.666700, 58.549095
1604, 3.676041, 6.666700, 93.609100
1605, 62.990658, 6.666700, 93.609100
1606, 62.997746, 6.666700, 59.791904
1607, 3.680988, 6.666700, 86.363838
1608, 62.985714, 6.666700, 86.363831
1609, 5.967651, 6.666700, 28.278425
1610, 5.742424, 6.666700, 59.206272
1611, 3.826744, 6.666700, 27.078712
1612, 1.513560, 6.666700, 90.002930
1613, 65.153137, 6.666700, 90.002930
1614, 62.955265, 6.666700, 22.275192
1615, 6.702947, 6.666700, 81.176445
1616, 59.963753, 6.666700, 81.176445
1617, 3.612693, 6.666700, 59.915779
1618, 60.250660, 6.666700, 47.380096
1619, 6.416693, 6.666700, 47.382328
1620, 60.121357, 6.666700, 10.503005
1621, 63.054756, 6.666700, 11.586091
1622, 65.039917, 6.666700, 98.373222
1623, 1.626780, 6.666700, 98.373222
1624, 8.467450, 6.666700, 88.504982
1625, 58.199249, 6.666700, 88.504982
1626, 63.328468, 6.666700, 80.338608
1627, 3.338231, 6.666700, 80.338768
1628, 63.433468, 6.666700, 48.887245
1629, 3.234239, 6.666700, 48.889202
1630, 58.083763, 6.666700, 1.414545
1631, 8.583301, 6.666700, 1.414168
1632, 1.348008, 6.666700, 1.407257
1633, 65.320122, 6.666700, 1.409837
1634, 58.129471, 6.666700, 23.125587
1635, 6.550034, 6.666700, 61.083836
1636, 6.724232, 6.666700, 66.177567
1637, 59.928253, 6.666700, 61.268543
1638, 3.565347, 6.666700, 77.417290
1639, 63.101353, 6.666700, 77.417130
1640, 63.528233, 6.666700, 6.697258
1641, 6.031507, 6.666700, 2.868324
1642, 60.635201, 6.666700, 2.868015
1643, 3.149282, 6.666700, 6.665306
1644, 63.509953, 6.666700, 8.772553
1645, 59.919659, 6.666700, 66.240082
1646, 3.166699, 6.666700, 8.737207
1647, 45.453091, 6.666700, 93.229980
1648, 59.971661, 6.666700, 59.664963
1649, 59.688335, 6.666700, 24.004168
1650, 5.000000, 1.732051, 0.000000
1651, 7.000000, 4.934649, 0.000000
1652, 3.000000, 4.934649, 0.000000
1653, 7.000000, 1.732051, 0.000000
1654, 3.000000, 1.732051, 0.000000
1655, 5.000000, 4.934649, 0.000000
1656, 8.278403, 3.333350, 0.000000
1657, 1.721596, 3.333350, 0.000000
1658, 6.033143, 3.333350, 0.000000
1659, 3.970802, 3.333350, 0.000000
1660, 1.420304, 1.489388, 0.000000
1661, 8.579696, 1.489388, 0.000000
1662, 8.579696, 5.177312, 0.000000
1663, 1.420304, 5.177312, 0.000000
1664, 10.000000, 1.901031, 7.682927
1665, 10.000000, 4.965404, 16.504944
1666, 10.000000, 1.901031, 12.073171
1667, 10.000000, 1.901031, 84.512192
1668, 10.000000, 1.901031, 71.341461
1669, 10.000000, 1.851812, 66.966354
1670, 10.000000, 1.867464, 80.063812
1671, 10.000000, 1.822191, 20.853659
1672, 10.000000, 4.765668, 31.829268
1673, 10.000000, 4.814888, 75.716576
1674, 10.000000, 1.901031, 38.414635
1675, 10.000000, 1.901031, 47.195122
1676, 10.000000, 1.901031, 55.975609
1677, 10.000000, 4.844509, 62.560974
1678, 10.000000, 1.901031, 25.243902
1679, 10.000000, 4.765668, 51.585365
1680, 10.000000, 4.765668, 42.804878
1681, 10.000000, 3.333350, 2.023097
1682, 10.000000, 3.333350, 87.976906
1683, 10.000000, 4.765668, 5.487805
1684, 10.000000, 4.765668, 9.878049
1685, 10.000000, 4.965404, 82.275543
1686, 10.000000, 4.765668, 69.146339
1687, 10.000000, 1.901031, 29.634146
1688, 10.000000, 4.765668, 58.170731
1689, 10.000000, 4.814888, 23.063915
1690, 10.000000, 1.901031, 34.024391
1691, 10.000000, 4.765668, 36.219513
1692, 10.000000, 1.851812, 60.350719
1693, 10.000000, 4.765668, 27.439024
1694, 10.000000, 1.789346, 16.521555
1695, 10.000000, 4.765668, 47.195122
1696, 10.000000, 1.901031, 75.731705
1697, 10.000000, 1.901031, 51.585365
1698, 10.000000, 1.901031, 42.804878
1699, 10.000000, 4.765668, 53.780487
1700, 10.000000, 4.765668, 71.341461
1701, 10.000000, 1.816597, 77.917137
1702, 10.000000, 3.469921, 78.896805
1703, 10.000000, 4.765668, 45.000000
1704, 10.000000, 1.901031, 69.146339
1705, 10.000000, 1.901031, 53.780487
1706, 10.000000, 4.765668, 40.609756
1707, 10.000000, 4.765668, 29.634146
1708, 10.000000, 1.901031, 45.000000
1709, 10.000000, 1.901031, 58.170731
1710, 10.000000, 1.901031, 73.536583
1711, 10.000000, 4.765668, 73.536583
1712, 10.000000, 1.901031, 36.219513
1713, 10.000000, 1.901031, 40.609756
1714, 10.000000, 4.834738, 14.270815
1715, 10.000000, 4.809335, 12.073280
1716, 10.000000, 1.901031, 5.487805
1717, 10.000000, 1.837310, 14.271824
1718, 10.000000, 4.765668, 25.243902
1719, 10.000000, 4.765668, 38.414635
1720, 10.000000, 1.901031, 9.878049
1721, 10.000000, 1.856753, 23.048780
1722, 10.000000, 1.835710, 18.726366
1723, 10.000000, 3.465561, 19.883682
1724, 10.000000, 4.765668, 34.024391
1725, 10.000000, 1.901031, 31.829268
1726, 10.000000, 4.857649, 64.756096
1727, 10.000000, 2.854385, 63.658535
1728, 10.000000, 4.765668, 55.975609
1729, 10.000000, 4.809947, 60.365852
1730, 10.000000, 1.901031, 27.439024
1731, 10.000000, 1.783751, 82.249245
1732, 10.000000, 4.908052, 84.493942
1733, 10.000000, 4.810517, 66.951218
1734, 10.000000, 4.765668, 49.390244
1735, 10.000000, 1.901031, 49.390244
1736, 10.000000, 4.765668, 7.682927
1737, 10.000000, 1.699840, 3.353426
1738, 10.000000, 4.966860, 3.353426
1739, 10.000000, 1.699840, 86.646576
1740, 10.000000, 4.990591, 86.643532
1741, 10.000000, 5.030990, 77.903046
1742, 10.000000, 1.608775, 62.118923
1743, 10.000000, 3.438014, 17.610157
1744, 10.000000, 5.030263, 20.877445
1745, 10.000000, 1.608775, 65.198151
1746, 10.000000, 3.443100, 81.170334
1747, 10.000000, 3.333350, 50.487804
1748, 10.000000, 3.333350, 10.975610
1749, 10.000000, 3.341519, 13.171759
1750, 10.000000, 3.333350, 70.243904
1751, 10.000000, 3.367722, 15.391842
1752, 10.000000, 3.389115, 83.383522
1753, 10.000000, 3.333350, 68.048782
1754, 10.000000, 3.333350, 54.878048
1755, 10.000000, 3.333350, 43.902439
1756, 10.000000, 3.333350, 48.292683
1757, 10.000000, 3.333350, 39.512196
1758, 10.000000, 3.333350, 37.317074
1759, 10.000000, 3.333350, 28.536585
1760, 10.000000, 3.333350, 26.341463
1761, 10.000000, 3.333350, 32.926830
1762, 10.000000, 3.333350, 72.439026
1763, 10.000000, 3.333350, 24.146341
1764, 10.000000, 3.333350, 59.268291
1765, 10.000000, 3.333350, 30.731707
1766, 10.000000, 3.333350, 52.682926
1767, 10.000000, 3.333350, 41.707317
1768, 10.000000, 3.333350, 35.121952
1769, 10.000000, 3.333350, 57.073170
1770, 10.000000, 3.333350, 46.097561
1771, 10.000000, 3.333350, 74.634148
1772, 10.000000, 3.333350, 8.780488
1773, 10.000000, 3.333350, 6.585366
1774, 10.000000, 5.040469, 80.081604
1775, 10.000000, 3.294580, 65.881424
1776, 10.000000, 5.038774, 18.698883
1777, 10.000000, 3.329021, 21.951220
1778, 10.000000, 3.293747, 61.435646
1779, 10.000000, 3.329021, 76.829269
1780, 10.000000, 3.333350, 4.395352
1781, 10.000000, 3.342976, 85.602371
1782, 10.000000, 1.631309, 1.624178
1783, 10.000000, 5.035391, 1.624178
1784, 10.000000, 1.631309, 88.375824
1785, 10.000000, 5.035391, 88.375824
1786, 31.111126, 1.924502, 90.000000
1787, 35.618488, 1.888178, 90.000000
1788, 40.016399, 4.796148, 90.000000
1789, 26.621740, 1.704216, 90.000000
1790, 44.444469, 1.924502, 90.000000
1791, 19.983629, 1.870552, 90.000000
1792, 15.555559, 1.924502, 90.000000
1793, 51.111141, 1.924502, 90.000000
1794, 54.581810, 3.333350, 90.000000
1795, 12.084891, 3.333350, 90.000000
1796, 33.378288, 4.962484, 90.000000
1797, 46.666695, 4.742198, 90.000000
1798, 28.888903, 4.742198, 90.000000
1799, 24.381540, 4.778522, 90.000000
1800, 17.777782, 4.742198, 90.000000
1801, 40.000023, 1.924502, 90.000000
1802, 51.111141, 4.742198, 90.000000
1803, 46.666695, 1.924502, 90.000000
1804, 48.888916, 1.924502, 90.000000
1805, 37.788284, 1.831551, 90.000000
1806, 36.804749, 3.483689, 90.000000
1807, 48.888916, 4.742198, 90.000000
1808, 42.222244, 4.742198, 90.000000
1809, 22.211744, 4.835149, 90.000000
1810, 23.195280, 3.183011, 90.000000
1811, 28.886173, 1.848482, 90.000000
1812, 26.593279, 4.870518, 90.000000
1813, 17.777782, 1.924502, 90.000000
1814, 15.555559, 4.742198, 90.000000
1815, 33.406750, 1.796182, 90.000000
1816, 31.113855, 4.818218, 90.000000
1817, 19.999552, 4.791222, 90.000000
1818, 44.444469, 4.742198, 90.000000
1819, 42.222244, 1.924502, 90.000000
1820, 53.268372, 4.963701, 90.000000
1821, 53.268372, 1.702999, 90.000000
1822, 13.398327, 4.963701, 90.000000
1823, 13.398327, 1.702999, 90.000000
1824, 34.497681, 3.454577, 90.000000
1825, 37.803539, 5.034073, 90.000000
1826, 22.196491, 1.632627, 90.000000
1827, 25.502348, 3.212123, 90.000000
1828, 30.000013, 3.333350, 90.000000
1829, 41.111134, 3.333350, 90.000000
1830, 27.748743, 3.285148, 90.000000
1831, 32.251286, 3.381552, 90.000000
1832, 43.333359, 3.333350, 90.000000
1833, 18.888895, 3.333350, 90.000000
1834, 16.666672, 3.333350, 90.000000
1835, 45.555580, 3.333350, 90.000000
1836, 50.000027, 3.333350, 90.000000
1837, 47.777805, 3.333350, 90.000000
1838, 35.599236, 5.044704, 90.000000
1839, 38.888908, 3.327623, 90.000000
1840, 24.400795, 1.621996, 90.000000
1841, 21.111118, 3.339077, 90.000000
1842, 14.451378, 3.333350, 90.000000
1843, 52.223476, 3.333350, 90.000000
1844, 11.626787, 5.039911, 90.000000
1845, 11.626787, 1.626789, 90.000000
1846, 55.039913, 5.039911, 90.000000
1847, 55.039913, 1.626789, 90.000000
1848, 56.666698, 4.799236, 7.741067
1849, 56.666698, 4.965404, 16.504944
1850, 56.666698, 1.851812, 12.088305
1851, 56.666698, 1.901031, 84.512192
1852, 56.666698, 4.965404, 71.299934
1853, 56.666698, 1.822191, 66.951218
1854, 56.666698, 1.867464, 80.063812
1855, 56.666698, 1.822191, 20.853659
1856, 56.666698, 4.765668, 31.829268
1857, 56.666698, 4.814888, 75.716576
1858, 56.666698, 1.901031, 47.195122
1859, 56.666698, 1.901031, 38.414635
1860, 56.666698, 1.701296, 56.017139
1861, 56.666698, 1.851812, 62.576111
1862, 56.666698, 1.901031, 25.243902
1863, 56.666698, 4.765668, 51.585365
1864, 56.666698, 4.765668, 42.804878
1865, 56.666698, 3.333350, 2.023097
1866, 56.666698, 3.333350, 87.976906
1867, 56.666698, 1.611592, 5.564580
1868, 56.666698, 4.965404, 82.275543
1869, 56.666698, 1.901031, 29.634146
1870, 56.666698, 1.901031, 73.536583
1871, 56.666698, 4.799236, 58.228870
1872, 56.666698, 4.814888, 64.740967
1873, 56.666698, 4.814888, 23.063915
1874, 56.666698, 1.901031, 34.024391
1875, 56.666698, 4.765668, 36.219513
1876, 56.666698, 4.765668, 27.439024
1877, 56.666698, 1.789346, 16.521555
1878, 56.666698, 4.765668, 12.073171
1879, 56.666698, 4.765668, 47.195122
1880, 56.666698, 1.901031, 51.585365
1881, 56.666698, 1.901031, 42.804878
1882, 56.666698, 4.765668, 62.560974
1883, 56.666698, 1.816597, 77.917137
1884, 56.666698, 3.469921, 78.896805
1885, 56.666698, 4.850103, 60.375546
1886, 56.666698, 3.196779, 59.395878
1887, 56.666698, 4.765668, 53.780487
1888, 56.666698, 4.765668, 45.000000
1889, 56.666698, 1.854324, 69.088203
1890, 56.666698, 3.468663, 67.922813
1891, 56.666698, 1.781561, 71.273636
1892, 56.666698, 1.831962, 53.783009
1893, 56.666698, 4.765668, 40.609756
1894, 56.666698, 4.765668, 29.634146
1895, 56.666698, 1.783751, 82.249245
1896, 56.666698, 1.901031, 45.000000
1897, 56.666698, 1.901031, 36.219513
1898, 56.666698, 1.901031, 40.609756
1899, 56.666698, 4.866551, 73.531769
1900, 56.666698, 4.834738, 14.270815
1901, 56.666698, 4.892759, 5.574271
1902, 56.666698, 1.807636, 14.274524
1903, 56.666698, 4.765668, 25.243902
1904, 56.666698, 4.765668, 38.414635
1905, 56.666698, 1.856753, 23.048780
1906, 56.666698, 1.835710, 18.726366
1907, 56.666698, 3.465561, 19.883682
1908, 56.666698, 4.850103, 9.887739
1909, 56.666698, 3.196779, 8.908072
1910, 56.666698, 4.765668, 34.024391
1911, 56.666698, 1.836052, 64.757019
1912, 56.666698, 1.901031, 31.829268
1913, 56.666698, 4.882949, 56.043438
1914, 56.666698, 1.901031, 27.439024
1915, 56.666698, 4.908052, 84.493942
1916, 56.666698, 1.856510, 75.731285
1917, 56.666698, 4.765668, 49.390244
1918, 56.666698, 1.901031, 49.390244
1919, 56.666698, 4.988042, 3.367837
1920, 56.666698, 1.651600, 3.366223
1921, 56.666698, 1.699840, 86.646576
1922, 56.666698, 4.990591, 86.643532
1923, 56.666698, 5.030990, 77.903046
1924, 56.666698, 3.440336, 70.194992
1925, 56.666698, 1.635710, 9.901835
1926, 56.666698, 3.438014, 17.610157
1927, 56.666698, 5.030263, 20.877445
1928, 56.666698, 1.635710, 60.389641
1929, 56.666698, 5.030780, 66.927704
1930, 56.666698, 3.223600, 57.122353
1931, 56.666698, 3.443100, 81.170334
1932, 56.666698, 3.210284, 6.645172
1933, 56.666698, 3.321814, 13.174713
1934, 56.666698, 3.333350, 50.487804
1935, 56.666698, 3.359492, 15.392784
1936, 56.666698, 3.389115, 83.383522
1937, 56.666698, 3.289804, 54.904892
1938, 56.666698, 3.333350, 43.902439
1939, 56.666698, 3.333350, 48.292683
1940, 56.666698, 3.333350, 39.512196
1941, 56.666698, 3.333350, 37.317074
1942, 56.666698, 3.333350, 28.536585
1943, 56.666698, 3.333350, 26.341463
1944, 56.666698, 3.333350, 32.926830
1945, 56.666698, 3.381372, 72.411842
1946, 56.666698, 3.333350, 24.146341
1947, 56.666698, 3.333350, 30.731707
1948, 56.666698, 3.323774, 52.685425
1949, 56.666698, 3.333350, 41.707317
1950, 56.666698, 3.333350, 35.121952
1951, 56.666698, 3.333350, 46.097561
1952, 56.666698, 3.333350, 63.658535
1953, 56.666698, 3.358229, 74.626221
1954, 56.666698, 5.040469, 80.081604
1955, 56.666698, 3.329021, 65.853661
1956, 56.666698, 5.039764, 69.106354
1957, 56.666698, 3.337679, 10.975610
1958, 56.666698, 5.038774, 18.698883
1959, 56.666698, 1.626231, 58.211079
1960, 56.666698, 3.329021, 21.951220
1961, 56.666698, 3.329021, 76.829269
1962, 56.666698, 3.337679, 61.463413
1963, 56.666698, 1.609061, 7.730919
1964, 56.666698, 3.319793, 4.406209
1965, 56.666698, 3.342976, 85.602371
1966, 56.666698, 5.035391, 1.624178
1967, 56.666698, 1.631309, 1.624178
1968, 56.666698, 1.631309, 88.375824
1969, 56.666698, 5.035391, 88.375824
1970, 61.666698, 1.732051, 0.000000
1971, 63.666698, 4.934649, 0.000000
1972, 59.666698, 4.934649, 0.000000
1973, 63.666698, 1.732051, 0.000000
1974, 59.666698, 1.732051, 0.000000
1975, 61.666698, 4.934649, 0.000000
1976, 64.945107, 3.333350, 0.000000
1977, 58.388298, 3.333350, 0.000000
1978, 62.690372, 3.333350, 0.000000
1979, 60.666698, 3.333350, 0.000000
1980, 65.246399, 1.489388, 0.000000
1981, 58.087006, 1.489388, 0.000000
1982, 65.246399, 5.177312, 0.000000
1983, 58.087006, 5.177312, 0.000000
1984, 66.666702, 1.870551, 72.205849
1985, 66.666702, 1.704216, 78.843948
1986, 66.666702, 1.924501, 87.777779
1987, 66.666702, 1.924501, 94.444443
1988, 66.666702, 4.742199, 83.333336
1989, 66.666702, 1.924501, 21.111111
1990, 66.666702, 1.704216, 16.621727
1991, 66.666702, 1.870551, 9.983623
1992, 66.666702, 4.742199, 27.777779
1993, 66.666702, 4.742199, 32.222221
1994, 66.666702, 4.829095, 36.666668
1995, 66.666702, 1.924501, 5.555555
1996, 66.666702, 1.924501, 54.444443
1997, 66.666702, 4.742199, 45.555557
1998, 66.666702, 4.742199, 58.888889
1999, 66.666702, 1.870551, 41.127487
2000, 66.666702, 1.924501, 50.000000
2001, 66.666702, 1.924501, 63.333332
2002, 66.666702, 1.924501, 67.777779
2003, 66.666702, 3.333350, 97.915108
2004, 66.666702, 3.333350, 2.084890
2005, 66.666702, 4.778522, 76.603752
2006, 66.666702, 4.742199, 70.000000
2007, 66.666702, 4.742199, 52.222221
2008, 66.666702, 4.742199, 90.000000
2009, 66.666702, 4.742199, 18.888889
2010, 66.666702, 4.778522, 14.381530
2011, 66.666702, 1.924501, 30.000000
2012, 66.666702, 4.742199, 7.777778
2013, 66.666702, 4.742199, 23.333334
2014, 66.666702, 1.924501, 25.555555
2015, 66.666702, 1.870551, 34.428066
2016, 66.666702, 4.742199, 65.555557
2017, 66.666702, 4.742199, 94.444443
2018, 66.666702, 1.924501, 83.333336
2019, 66.666702, 1.924501, 58.888889
2020, 66.666702, 1.924501, 45.555557
2021, 66.666702, 4.742199, 41.111111
2022, 66.666702, 4.835149, 74.433960
2023, 66.666702, 3.183012, 75.417496
2024, 66.666702, 4.791223, 72.221764
2025, 66.666702, 1.924501, 70.000000
2026, 66.666702, 4.742199, 63.333332
2027, 66.666702, 4.742199, 87.777779
2028, 66.666702, 1.924501, 52.222221
2029, 66.666702, 4.742199, 61.111111
2030, 66.666702, 4.742199, 81.111115
2031, 66.666702, 4.742199, 85.555557
2032, 66.666702, 4.742199, 43.333332
2033, 66.666702, 1.924501, 43.333332
2034, 66.666702, 1.924501, 85.555557
2035, 66.666702, 1.924501, 61.111111
2036, 66.666702, 4.742199, 50.000000
2037, 66.666702, 4.742199, 47.777779
2038, 66.666702, 1.924501, 27.777779
2039, 66.666702, 4.843578, 38.888889
2040, 66.666702, 2.819188, 37.777779
2041, 66.666702, 1.924501, 65.555557
2042, 66.666702, 1.848481, 18.886160
2043, 66.666702, 4.742199, 30.000000
2044, 66.666702, 1.924501, 7.777778
2045, 66.666702, 4.742199, 10.000000
2046, 66.666702, 4.835149, 12.211737
2047, 66.666702, 3.183012, 13.195271
2048, 66.666702, 4.742199, 21.111111
2049, 66.666702, 4.742199, 54.444443
2050, 66.666702, 4.742199, 5.555555
2051, 66.666702, 4.790960, 34.444443
2052, 66.666702, 4.870519, 16.593267
2053, 66.666702, 4.742199, 25.555555
2054, 66.666702, 1.924501, 23.333334
2055, 66.666702, 1.924501, 32.222221
2056, 66.666702, 1.848481, 81.108383
2057, 66.666702, 1.924501, 56.666668
2058, 66.666702, 4.742199, 56.666668
2059, 66.666702, 1.924501, 47.777779
2060, 66.666702, 1.924501, 90.000000
2061, 66.666702, 4.870519, 78.815491
2062, 66.666702, 4.742199, 67.777779
2063, 66.666702, 1.924501, 92.222221
2064, 66.666702, 4.742199, 92.222221
2065, 66.666702, 4.963702, 96.601677
2066, 66.666702, 1.702998, 96.601677
2067, 66.666702, 4.963702, 3.398325
2068, 66.666702, 1.702998, 3.398325
2069, 66.666702, 1.632627, 74.418701
2070, 66.666702, 1.605763, 39.336609
2071, 66.666702, 1.632627, 12.196483
2072, 66.666702, 3.212124, 15.502337
2073, 66.666702, 1.605763, 36.218948
2074, 66.666702, 3.212124, 77.724556
2075, 66.666702, 3.333350, 88.888885
2076, 66.666702, 3.333350, 46.666668
2077, 66.666702, 3.333350, 91.111115
2078, 66.666702, 3.333350, 60.000000
2079, 66.666702, 3.285148, 79.970955
2080, 66.666702, 3.333350, 28.888889
2081, 66.666702, 3.333350, 86.666664
2082, 66.666702, 3.322787, 82.219521
2083, 66.666702, 3.333350, 20.000000
2084, 66.666702, 3.333350, 24.444445
2085, 66.666702, 3.333350, 44.444443
2086, 66.666702, 3.333350, 31.111111
2087, 66.666702, 3.333350, 22.222221
2088, 66.666702, 3.333350, 57.777779
2089, 66.666702, 3.333350, 42.222221
2090, 66.666702, 3.285148, 17.748730
2091, 66.666702, 3.333350, 33.333332
2092, 66.666702, 3.331589, 84.443993
2093, 66.666702, 3.333350, 55.555557
2094, 66.666702, 3.333350, 6.666667
2095, 66.666702, 3.333350, 8.888889
2096, 66.666702, 3.333350, 93.333336
2097, 66.666702, 3.333350, 68.888885
2098, 66.666702, 3.333350, 26.666666
2099, 66.666702, 3.333350, 66.666664
2100, 66.666702, 3.333350, 62.222221
2101, 66.666702, 3.333350, 51.111111
2102, 66.666702, 3.333350, 53.333332
2103, 66.666702, 3.333350, 64.444443
2104, 66.666702, 3.333350, 48.888889
2105, 66.666702, 3.333350, 71.111115
2106, 66.666702, 1.621996, 76.623009
2107, 66.666702, 3.272278, 35.516090
2108, 66.666702, 1.621996, 14.400784
2109, 66.666702, 3.339077, 11.111111
2110, 66.666702, 3.289282, 40.028187
2111, 66.666702, 3.339077, 73.333336
2112, 66.666702, 3.333350, 4.451374
2113, 66.666702, 3.333350, 95.553116
2114, 66.666702, 5.039910, 98.373215
2115, 66.666702, 1.626790, 98.373215
2116, 66.666702, 1.626790, 1.626787
2117, 66.666702, 5.039910, 1.626787
2118, 60.414810, 3.333350, 60.479336
2119, 3.968835, 3.333350, 60.876198
2120, 44.671143, 3.345518, 94.108589
2121, 59.981255, 3.333350, 23.334038
2122, 4.264787, 3.333350, 8.747633
2123, 62.844372, 3.333350, 63.014133
2124, 63.367214, 3.333350, 7.777778
2125, 59.996380, 3.333350, 82.274910
2126, 6.670320, 3.333350, 82.274910
2127, 4.199300, 3.333350, 79.822769
2128, 62.467293, 3.333350, 79.822632
2129, 5.570793, 3.333350, 12.060678
2130, 60.449139, 3.333350, 9.636406
2131, 63.332363, 3.333350, 47.777779
2132, 63.297737, 3.333350, 58.566174
2133, 3.367391, 3.333350, 41.116863
2134, 6.611124, 3.333350, 90.676422
2135, 60.055576, 3.333350, 90.676422
2136, 6.643418, 3.333350, 5.513224
2137, 6.629624, 3.333350, 23.048777
2138, 63.300499, 3.333350, 41.124763
2139, 6.698222, 3.333350, 67.057014
2140, 63.301884, 3.333350, 32.222221
2141, 34.444462, 3.333350, 96.591583
2142, 19.164473, 3.333350, 96.637329
2143, 23.333338, 3.333350, 96.628403
2144, 38.888908, 3.333350, 96.656670
2145, 63.239155, 3.333350, 92.428482
2146, 3.427546, 3.333350, 92.428482
2147, 60.207741, 3.333350, 46.111668
2148, 3.357561, 3.333350, 36.666668
2149, 60.670498, 3.333350, 5.557191
2150, 6.621102, 3.333350, 16.458950
2151, 6.651574, 3.333350, 45.000000
2152, 3.314701, 3.333350, 47.821667
2153, 63.305332, 3.333350, 54.444443
2154, 3.361368, 3.333350, 54.444439
2155, 14.224637, 3.333350, 96.586128
2156, 56.666695, 3.333350, 96.587761
2157, 30.000015, 3.333350, 96.588409
2158, 63.292892, 3.333350, 16.679283
2159, 8.903185, 3.333350, 93.376419
2160, 63.277409, 3.333350, 72.222229
2161, 3.389295, 3.333350, 72.222221
2162, 3.385559, 3.333350, 32.278564
2163, 62.503407, 3.333350, 12.456470
2164, 3.438514, 3.333350, 87.594002
2165, 63.228188, 3.333350, 87.594002
2166, 63.317440, 3.333350, 36.691505
2167, 52.222240, 3.333350, 96.577576
2168, 59.900570, 3.333350, 66.892654
2169, 15.581426, 3.290126, 93.343407
2170, 40.000187, 3.265992, 93.328392
2171, 63.291988, 3.333350, 27.834068
2172, 57.610458, 3.324090, 93.201736
2173, 22.011190, 3.333350, 93.384949
2174, 47.478313, 3.333350, 96.036194
2175, 10.031213, 3.283858, 96.687294
2176, 3.369468, 3.333350, 83.465164
2177, 63.297256, 3.333350, 83.464882
2178, 62.732361, 3.333350, 21.108282
2179, 60.220299, 3.333350, 57.057518
2180, 6.727087, 3.226383, 71.341461
2181, 60.005882, 3.272263, 73.518013
2182, 28.872322, 3.405323, 93.294205
2183, 53.513695, 3.333350, 93.328850
2184, 3.180555, 3.184362, 5.559021
2185, 3.339624, 3.344871, 76.469460
2186, 63.468731, 3.389541, 76.568604
2187, 6.696645, 3.333350, 29.634146
2188, 63.271187, 3.333350, 67.932961
2189, 6.738212, 3.235875, 53.780487
2190, 4.819160, 3.333350, 64.193748
2191, 35.653294, 3.304328, 93.303688
2192, 6.719137, 3.227697, 75.731506
2193, 4.910167, 3.333350, 26.577177
2194, 59.968040, 3.461964, 53.632046
2195, 60.706303, 3.333350, 94.864220
2196, 12.243390, 3.333350, 93.551071
2197, 6.576463, 3.333350, 58.542030
2198, 6.119818, 3.333350, 19.754517
2199, 26.667023, 3.283818, 96.666100
2200, 60.056152, 3.506837, 26.746824
2201, 3.295733, 3.370114, 67.777779
2202, 3.347300, 3.311482, 44.464230
2203, 5.793547, 3.333350, 95.050201
2204, 60.105267, 3.333350, 33.713726
2205, 63.099056, 3.344029, 44.452312
2206, 6.567145, 3.333350, 38.131973
2207, 60.077106, 3.295720, 76.929222
2208, 60.438374, 3.333350, 70.197906
2209, 60.098331, 3.333350, 38.134014
2210, 25.495794, 3.333350, 93.492584
2211, 6.592819, 3.333350, 48.973083
2212, 6.579751, 3.333350, 33.755959
2213, 63.473160, 3.136338, 96.806458
2214, 43.353611, 3.083048, 96.938332
2215, 63.304981, 3.333350, 24.420956
2216, 61.073700, 3.333350, 50.375019
2217, 50.096962, 3.333350, 93.416481
2218, 6.743734, 3.213614, 87.366005
2219, 59.922966, 3.213614, 87.366005
2220, 3.020609, 3.579673, 18.789200
2221, 6.918790, 3.658544, 61.887840
2222, 32.281609, 3.333350, 93.372025
2223, 18.795691, 3.543730, 93.218460
2224, 60.083408, 3.333350, 42.552597
2225, 3.224402, 3.384544, 23.315041
2226, 6.661518, 3.188149, 41.661213
2227, 3.255354, 3.224245, 57.699017
2228, 3.184677, 3.207382, 14.444777
2229, 5.001973, 2.864715, 2.825845
2230, 3.298623, 3.165597, 51.133327
2231, 59.775135, 3.757067, 63.524204
2232, 63.711788, 3.808872, 2.886241
2233, 59.888100, 3.256701, 16.506500
2234, 3.102108, 3.617394, 96.897888
2235, 60.069111, 3.333350, 30.281902
2236, 59.685413, 2.833261, 2.779268
2237, 7.127989, 3.834780, 9.532892
2238, 7.013158, 2.900395, 78.744034
2239, 59.539856, 3.870544, 12.457015
2240, 59.847187, 2.960601, 19.717237
2241, 3.731434, 3.679048, 29.316513
2242, 47.292999, 3.906216, 92.824478
2243, 63.895805, 2.713242, 50.548504
2244, 59.310120, 2.752254, 79.595047
2245, 2.577869, 4.115777, 2.579421
2246, 59.355919, 2.746990, 97.294968
2247, 7.357278, 3.933127, 97.324524
2248, 7.415989, 3.913469, 25.615150
2249, 2.847735, 2.612664, 11.220173
2250, 64.137909, 3.738220, 65.379822
2251, 64.117805, 2.767523, 10.335443
2252, 7.410558, 4.041431, 13.945885
2253, 7.212619, 4.252624, 2.528143
2254, 5.434581, 2.887185, 56.127857
2255, 16.703932, 4.160749, 95.706970
2256, 7.425019, 4.022029, 64.531830
2257, 59.220264, 3.968271, 84.826134
2258, 7.446436, 3.968270, 84.826134
2259, 49.717587, 2.781424, 97.469582
2260, 2.484707, 3.843315, 63.024345
2261, 4.614311, 4.259261, 69.980736
2262, 42.169823, 4.221599, 94.728523
2263, 63.219830, 2.537450, 5.209005
2264, 42.486015, 2.807601, 92.496429
2265, 59.102627, 2.564783, 7.517724
2266, 64.276123, 3.060074, 90.008873
2267, 2.390578, 3.060073, 90.008873
2268, 59.252213, 4.133561, 48.525372
2269, 7.572027, 3.801792, 51.359856
2270, 64.210045, 2.581047, 14.322607
2271, 2.469835, 2.565405, 27.269104
2272, 36.682564, 4.283055, 95.539764
2273, 64.141914, 2.550860, 19.036703
2274, 64.127762, 2.499035, 60.897858
2275, 62.399750, 4.340251, 34.460030
2276, 61.700874, 3.578640, 85.503311
2277, 4.965852, 3.579128, 85.503464
2278, 62.287552, 2.355366, 74.456207
2279, 62.376381, 2.323846, 38.904572
2280, 4.281919, 2.335272, 38.889732
2281, 55.601627, 4.379868, 94.463493
2282, 4.306756, 4.354041, 34.478580
2283, 2.339410, 2.969303, 65.431587
2284, 45.590466, 4.180886, 97.554993
2285, 62.418907, 4.364769, 30.030125
2286, 3.484700, 2.276743, 94.755371
2287, 61.695919, 2.670066, 14.792642
2288, 54.446644, 2.357009, 95.632942
2289, 5.549684, 4.188669, 73.534073
2290, 64.194809, 2.487877, 34.453781
2291, 62.130585, 4.372860, 89.638214
2292, 4.536114, 4.372860, 89.638214
2293, 62.609840, 4.407666, 60.658295
2294, 2.479995, 4.187023, 38.893715
2295, 59.002056, 3.856856, 35.922146
2296, 5.563025, 2.287288, 14.387076
2297, 41.130848, 4.185866, 97.514297
2298, 36.653549, 2.486325, 97.520988
2299, 32.222839, 2.326782, 95.747772
2300, 58.991554, 2.830690, 40.339592
2301, 61.435066, 2.368283, 65.000908
2302, 62.389637, 4.384452, 18.814938
2303, 64.199646, 2.466335, 30.026110
2304, 7.687517, 3.837675, 35.947174
2305, 21.246666, 4.363653, 95.587799
2306, 54.442074, 3.896232, 97.627144
2307, 62.976456, 4.397754, 94.690094
2308, 2.467346, 2.466877, 34.466846
2309, 64.213982, 4.182417, 38.911591
2310, 7.679495, 3.945602, 56.388790
2311, 6.668639, 4.385314, 92.950478
2312, 6.303981, 2.283354, 7.755441
2313, 2.234198, 3.050637, 70.020844
2314, 12.147452, 4.003150, 97.786003
2315, 32.221325, 4.147079, 97.525909
2316, 64.247620, 4.220357, 74.345818
2317, 2.238763, 2.761860, 81.291840
2318, 2.433908, 2.434240, 74.337410
2319, 61.413933, 4.423983, 3.488584
2320, 7.568920, 4.221128, 69.216972
2321, 7.819363, 3.037712, 73.536583
2322, 37.838402, 3.914700, 92.241043
2323, 37.813503, 2.401232, 94.273743
2324, 58.896778, 2.949240, 51.469910
2325, 2.224402, 2.874264, 21.066355
2326, 62.666851, 4.323761, 52.147964
2327, 8.042849, 2.400295, 95.503563
2328, 41.035469, 2.287785, 95.867516
2329, 61.966503, 2.272346, 2.313653
2330, 58.887604, 2.376626, 58.849712
2331, 58.888203, 4.644907, 59.328747
2332, 62.400337, 4.408729, 56.503647
2333, 64.450546, 3.007221, 70.075890
2334, 6.989310, 2.237625, 27.412624
2335, 45.605232, 2.040183, 95.460213
2336, 5.873775, 2.105059, 60.380665
2337, 2.136118, 4.480115, 8.888889
2338, 64.408989, 2.863051, 81.295860
2339, 7.576423, 2.249400, 47.000652
2340, 7.689252, 2.313803, 11.370203
2341, 5.640620, 2.181836, 51.029964
2342, 59.783325, 4.412617, 92.863182
2343, 58.934433, 4.646430, 61.604717
2344, 58.854027, 2.254150, 28.461573
2345, 61.111107, 4.582868, 7.656971
2346, 20.249577, 2.205396, 94.715080
2347, 21.250984, 2.425433, 97.603699
2348, 58.838673, 4.478826, 4.391931
2349, 60.756134, 2.174964, 92.712021
2350, 64.260582, 2.398978, 56.507076
2351, 2.866385, 4.358582, 25.582382
2352, 4.735945, 2.200027, 42.791489
2353, 5.959925, 2.385840, 69.181992
2354, 12.119845, 2.274676, 95.795914
2355, 5.281378, 2.493587, 97.544220
2356, 4.873953, 4.501765, 6.703778
2357, 7.803989, 2.030344, 2.119309
2358, 58.491524, 4.367598, 95.269005
2359, 2.149038, 3.643673, 85.550568
2360, 2.106755, 4.548090, 60.000000
2361, 2.106755, 2.118609, 60.000000
2362, 2.241672, 2.612693, 78.535294
2363, 64.518341, 3.602967, 85.550446
2364, 62.143265, 2.093775, 90.651375
2365, 4.523435, 2.093775, 90.651375
2366, 2.194156, 2.732261, 16.639345
2367, 55.529034, 2.426601, 92.265961
2368, 7.834635, 3.705834, 31.728985
2369, 49.672581, 4.451619, 95.610924
2370, 58.662849, 2.161759, 61.441563
2371, 61.130669, 2.337387, 48.143826
2372, 2.088338, 2.107965, 8.888889
2373, 5.292021, 4.247458, 39.972546
2374, 5.007731, 2.176443, 24.441559
2375, 64.541832, 4.475922, 22.222221
2376, 4.915464, 2.161434, 30.799044
2377, 61.140869, 3.914682, 40.227421
2378, 5.078192, 4.511497, 17.910170
2379, 4.549681, 4.518181, 49.547798
2380, 5.595904, 2.383211, 35.905685
2381, 61.090946, 2.388718, 35.871857
2382, 61.288971, 4.313112, 97.085457
2383, 5.882707, 2.142658, 92.626724
2384, 5.217571, 4.340194, 52.167889
2385, 5.127291, 2.168593, 46.581306
2386, 62.000660, 2.192430, 26.122570
2387, 7.761494, 4.364724, 80.445763
2388, 17.868273, 2.201124, 94.971680
2389, 45.541489, 2.100670, 92.108208
2390, 58.768471, 2.192910, 10.904381
2391, 62.546974, 4.508449, 69.931175
2392, 4.785636, 4.484144, 46.003277
2393, 58.817436, 4.206626, 21.457085
2394, 7.752348, 4.322690, 18.316931
2395, 5.081531, 4.535726, 15.067944
2396, 7.744138, 4.325657, 21.189722
2397, 64.491440, 2.732348, 78.653595
2398, 17.045609, 2.319965, 97.253075
2399, 4.891945, 4.549851, 42.474251
2400, 5.214776, 4.321163, 77.778961
2401, 61.924011, 2.124152, 77.852959
2402, 61.859329, 4.546746, 77.874886
2403, 5.722901, 4.603667, 60.212116
2404, 61.224560, 2.350653, 28.457621
2405, 4.960636, 4.563792, 24.453754
2406, 5.106912, 4.549755, 31.100138
2407, 10.508922, 4.501708, 94.694771
2408, 61.985874, 2.005520, 61.405247
2409, 60.561543, 4.560084, 80.373383
2410, 58.779755, 2.856488, 14.454906
2411, 58.829617, 4.105536, 44.378105
2412, 61.372589, 2.111260, 7.866212
2413, 7.711915, 4.378319, 7.324379
2414, 64.569878, 2.096820, 22.222221
2415, 58.869740, 4.718575, 2.026114
2416, 5.190403, 2.144256, 17.927237
2417, 7.849760, 4.172057, 39.901051
2418, 13.850696, 4.404209, 92.227867
2419, 64.290047, 2.385337, 94.393257
2420, 23.791647, 2.284636, 92.203514
2421, 61.599972, 4.509152, 75.425827
2422, 4.791022, 2.297909, 21.646734
2423, 28.318548, 2.232731, 95.299065
2424, 27.977226, 4.588367, 95.160721
2425, 7.818282, 4.475130, 89.023453
2426, 58.848419, 4.475130, 89.023453
2427, 58.803337, 2.455967, 55.404484
2428, 58.788670, 4.568821, 8.616903
2429, 58.813049, 2.155694, 89.108757
2430, 7.853651, 2.155694, 89.108757
2431, 58.887699, 4.352749, 68.753838
2432, 30.571928, 4.475373, 94.576675
2433, 59.627266, 1.977075, 25.122377
2434, 61.370258, 4.457030, 58.790382
2435, 61.365463, 2.212906, 58.783154
2436, 3.398009, 4.603408, 74.454239
2437, 46.735893, 2.157927, 97.938454
2438, 61.953484, 2.152841, 55.976089
2439, 62.047501, 4.558231, 26.011536
2440, 4.720608, 2.423586, 74.823425
2441, 61.972324, 2.146492, 18.222393
2442, 61.292763, 2.114704, 68.362503
2443, 58.784203, 4.053048, 71.684448
2444, 2.249660, 2.290215, 30.502790
2445, 7.742682, 4.548270, 46.661587
2446, 62.085274, 2.151735, 42.724876
2447, 61.604507, 2.183380, 52.419342
2448, 2.148273, 2.013540, 2.026170
2449, 62.081810, 4.517035, 42.717075
2450, 23.718233, 2.255071, 94.580299
2451, 64.410316, 2.256572, 42.865295
2452, 25.030714, 4.479328, 95.485390
2453, 13.997566, 4.493300, 94.570168
2454, 5.693683, 2.099194, 10.098297
2455, 58.756638, 2.023433, 95.126305
2456, 7.755789, 4.377056, 27.858627
2457, 4.077367, 4.526803, 10.735451
2458, 64.490868, 4.446147, 12.952579
2459, 7.713727, 4.659312, 95.019043
2460, 64.436180, 2.238339, 26.131844
2461, 64.523598, 4.519250, 61.953209
2462, 2.341851, 4.319892, 94.307167
2463, 5.045423, 4.595184, 4.383387
2464, 4.648798, 4.497435, 81.840904
2465, 62.017830, 2.169296, 81.840736
2466, 62.874630, 4.573453, 49.660450
2467, 62.008400, 2.134433, 30.714071
2468, 2.225088, 4.441394, 42.791061
2469, 34.001984, 4.470531, 94.552567
2470, 58.768696, 2.205432, 4.806771
2471, 49.333454, 2.195340, 95.271935
2472, 5.927812, 2.046004, 80.552040
2473, 4.622117, 2.098769, 77.923264
2474, 25.003731, 4.415597, 97.787704
2475, 58.715012, 1.925577, 22.113226
2476, 64.379143, 4.653783, 19.935625
2477, 2.299066, 4.640722, 79.949318
2478, 61.447567, 2.066597, 96.631645
2479, 28.343561, 4.433745, 97.775467
2480, 10.637076, 4.406861, 92.243759
2481, 64.514359, 1.987081, 1.993919
2482, 2.200815, 2.239664, 25.016405
2483, 45.773254, 4.585857, 95.387054
2484, 2.171266, 4.407982, 49.530670
2485, 61.946438, 2.169379, 22.949963
2486, 61.946438, 4.473686, 22.949963
2487, 7.985642, 2.014018, 19.791189
2488, 63.052460, 4.513106, 14.732229
2489, 58.907017, 4.432845, 25.013348
2490, 5.344513, 4.530391, 21.561077
2491, 30.578077, 2.237660, 92.237663
2492, 2.203249, 4.464465, 56.075478
2493, 2.050194, 4.165628, 52.766720
2494, 64.413170, 2.249299, 46.027534
2495, 52.208649, 4.668972, 92.006454
2496, 51.773773, 2.418464, 92.142258
2497, 27.137867, 2.272266, 92.209160
2498, 58.917896, 2.273353, 65.082703
2499, 14.097500, 2.119484, 94.643623
2500, 61.245216, 4.292926, 31.985613
2501, 58.935738, 4.367352, 32.009945
2502, 17.559542, 4.514004, 97.845085
2503, 58.908588, 2.114908, 47.529945
2504, 14.043189, 2.145423, 92.130058
2505, 2.165590, 2.165972, 42.662952
2506, 58.744164, 4.031041, 75.245567
2507, 62.058403, 4.531942, 38.194973
2508, 23.487436, 4.568801, 92.115265
2509, 51.835339, 4.440403, 94.542717
2510, 61.398720, 4.558868, 47.641117
2511, 10.624516, 2.146063, 92.483986
2512, 64.525833, 4.512813, 26.316839
2513, 2.155624, 2.193325, 55.997787
2514, 64.515442, 4.514923, 42.638226
2515, 4.629325, 2.127154, 33.781174
2516, 61.865685, 4.670657, 82.262779
2517, 64.601311, 2.104368, 73.599388
2518, 61.664043, 4.603848, 64.521629
2519, 64.313797, 4.661529, 79.904213
2520, 28.501873, 2.157301, 97.847343
2521, 5.663332, 4.763013, 65.687965
2522, 7.437942, 4.541666, 11.657323
2523, 64.592987, 2.690363, 52.699879
2524, 35.828480, 4.564605, 97.900101
2525, 8.002845, 1.957063, 4.360961
2526, 58.716530, 4.208398, 18.198622
2527, 2.104614, 2.106320, 39.697159
2528, 64.560738, 4.559028, 30.800241
2529, 34.190136, 2.220688, 94.641602
2530, 64.570801, 4.565717, 35.266720
2531, 2.210312, 4.448572, 46.124733
2532, 20.381693, 2.246182, 92.215027
2533, 42.890266, 2.086419, 94.596870
2534, 24.835970, 2.150144, 97.856087
2535, 64.563156, 4.543772, 55.874390
2536, 51.639416, 2.122785, 94.674438
2537, 17.243124, 2.197368, 92.209335
2538, 7.949051, 4.009832, 43.301880
2539, 3.776526, 2.058634, 62.693237
2540, 62.053692, 2.124758, 33.718353
2541, 7.889957, 2.118465, 15.034956
2542, 48.251404, 4.477899, 97.841232
2543, 58.588707, 4.470030, 28.536585
2544, 8.003263, 4.249749, 77.255608
2545, 33.949764, 4.217276, 92.083717
2546, 7.915504, 2.078174, 24.407726
2547, 2.106670, 4.558928, 35.239456
2548, 61.416149, 4.649143, 67.962730
2549, 2.219212, 4.534952, 30.761215
2550, 30.593718, 4.498868, 92.314339
2551, 8.067848, 1.989727, 81.162811
2552, 62.541618, 4.372911, 9.701602
2553, 58.590488, 1.963580, 68.017822
2554, 63.051716, 4.613863, 5.987216
2555, 64.498955, 2.090438, 39.684616
2556, 17.062773, 4.431103, 92.103630
2557, 56.494759, 2.073045, 94.718735
2558, 40.000019, 1.956730, 98.045074
2559, 1.941754, 2.002123, 53.335854
2560, 4.107577, 1.986675, 49.417419
2561, 45.271362, 4.664209, 92.264526
2562, 21.943123, 4.559204, 97.934578
2563, 2.272670, 1.909745, 45.881203
2564, 20.531050, 4.481340, 92.154846
2565, 1.944536, 4.689019, 6.666667
2566, 62.367817, 2.141566, 70.366241
2567, 64.723167, 4.744328, 93.333336
2568, 2.061356, 4.692527, 77.722160
2569, 15.335526, 4.618875, 98.037956
2570, 30.392986, 2.249646, 94.465622
2571, 39.974831, 4.631912, 95.142624
2572, 8.024569, 2.839922, 60.148045
2573, 51.088757, 4.511894, 98.103142
2574, 10.136680, 2.049507, 94.754364
2575, 64.507050, 4.512181, 46.228485
2576, 8.017076, 1.962121, 17.551081
2577, 4.443891, 4.721365, 62.522182
2578, 5.101830, 4.677035, 67.844780
2579, 62.189819, 2.274360, 46.183601
2580, 8.339800, 2.155583, 91.531807
2581, 31.111126, 1.970787, 98.022423
2582, 33.333351, 2.103050, 98.078423
2583, 64.739044, 4.691169, 17.723347

*ELEMENT, TYPE=C3D4, ELSET=ALL_ELEMENTS
1, 1872, 2231, 2168, 2498
2, 1256, 2293, 2132, 2461
3, 544, 2228, 489, 2366
4, 1669, 1012, 652, 2139
5, 2154, 2189, 2341, 2384
6, 1125, 1104, 771, 2306
7, 1118, 2156, 1330, 2246
8, 1395, 2181, 2160, 2421
9, 1179, 2234, 2203, 2355
10, 1459, 2148, 2206, 2373
11, 1604, 2203, 2146, 2311
12, 1093, 1330, 1118, 2156
13, 1026, 2221, 2190, 2256
14, 1256, 2132, 1998, 2461
15, 710, 2135, 2172, 2349
16, 1954, 1595, 1868, 2409
17, 509, 2228, 583, 2249
18, 660, 2218, 1739, 2258
19, 1921, 2219, 659, 2257
20, 2182, 2210, 1278, 2497
21, 661, 1104, 1114, 2306
22, 661, 1114, 2156, 2306
23, 2161, 2180, 811, 2353
24, 558, 2152, 497, 2560
25, 1669, 652, 1704, 2139
26, 663, 2167, 1125, 2306
27, 710, 2135, 477, 2172
28, 1012, 1669, 1745, 2139
29, 1093, 1118, 1162, 2156
30, 1805, 2170, 1801, 2322
31, 2124, 2251, 2045, 2552
32, 1604, 2146, 2203, 2462
33, 1887, 2194, 1913, 2427
34, 2160, 2181, 1396, 2208
35, 867, 2154, 2189, 2341
36, 2126, 1003, 2258, 2277
37, 1002, 2125, 2257, 2276
38, 1664, 1716, 624, 2312
39, 1179, 2203, 2247, 2355
40, 1439, 2176, 487, 2317
41, 1637, 2118, 1413, 2293
42, 2193, 2241, 1048, 2334
43, 1335, 2348, 2345, 2428
44, 2001, 2123, 698, 2250
45, 2187, 2241, 2334, 2376
46, 1273, 2134, 476, 2311
47, 1273, 476, 2159, 2311
48, 1270, 2281, 2183, 2367
49, 784, 2184, 2136, 2229
50, 1118, 1162, 2156, 2246
51, 787, 2124, 2044, 2263
52, 1075, 2139, 649, 2256
53, 1812, 2182, 1278, 2497
54, 1704, 652, 2180, 2353
55, 1808, 1788, 1829, 2170
56, 1434, 2227, 2197, 2403
57, 487, 528, 1266, 2317
58, 787, 2044, 1995, 2263
59, 1270, 2172, 2281, 2367
60, 1664, 2136, 1716, 2312
61, 1429, 2254, 2227, 2492
62, 1704, 2139, 652, 2353
63, 1664, 1773, 1716, 2136
64, 825, 2139, 2190, 2201
65, 1270, 2183, 1846, 2367
66, 739, 2218, 2164, 2365
67, 743, 2165, 2219, 2364
68, 1683, 2136, 1341, 2253
69, 1048, 2334, 2241, 2376
70, 1211, 2168, 1872, 2231
71, 1829, 1808, 2170, 2264
72, 1388, 2283, 2190, 2521
73, 1671, 1721, 1777, 2487
74, 2161, 2261, 811, 2313
75, 811, 2313, 2261, 2353
76, 2161, 811, 2261, 2353
77, 1108, 2175, 768, 2247
78, 1620, 2239, 2130, 2552
79, 1954, 1868, 1931, 2409
80, 780, 624, 1716, 2312
81, 1334, 2348, 1335, 2428
82, 1130, 770, 2175, 2314
83, 2152, 2484, 497, 2560
84, 1644, 1348, 1234, 2124
85, 1716, 2312, 2136, 2525
86, 780, 2312, 1716, 2525
87, 692, 558, 497, 2560
88, 2180, 2321, 2289, 2440
89, 2181, 2208, 844, 2443
90, 1773, 2136, 1664, 2312
91, 2061, 1264, 2186, 2519
92, 1234, 2124, 2045, 2552
93, 844, 1891, 2208, 2553
94, 1130, 2175, 1128, 2314
95, 1745, 649, 2139, 2256
96, 1644, 2124, 1234, 2552
97, 1868, 2125, 1931, 2409
98, 1266, 2176, 1439, 2317
99, 1266, 1439, 487, 2317
100, 2218, 2365, 1025, 2430
101, 1024, 2364, 2219, 2429
102, 969, 2210, 2199, 2423
103, 1683, 1341, 1738, 2253
104, 2192, 2238, 1701, 2544
105, 1808, 1537, 1788, 2170
106, 2061, 2186, 2397, 2519
107, 1671, 629, 1721, 2487
108, 1033, 1735, 2211, 2269
109, 644, 2189, 1697, 2269
110, 873, 2227, 2197, 2254
111, 1704, 2320, 2139, 2353
112, 2136, 2184, 784, 2312
113, 2061, 1264, 2005, 2186
114, 1704, 2180, 2320, 2353
115, 1130, 770, 1128, 2175
116, 1787, 1815, 2191, 2545
117, 1033, 2269, 2211, 2341
118, 1808, 1537, 2170, 2264
119, 787, 1079, 2124, 2263
120, 1104, 661, 771, 2306
121, 967, 2170, 1805, 2322
122, 2345, 2348, 2149, 2428
123, 2153, 2326, 1254, 2523
124, 881, 2276, 2177, 2465
125, 1720, 1664, 992, 2312
126, 1998, 2132, 2078, 2461
127, 933, 2152, 558, 2560
128, 566, 2184, 789, 2448
129, 486, 562, 2146, 2286
130, 990, 1721, 629, 2487
131, 1222, 1330, 1093, 2156
132, 991, 2221, 1026, 2256
133, 661, 2156, 771, 2306
134, 1266, 2176, 2317, 2477
135, 771, 663, 1125, 2306
136, 1396, 2160, 2208, 2391
137, 1270, 478, 2172, 2367
138, 2200, 2285, 2404, 2439
139, 2012, 2095, 2045, 2124
140, 624, 992, 1664, 2312
141, 657, 1895, 1851, 2125
142, 710, 730, 2135, 2349
143, 1720, 992, 2237, 2312
144, 1130, 2155, 770, 2314
145, 739, 2164, 2218, 2277
146, 743, 2219, 2165, 2276
147, 771, 2167, 663, 2306
148, 891, 2446, 2147, 2579
149, 1082, 2122, 783, 2184
150, 509, 544, 583, 2228
151, 2126, 2277, 2258, 2464
152, 1988, 2177, 1441, 2338
153, 967, 1805, 2191, 2322
154, 2171, 2404, 2285, 2439
155, 2217, 2242, 714, 2471
156, 975, 2191, 1815, 2545
157, 2126, 2176, 1003, 2277
158, 649, 1012, 1745, 2139
159, 486, 562, 595, 2146
160, 1674, 1758, 1712, 2206
161, 1859, 1897, 1941, 2209
162, 1893, 1864, 1949, 2224
163, 1044, 2349, 2195, 2419
164, 2147, 2224, 997, 2411
165, 2118, 2293, 1637, 2343
166, 2154, 2341, 2230, 2384
167, 1082, 2122, 2184, 2372
168, 783, 2184, 2122, 2312
169, 2265, 2348, 1901, 2428
170, 1805, 1787, 2191, 2322
171, 1099, 770, 1130, 2155
172, 906, 1048, 2193, 2241
173, 1812, 1278, 2210, 2497
174, 1944, 1874, 1912, 2204
175, 1040, 2317, 2176, 2472
176, 710, 477, 2135, 2429
177, 2061, 2186, 2005, 2397
178, 1206, 1913, 2194, 2427
179, 2227, 2336, 2119, 2361
180, 945, 2206, 2226, 2417
181, 1668, 1704, 822, 2180
182, 1895, 1936, 1851, 2125
183, 1026, 829, 2190, 2221
184, 1851, 2125, 1936, 2257
185, 1752, 2126, 1667, 2258
186, 1669, 1704, 1753, 2139
187, 1923, 2207, 1217, 2244
188, 784, 2136, 790, 2229
189, 2182, 1531, 2210, 2424
190, 486, 2146, 595, 2286
191, 1393, 2188, 2062, 2333
192, 945, 1713, 1674, 2417
193, 2045, 2124, 2095, 2251
194, 1230, 2144, 1126, 2524
195, 1082, 783, 2122, 2372
196, 1908, 1552, 2239, 2428
197, 1322, 2223, 2142, 2255
198, 1452, 2205, 2147, 2449
199, 768, 2247, 2175, 2327
200, 1452, 2147, 2411, 2449
201, 1396, 2160, 1395, 2181
202, 1929, 1955, 1872, 2168
203, 1434, 2227, 1429, 2254
204, 1278, 1812, 1798, 2182
205, 783, 784, 2184, 2312
206, 1701, 2192, 655, 2238
207, 822, 1704, 652, 2180
208, 1278, 2182, 1531, 2210
209, 2165, 2291, 2219, 2364
210, 2218, 2292, 2164, 2365
211, 1617, 2360, 2227, 2403
212, 874, 1705, 1697, 2189
213, 1929, 1872, 1211, 2168
214, 933, 558, 692, 2560
215, 1595, 1218, 1868, 2409
216, 975, 2529, 2191, 2545
217, 1430, 2154, 2189, 2254
218, 2132, 2274, 2078, 2461
219, 1206, 1913, 1887, 2194
220, 737, 1025, 2365, 2430
221, 741, 2364, 1024, 2429
222, 494, 686, 2148, 2527
223, 1180, 1655, 2229, 2245
224, 1441, 2177, 1267, 2338
225, 906, 2241, 2193, 2271
226, 1949, 1893, 2224, 2300
227, 1696, 2192, 1701, 2544
228, 2265, 2149, 2348, 2428
229, 1712, 2206, 1758, 2304
230, 1884, 1923, 1954, 2244
231, 1242, 2171, 1992, 2528
232, 1273, 476, 2134, 2425
233, 2163, 2239, 2130, 2390
234, 1206, 2194, 2179, 2427
235, 2176, 2464, 2317, 2477
236, 1604, 1287, 2203, 2311
237, 1334, 1901, 2348, 2428
238, 1921, 1000, 1851, 2257
239, 998, 1739, 1667, 2258
240, 1330, 2246, 2156, 2358
241, 622, 2146, 562, 2286
242, 1046, 2164, 739, 2277
243, 1000, 2125, 1851, 2257
244, 1667, 2126, 998, 2258
245, 1047, 743, 2165, 2276
246, 1033, 644, 1735, 2269
247, 1879, 1202, 2147, 2411
248, 1731, 658, 1667, 2551
249, 2239, 2287, 2163, 2488
250, 1941, 2209, 1897, 2295
251, 545, 786, 493, 2184
252, 1033, 644, 2269, 2341
253, 2041, 2002, 2099, 2250
254, 934, 2059, 2131, 2243
255, 653, 1870, 1916, 2506
256, 1687, 2187, 634, 2368
257, 1676, 2189, 646, 2310
258, 2242, 2335, 2120, 2389
259, 1696, 1701, 1779, 2544
260, 2147, 890, 2224, 2446
261, 649, 1075, 1012, 2139
262, 2167, 2288, 2281, 2306
263, 556, 2162, 1245, 2547
264, 1830, 2182, 1812, 2497
265, 1988, 1441, 1267, 2338
266, 1668, 1750, 1704, 2180
267, 971, 2210, 969, 2423
268, 867, 2230, 2154, 2341
269, 1279, 1788, 1537, 2170
270, 2037, 2104, 2036, 2466
271, 874, 1697, 644, 2189
272, 2037, 2131, 2104, 2466
273, 739, 1025, 2218, 2365
274, 743, 2219, 1024, 2364
275, 2228, 2249, 2129, 2296
276, 545, 786, 2184, 2372
277, 998, 2126, 1667, 2551
278, 1766, 1697, 1705, 2189
279, 1705, 1676, 1754, 2189
280, 644, 1697, 1735, 2269
281, 497, 2152, 574, 2484
282, 2145, 2291, 2135, 2342
283, 1322, 2142, 2223, 2305
284, 1075, 825, 2139, 2190
285, 2167, 2281, 1306, 2306
286, 825, 2201, 2190, 2283
287, 1056, 2336, 2227, 2361
288, 2002, 2188, 2099, 2250
289, 2106, 703, 2186, 2517
290, 1518, 1278, 1798, 2182
291, 2167, 1306, 2281, 2509
292, 1777, 2137, 2396, 2487
293, 778, 2130, 2163, 2251
294, 1705, 646, 1676, 2189
295, 1273, 2134, 1508, 2425
296, 1271, 1507, 2342, 2426
297, 1108, 1156, 2175, 2247
298, 2190, 2201, 2139, 2521
299, 1459, 2294, 2148, 2373
300, 1217, 2244, 2207, 2409
301, 1273, 2159, 476, 2480
302, 1872, 2168, 1955, 2498
303, 953, 1897, 2209, 2295
304, 1316, 2203, 1179, 2234
305, 2135, 2342, 1507, 2426
306, 1388, 2260, 2190, 2283
307, 1509, 2224, 1893, 2300
308, 1002, 2125, 2276, 2465
309, 2175, 2314, 770, 2354
310, 2281, 2288, 2167, 2509
311, 1704, 1753, 2139, 2320
312, 975, 2222, 2529, 2545
313, 1460, 2206, 2148, 2380
314, 1423, 2194, 1863, 2324
315, 2007, 1415, 2036, 2243
316, 1745, 2139, 1775, 2256
317, 1572, 1929, 1211, 2168
318, 1609, 2193, 2187, 2241
319, 1912, 2204, 983, 2501
320, 1267, 2177, 1600, 2338
321, 1891, 2208, 1924, 2443
322, 906, 1048, 2241, 2376
323, 1383, 2180, 1700, 2321
324, 1095, 1143, 1584, 2234
325, 813, 2321, 2180, 2440
326, 1932, 2265, 1901, 2428
327, 2179, 2194, 1418, 2332
328, 1046, 2277, 879, 2359
329, 1262, 2333, 2160, 2391
330, 1704, 2180, 1750, 2320
331, 1218, 2125, 1868, 2409
332, 1211, 1645, 2168, 2231
333, 1923, 1217, 1954, 2244
334, 2204, 2235, 983, 2501
335, 1184, 1334, 1335, 2428
336, 2149, 2345, 1335, 2348
337, 653, 2181, 1870, 2506
338, 1896, 639, 1881, 2411
339, 1124, 2142, 1168, 2562
340, 1125, 1151, 1104, 2306
341, 1620, 2239, 1552, 2428
342, 1301, 2291, 2145, 2342
343, 1156, 1128, 1108, 2175
344, 1095, 2234, 1179, 2355
345, 2147, 2205, 1452, 2510
346, 770, 662, 1128, 2175
347, 1697, 2189, 1766, 2269
348, 1270, 1565, 1846, 2183
349, 699, 2188, 2002, 2250
350, 1481, 2240, 2178, 2393
351, 483, 1263, 2161, 2313
352, 1754, 2189, 1676, 2310
353, 486, 943, 562, 2286
354, 1921, 659, 1000, 2257
355, 998, 660, 1739, 2258
356, 1812, 1830, 1798, 2182
357, 2024, 2160, 1262, 2333
358, 1401, 2207, 2402, 2409
359, 574, 497, 558, 2152
360, 2041, 699, 2002, 2250
361, 982, 2206, 1712, 2304
362, 2161, 2261, 2180, 2353
363, 838, 2207, 2181, 2506
364, 771, 2288, 2167, 2306
365, 1912, 1944, 2204, 2501
366, 1104, 1152, 1114, 2306
367, 771, 2156, 2288, 2306
368, 1688, 1208, 2197, 2572
369, 756, 526, 2164, 2359
370, 999, 2218, 660, 2258
371, 1001, 659, 2219, 2257
372, 1879, 2147, 1202, 2268
373, 1805, 1787, 719, 2191
374, 1863, 2194, 1887, 2324
375, 897, 2226, 2206, 2280
376, 878, 2176, 569, 2359
377, 1988, 1267, 2030, 2338
378, 2168, 2231, 1645, 2518
379, 2061, 1497, 1264, 2519
380, 770, 2314, 2155, 2354
381, 1046, 2164, 2277, 2359
382, 653, 2181, 844, 2443
383, 1460, 2148, 2282, 2380
384, 835, 844, 2181, 2208
385, 2024, 1262, 2006, 2333
386, 2178, 2240, 1481, 2302
387, 1683, 1780, 2136, 2253
388, 638, 1674, 2206, 2417
389, 872, 2254, 2197, 2310
390, 1256, 1998, 2132, 2535
391, 2165, 2219, 1304, 2276
392, 1300, 2218, 2164, 2277
393, 1430, 1429, 2154, 2254
394, 1204, 1917, 2268, 2324
395, 2112, 2050, 2232, 2554
396, 881, 2276, 1047, 2363
397, 1696, 816, 1701, 2192
398, 1003, 2176, 2126, 2472
399, 1906, 2233, 1877, 2526
400, 835, 2181, 2160, 2566
401, 483, 523, 1263, 2313
402, 1787, 1815, 719, 2191
403, 664, 770, 1099, 2155
404, 1537, 2262, 2170, 2264
405, 2123, 2231, 1412, 2293
406, 1082, 2184, 786, 2372
407, 1620, 2130, 2239, 2428
408, 811, 2161, 813, 2180
409, 1026, 1075, 649, 2256
410, 1430, 2189, 2154, 2384
411, 2262, 2264, 1592, 2561
412, 849, 2250, 2123, 2301
413, 497, 2484, 2230, 2560
414, 1412, 1637, 1413, 2293
415, 1891, 844, 2208, 2443
416, 1252, 2036, 2243, 2466
417, 1957, 1908, 2239, 2428
418, 2204, 2295, 953, 2381
419, 710, 2135, 946, 2429
420, 1243, 2241, 2271, 2351
421, 544, 489, 608, 2366
422, 879, 2277, 2176, 2359
423, 1393, 2062, 2006, 2333
424, 2118, 2231, 2123, 2293
425, 1683, 1738, 1780, 2253
426, 653, 844, 1891, 2443
427, 2188, 2250, 847, 2301
428, 2165, 1047, 2276, 2363
429, 964, 2298, 2323, 2529
430, 1186, 1908, 1552, 2239
431, 1600, 2338, 2177, 2516
432, 1418, 2179, 1206, 2194
433, 2160, 2181, 835, 2278
434, 891, 890, 2147, 2446
435, 2317, 2464, 2176, 2472
436, 1375, 2192, 2400, 2436
437, 510, 1243, 2241, 2271
438, 1423, 1887, 1863, 2194
439, 2136, 2312, 1773, 2413
440, 1125, 2167, 1151, 2306
441, 979, 1119, 2214, 2558
442, 2228, 2395, 2366, 2416
443, 1421, 1871, 2179, 2331
444, 2189, 2269, 644, 2341
445, 1459, 2148, 1460, 2206
446, 1913, 1421, 1871, 2179
447, 863, 2324, 2216, 2503
448, 873, 2227, 1056, 2336
449, 1986, 757, 2165, 2363
450, 2114, 1177, 1622, 2213
451, 2036, 1415, 1252, 2243
452, 2007, 2036, 2101, 2243
453, 925, 2071, 2251, 2270
454, 848, 698, 2123, 2250
455, 2018, 2177, 880, 2363
456, 1396, 2181, 1395, 2421
457, 1322, 2142, 1320, 2255
458, 1266, 2317, 528, 2477
459, 651, 844, 2208, 2553
460, 2272, 2323, 2298, 2529
461, 1669, 1775, 1745, 2139
462, 1738, 1341, 1296, 2253
463, 999, 2258, 1003, 2277
464, 1001, 1002, 2257, 2276
465, 1932, 1901, 2265, 2348
466, 1204, 1863, 1917, 2324
467, 848, 2123, 849, 2250
468, 1029, 2214, 1139, 2437
469, 1600, 1267, 1441, 2177
470, 1601, 1439, 1266, 2176
471, 526, 707, 507, 2359
472, 1846, 2183, 1565, 2495
473, 2065, 2113, 2213, 2307
474, 985, 2368, 2187, 2376
475, 1655, 1180, 2229, 2253
476, 1674, 1712, 638, 2206
477, 1293, 2065, 2213, 2307
478, 2228, 2296, 2395, 2416
479, 2243, 2326, 1415, 2466
480, 1099, 2155, 1130, 2314
481, 1637, 1648, 1413, 2118
482, 852, 1087, 1076, 2118
483, 1418, 2153, 2194, 2326
484, 1495, 2131, 2037, 2466
485, 1152, 2156, 1114, 2306
486, 2103, 2123, 2001, 2250
487, 1126, 2144, 1159, 2524
488, 2120, 2264, 2262, 2561
489, 2338, 2516, 1600, 2519
490, 1957, 2239, 2390, 2428
491, 1676, 872, 1709, 2310
492, 478, 1271, 2172, 2342
493, 881, 2177, 2276, 2363
494, 2153, 1418, 2194, 2332
495, 1388, 1387, 2283, 2521
496, 2001, 698, 2123, 2274
497, 994, 2151, 1708, 2538
498, 1599, 2305, 2173, 2452
499, 1273, 1508, 2134, 2311
500, 710, 730, 946, 2135
501, 2187, 2193, 1609, 2456
502, 739, 737, 1025, 2365
503, 741, 743, 1024, 2364
504, 982, 2304, 2212, 2380
505, 1114, 661, 2156, 2246
506, 2001, 2123, 2103, 2461
507, 2216, 2324, 2268, 2503
508, 1396, 2208, 2181, 2443
509, 1375, 2289, 2192, 2436
510, 753, 1044, 2195, 2419
511, 1386, 2201, 2283, 2521
512, 863, 2216, 2371, 2503
513, 611, 2184, 566, 2448
514, 1687, 634, 985, 2368
515, 1168, 2142, 1227, 2562
516, 2164, 2218, 1300, 2292
517, 1304, 2219, 2165, 2291
518, 1434, 2197, 1610, 2403
519, 1708, 1698, 640, 2538
520, 1893, 1200, 1864, 2224
521, 1267, 2338, 1600, 2519
522, 2034, 2018, 880, 2363
523, 2190, 2221, 829, 2539
524, 544, 608, 2228, 2366
525, 1481, 2393, 2178, 2486
526, 1725, 1687, 985, 2368
527, 1429, 2227, 1434, 2492
528, 945, 2206, 897, 2226
529, 478, 2172, 2135, 2342
530, 1859, 637, 1897, 2209
531, 781, 2136, 784, 2312
532, 1334, 1184, 1901, 2428
533, 1912, 983, 2235, 2501
534, 1293, 2065, 2114, 2213
535, 714, 2217, 1804, 2242
536, 873, 2197, 1049, 2254
537, 494, 2148, 592, 2527
538, 1175, 1062, 614, 2234
539, 2071, 2251, 2270, 2458
540, 1270, 1846, 478, 2367
541, 639, 2224, 1881, 2411
542, 1937, 1887, 1913, 2427
543, 1271, 1270, 478, 2172
544, 925, 2251, 2163, 2270
545, 1812, 2210, 1278, 2508
546, 1869, 1947, 1912, 2235
547, 556, 578, 2162, 2547
548, 2065, 2017, 2113, 2307
549, 2139, 2201, 825, 2353
550, 869, 2189, 2154, 2254
551, 1897, 953, 1874, 2295
552, 1183, 2146, 521, 2267
553, 2112, 2232, 2263, 2554
554, 1509, 2300, 2209, 2377
555, 1230, 1575, 2144, 2524
556, 1423, 1863, 1204, 2324
557, 1003, 1040, 2176, 2472
558, 1807, 1802, 1568, 2217
559, 1310, 2314, 2407, 2453
560, 851, 2370, 2231, 2408
561, 2189, 2254, 646, 2310
562, 1379, 2127, 2387, 2464
563, 934, 2131, 1067, 2243
564, 1015, 2199, 969, 2450
565, 1913, 1871, 1930, 2179
566, 1103, 1139, 1029, 2214
567, 1036, 2361, 499, 2539
568, 1429, 2154, 2254, 2492
569, 583, 2228, 547, 2249
570, 1805, 1801, 1839, 2322
571, 1263, 1371, 2161, 2313
572, 544, 1368, 489, 2228
573, 2366, 2395, 2378, 2416
574, 1617, 2227, 1434, 2403
575, 2130, 2239, 2163, 2552
576, 634, 2187, 985, 2368
577, 1931, 2244, 1954, 2409
578, 2199, 2450, 1015, 2534
579, 1992, 2171, 2080, 2528
580, 1000, 657, 1851, 2125
581, 1688, 1729, 1208, 2572
582, 1119, 667, 979, 2214
583, 2227, 2360, 2119, 2403
584, 1368, 489, 2228, 2366
585, 872, 2197, 1709, 2310
586, 1689, 1550, 2137, 2248
587, 2104, 2131, 2059, 2243
588, 2146, 2292, 1297, 2311
589, 1975, 1971, 1579, 2232
590, 2013, 2375, 2215, 2512
591, 499, 2260, 533, 2539
592, 998, 1667, 658, 2551
593, 509, 1367, 544, 2228
594, 508, 547, 583, 2228
595, 2134, 2365, 2218, 2430
596, 2219, 2364, 2135, 2429
597, 1690, 982, 1712, 2304
598, 2034, 708, 1986, 2363
599, 1252, 2243, 1415, 2466
600, 1096, 1223, 2175, 2247
601, 1509, 1893, 1904, 2300
602, 1371, 523, 495, 2313
603, 2187, 2241, 2193, 2334
604, 1773, 2312, 1664, 2413
605, 991, 1026, 649, 2256
606, 510, 2241, 1243, 2549
607, 1301, 2145, 2307, 2342
608, 1673, 1215, 1711, 2321
609, 1087, 1076, 2118, 2370
610, 1180, 2245, 2229, 2463
611, 1874, 635, 1912, 2204
612, 1369, 2225, 2325, 2490
613, 1733, 2139, 1573, 2256
614, 753, 2419, 2195, 2478
615, 967, 2322, 2191, 2323
616, 1415, 1254, 2326, 2523
617, 766, 2174, 2242, 2335
618, 1489, 2239, 2287, 2410
619, 869, 867, 2154, 2189
620, 1713, 1757, 1674, 2417
621, 1489, 2287, 2233, 2410
622, 1412, 1637, 2293, 2343
623, 2127, 2464, 2317, 2472
624, 640, 2226, 2151, 2538
625, 1026, 991, 829, 2221
626, 890, 997, 2147, 2224
627, 1044, 731, 2195, 2349
628, 1424, 2268, 2216, 2324
629, 499, 2361, 2260, 2539
630, 1217, 2207, 1401, 2409
631, 801, 2422, 2137, 2487
632, 2146, 2267, 1299, 2292
633, 1303, 2266, 2145, 2291
634, 1423, 1204, 2194, 2324
635, 1583, 1177, 1141, 2213
636, 1082, 783, 784, 2184
637, 1318, 2165, 2027, 2266
638, 1393, 2333, 1262, 2391
639, 484, 2164, 1317, 2267
640, 493, 585, 545, 2184
641, 836, 2181, 2207, 2278
642, 598, 2161, 483, 2436
643, 2354, 2407, 2314, 2453
644, 835, 2208, 2181, 2566
645, 1665, 2150, 1188, 2252
646, 1379, 2387, 2127, 2400
647, 1206, 1887, 1423, 2194
648, 1612, 1183, 555, 2267
649, 1460, 2304, 2206, 2380
650, 967, 2170, 2322, 2323
651, 1475, 2200, 2285, 2543
652, 1119, 1103, 667, 2214
653, 848, 698, 849, 2123
654, 906, 2193, 1050, 2271
655, 1460, 2282, 2304, 2380
656, 943, 622, 562, 2286
657, 756, 707, 526, 2359
658, 2007, 1254, 1415, 2523
659, 1420, 2216, 2194, 2324
660, 1206, 2179, 1913, 2427
661, 1431, 1434, 1429, 2254
662, 1673, 2192, 1377, 2321
663, 1372, 2261, 2161, 2313
664, 766, 2335, 2242, 2389
665, 2220, 2366, 1368, 2378
666, 1805, 719, 967, 2191
667, 2126, 2176, 2464, 2472
668, 1357, 2366, 2228, 2395
669, 2134, 2292, 2146, 2311
670, 848, 2001, 698, 2250
671, 2106, 2186, 2023, 2517
672, 2044, 2124, 787, 2251
673, 1572, 1211, 1645, 2168
674, 1293, 2114, 1622, 2213
675, 483, 2161, 1263, 2436
676, 686, 898, 2148, 2527
677, 999, 2218, 2258, 2277
678, 1001, 2257, 2219, 2276
679, 2001, 2274, 2123, 2461
680, 2192, 2289, 1215, 2321
681, 1711, 1215, 1700, 2321
682, 585, 545, 2184, 2372
683, 1604, 2203, 1316, 2462
684, 1725, 636, 1690, 2368
685, 2001, 848, 2041, 2250
686, 2013, 1240, 2375, 2512
687, 1270, 1289, 2183, 2281
688, 1393, 2006, 1262, 2333
689, 1435, 2189, 1699, 2310
690, 1183, 521, 555, 2267
691, 1851, 1965, 1921, 2257
692, 1781, 1667, 1739, 2258
693, 779, 2149, 2263, 2329
694, 929, 2163, 2130, 2390
695, 1412, 2231, 2123, 2518
696, 1895, 2125, 657, 2244
697, 707, 2176, 878, 2359
698, 1931, 2125, 2244, 2409
699, 1095, 1173, 1143, 2234
700, 719, 1815, 975, 2191
701, 1474, 2171, 1242, 2528
702, 879, 1003, 2176, 2277
703, 2215, 2375, 1240, 2512
704, 2064, 1182, 2266, 2567
705, 495, 1261, 2201, 2283
706, 1883, 1916, 1961, 2207
707, 495, 534, 1261, 2283
708, 1036, 499, 697, 2539
709, 1371, 1372, 2161, 2313
710, 1263, 523, 1371, 2313
711, 1002, 2125, 1000, 2257
712, 998, 2126, 1003, 2258
713, 636, 2212, 1690, 2368
714, 2188, 2333, 1393, 2391
715, 1537, 2264, 1808, 2561
716, 1450, 2381, 2275, 2507
717, 756, 2164, 707, 2359
718, 667, 1103, 1029, 2214
719, 655, 1701, 816, 2192
720, 1450, 2295, 2275, 2381
721, 2001, 2100, 2274, 2461
722, 1273, 1286, 1508, 2311
723, 1720, 2237, 992, 2340
724, 692, 497, 2230, 2560
725, 1244, 1469, 2140, 2530
726, 1302, 1291, 2135, 2291
727, 1298, 2134, 1286, 2292
728, 1690, 2212, 636, 2304
729, 1916, 838, 653, 2506
730, 975, 1815, 2222, 2545
731, 499, 533, 697, 2539
732, 2132, 2293, 2274, 2461
733, 2067, 2112, 2050, 2232
734, 1173, 2234, 1095, 2355
735, 646, 1705, 874, 2189
736, 1869, 1912, 983, 2235
737, 2134, 2292, 2218, 2365
738, 2135, 2219, 2291, 2364
739, 1322, 1321, 2142, 2305
740, 595, 2286, 2146, 2462
741, 1450, 2295, 2381, 2507
742, 566, 611, 493, 2184
743, 1895, 1034, 1854, 2244
744, 646, 2254, 872, 2310
745, 1883, 838, 1916, 2207
746, 933, 692, 1068, 2560
747, 1801, 2170, 1839, 2322
748, 1570, 1452, 2205, 2510
749, 1430, 2254, 2189, 2310
750, 2072, 2488, 2158, 2583
751, 710, 2172, 729, 2349
752, 1114, 2156, 1162, 2246
753, 1986, 708, 757, 2363
754, 766, 2242, 2174, 2471
755, 1926, 1906, 1877, 2526
756, 1612, 555, 1317, 2267
757, 1351, 1341, 2136, 2253
758, 1802, 1568, 2217, 2495
759, 822, 2180, 652, 2353
760, 1975, 1579, 1181, 2232
761, 1198, 1904, 2209, 2300
762, 2192, 2185, 2400, 2436
763, 685, 2166, 888, 2555
764, 1204, 2268, 1424, 2324
765, 2148, 2280, 2206, 2373
766, 880, 2177, 708, 2363
767, 2123, 2250, 2103, 2461
768, 2065, 1503, 2017, 2307
769, 1908, 1186, 1878, 2239
770, 1807, 1836, 1802, 2217
771, 851, 2231, 2301, 2408
772, 1096, 2175, 1156, 2247
773, 2181, 2208, 2160, 2566
774, 898, 2280, 2148, 2527
775, 836, 2181, 838, 2207
776, 555, 484, 1317, 2267
777, 881, 1002, 2276, 2465
778, 565, 549, 611, 2245
779, 2206, 2280, 2226, 2373
780, 1245, 2162, 1463, 2547
781, 1537, 1592, 2264, 2561
782, 1099, 664, 2155, 2398
783, 1459, 2206, 1458, 2373
784, 1620, 1186, 1552, 2239
785, 838, 2181, 653, 2506
786, 1215, 2289, 2180, 2321
787, 823, 652, 1012, 2139
788, 1653, 1650, 1021, 2357
789, 1604, 2146, 1297, 2311
790, 1230, 1534, 1575, 2524
791, 867, 2189, 871, 2341
792, 1261, 495, 2201, 2313
793, 1270, 2172, 1288, 2281
794, 1588, 2272, 2322, 2571
795, 638, 945, 1674, 2417
796, 824, 2313, 811, 2353
797, 1475, 2285, 2200, 2439
798, 811, 2180, 813, 2353
799, 635, 2204, 1874, 2295
800, 2173, 1599, 2452, 2508
801, 1848, 1901, 1184, 2428
802, 707, 2164, 1046, 2359
803, 2001, 2103, 2100, 2461
804, 2224, 2411, 2147, 2449
805, 1965, 2219, 1921, 2257
806, 1781, 1739, 2218, 2258
807, 1622, 1177, 1583, 2213
808, 787, 2124, 1083, 2251
809, 1565, 1270, 1289, 2183
810, 495, 597, 534, 2283
811, 1271, 1288, 1270, 2172
812, 530, 483, 1392, 2436
813, 1353, 2129, 2228, 2457
814, 638, 2206, 945, 2417
815, 1353, 2228, 2129, 2395
816, 1474, 2285, 2171, 2528
817, 1972, 1975, 1581, 2415
818, 1047, 2165, 708, 2363
819, 1383, 1700, 1215, 2321
820, 1848, 1932, 1901, 2428
821, 564, 2234, 733, 2286
822, 991, 1727, 2221, 2256
823, 1299, 2146, 1183, 2267
824, 1303, 1182, 2145, 2266
825, 1371, 2201, 2261, 2313
826, 2088, 2132, 1998, 2535
827, 619, 1021, 1650, 2357
828, 1286, 2134, 1508, 2311
829, 2094, 2124, 2012, 2554
830, 708, 2165, 757, 2363
831, 2154, 2230, 867, 2559
832, 1055, 657, 2125, 2244
833, 2163, 2251, 2130, 2552
834, 1113, 661, 1114, 2246
835, 2034, 880, 708, 2363
836, 840, 2128, 2244, 2465
837, 611, 2245, 2184, 2448
838, 2205, 2224, 2147, 2449
839, 1537, 1592, 2262, 2264
840, 2133, 2280, 2226, 2352
841, 766, 714, 2242, 2471
842, 2104, 2059, 2000, 2243
843, 2072, 2052, 2488, 2583
844, 1938, 1896, 1881, 2411
845, 1357, 2378, 2366, 2395
846, 1639, 2402, 2186, 2519
847, 939, 2151, 2226, 2352
848, 495, 2201, 597, 2283
849, 1130, 1128, 1146, 2314
850, 1469, 2275, 2140, 2530
851, 1641, 1180, 2253, 2463
852, 2147, 2224, 2205, 2446
853, 1581, 1975, 1181, 2415
854, 530, 1392, 1265, 2436
855, 1243, 1611, 2241, 2351
856, 1372, 1263, 1371, 2161
857, 530, 598, 483, 2436
858, 2050, 2094, 2012, 2554
859, 1029, 2335, 2214, 2437
860, 1995, 721, 787, 2263
861, 920, 2240, 2178, 2441
862, 1256, 1998, 1589, 2461
863, 2209, 2381, 2295, 2507
864, 2265, 2345, 2149, 2428
865, 1181, 1975, 2232, 2319
866, 929, 2287, 2239, 2410
867, 2268, 2324, 1918, 2503
868, 1570, 2510, 2205, 2575
869, 985, 2187, 905, 2376
870, 1401, 2207, 1217, 2402
871, 1383, 1215, 2180, 2321
872, 2388, 2398, 2255, 2499
873, 1034, 1895, 657, 2244
874, 2036, 2104, 2243, 2466
875, 1095, 1584, 1179, 2234
876, 2145, 2266, 1182, 2567
877, 1652, 1655, 1574, 2245
878, 1650, 1654, 1013, 2448
879, 1282, 2232, 2050, 2554
880, 2010, 2052, 1236, 2488
881, 1099, 1131, 2155, 2314
882, 1393, 1260, 2062, 2188
883, 1827, 2210, 1812, 2508
884, 1477, 1236, 2052, 2488
885, 1179, 2203, 1315, 2247
886, 1125, 2167, 663, 2259
887, 2229, 2253, 1180, 2463
888, 2131, 2243, 2104, 2466
889, 1273, 1508, 476, 2425
890, 478, 1507, 1271, 2426
891, 2114, 1102, 1177, 2213
892, 1099, 1130, 1131, 2314
893, 945, 2226, 1713, 2417
894, 787, 721, 1079, 2263
895, 1807, 1836, 2217, 2242
896, 720, 789, 566, 2184
897, 929, 2130, 1059, 2390
898, 1206, 1421, 1913, 2179
899, 1575, 2272, 2144, 2524
900, 1243, 2271, 510, 2351
901, 2224, 2300, 1509, 2377
902, 1808, 2264, 1832, 2561
903, 2177, 2276, 2125, 2465
904, 1537, 1538, 2170, 2262
905, 1032, 1918, 2324, 2503
906, 1282, 2067, 2050, 2232
907, 2178, 2240, 2121, 2393
908, 953, 2295, 2209, 2381
909, 2272, 2323, 2322, 2571
910, 2260, 2283, 533, 2539
911, 1256, 2132, 1422, 2535
912, 1016, 2346, 2143, 2450
913, 1908, 1878, 1957, 2239
914, 2029, 1589, 1998, 2461
915, 1992, 2171, 1242, 2512
916, 809, 714, 1803, 2389
917, 2143, 2346, 1016, 2347
918, 2010, 2072, 2052, 2488
919, 548, 1235, 509, 2457
920, 778, 2130, 2251, 2412
921, 1879, 2147, 1951, 2411
922, 2012, 1348, 2050, 2554
923, 1818, 1808, 1832, 2561
924, 813, 2161, 812, 2440
925, 2251, 2412, 2130, 2552
926, 891, 890, 997, 2147
927, 2216, 2268, 2371, 2503
928, 895, 2280, 2133, 2352
929, 872, 1676, 646, 2310
930, 1317, 2267, 2164, 2292
931, 1318, 2165, 2266, 2291
932, 992, 2237, 2312, 2454
933, 1032, 2324, 863, 2503
934, 739, 2218, 999, 2277
935, 1128, 2175, 1146, 2314
936, 2194, 2216, 1420, 2326
937, 823, 652, 2139, 2353
938, 1477, 2488, 2052, 2583
939, 1001, 2219, 743, 2276
940, 1799, 1827, 1812, 2508
941, 1310, 2314, 1309, 2407
942, 1208, 1433, 1688, 2197
943, 566, 493, 720, 2184
944, 1636, 1573, 2139, 2256
945, 2162, 2282, 1463, 2547
946, 1648, 2118, 1637, 2343
947, 1245, 2162, 556, 2549
948, 1265, 503, 530, 2436
949, 1388, 1387, 2260, 2283
950, 1230, 1126, 1115, 2524
951, 1217, 2207, 1923, 2506
952, 612, 2234, 564, 2286
953, 478, 477, 2135, 2172
954, 1419, 2179, 1418, 2332
955, 824, 2201, 2313, 2353
956, 999, 660, 998, 2258
957, 1001, 1000, 659, 2257
958, 1868, 2125, 1218, 2257
959, 1685, 1219, 2126, 2258
960, 696, 537, 2227, 2513
961, 483, 1263, 1392, 2436
962, 2212, 2368, 903, 2376
963, 1050, 906, 1048, 2193
964, 2166, 2279, 888, 2555
965, 1564, 2258, 2277, 2464
966, 779, 2236, 2149, 2329
967, 771, 2156, 661, 2288
968, 2178, 2393, 2121, 2486
969, 2147, 2446, 2205, 2579
970, 2195, 2349, 2145, 2419
971, 1302, 1301, 1291, 2291
972, 1297, 1298, 1286, 2292
973, 2051, 1244, 1993, 2530
974, 1095, 1179, 2247, 2355
975, 934, 1067, 691, 2243
976, 2272, 2298, 2141, 2529
977, 1990, 2158, 916, 2273
978, 2012, 2124, 1348, 2554
979, 1265, 503, 2436, 2568
980, 1330, 1118, 2246, 2382
981, 1227, 2142, 1168, 2502
982, 1787, 1824, 1815, 2545
983, 2106, 853, 703, 2517
984, 871, 2189, 644, 2341
985, 1322, 1321, 1320, 2142
986, 1395, 2160, 2316, 2421
987, 1564, 2126, 2258, 2464
988, 2203, 2234, 1316, 2462
989, 663, 2167, 771, 2288
990, 703, 843, 2186, 2517
991, 1912, 2235, 1947, 2501
992, 1434, 1431, 1610, 2197
993, 2130, 2390, 2239, 2428
994, 742, 2266, 2165, 2364
995, 2164, 2267, 738, 2365
996, 2094, 2263, 2124, 2554
997, 1611, 2193, 1609, 2241
998, 1102, 2114, 2003, 2213
999, 2181, 2278, 2160, 2421
1000, 1060, 2163, 925, 2251
1001, 2192, 2185, 2436, 2440
1002, 851, 996, 2231, 2370
1003, 2121, 2240, 2178, 2485
1004, 1805, 1806, 1787, 2322
1005, 929, 2239, 2163, 2390
1006, 1930, 2179, 1871, 2331
1007, 1115, 1534, 1230, 2524
1008, 2148, 2294, 2280, 2373
1009, 1293, 1503, 2065, 2307
1010, 707, 879, 2176, 2359
1011, 1897, 637, 953, 2209
1012, 986, 2233, 1906, 2526
1013, 508, 806, 547, 2228
1014, 1055, 1034, 657, 2244
1015, 1278, 2210, 1533, 2508
1016, 696, 2227, 537, 2361
1017, 1375, 2400, 1382, 2436
1018, 547, 2228, 806, 2249
1019, 2068, 788, 2263, 2481
1020, 1281, 549, 2245, 2565
1021, 1075, 1026, 825, 2190
1022, 2184, 2312, 2136, 2356
1023, 982, 638, 1712, 2206
1024, 1489, 2287, 2239, 2488
1025, 1200, 1893, 1509, 2224
1026, 2129, 2249, 2228, 2457
1027, 565, 1281, 549, 2245
1028, 929, 2163, 2239, 2287
1029, 1074, 2336, 2221, 2572
1030, 2206, 2304, 982, 2380
1031, 1468, 1244, 2051, 2530
1032, 1801, 2170, 718, 2264
1033, 1725, 985, 636, 2368
1034, 778, 2163, 1060, 2251
1035, 929, 778, 2130, 2163
1036, 753, 1044, 731, 2195
1037, 1975, 2319, 1181, 2415
1038, 1489, 2239, 2163, 2488
1039, 970, 2210, 2423, 2497
1040, 1386, 2201, 1387, 2283
1041, 1440, 2277, 2176, 2464
1042, 910, 2235, 2204, 2467
1043, 1689, 1718, 1550, 2248
1044, 996, 851, 2231, 2498
1045, 1434, 2227, 1617, 2360
1046, 1330, 2156, 1517, 2358
1047, 1931, 2125, 1895, 2244
1048, 1096, 1129, 1223, 2247
1049, 848, 699, 2041, 2250
1050, 1533, 1799, 1812, 2508
1051, 1650, 1013, 619, 2448
1052, 2193, 2241, 1611, 2351
1053, 1256, 1589, 2293, 2461
1054, 707, 1046, 879, 2359
1055, 686, 937, 898, 2527
1056, 1204, 1420, 2194, 2324
1057, 1180, 1574, 1655, 2245
1058, 2122, 2237, 1343, 2457
1059, 1139, 2214, 1153, 2437
1060, 1948, 1863, 1887, 2324
1061, 979, 2214, 2328, 2558
1062, 1699, 2189, 1435, 2269
1063, 1059, 929, 778, 2130
1064, 1015, 969, 2199, 2534
1065, 530, 503, 602, 2436
1066, 1961, 1883, 2207, 2244
1067, 1676, 1709, 1769, 2310
1068, 499, 596, 533, 2260
1069, 1725, 1690, 1761, 2368
1070, 1474, 1242, 1513, 2528
1071, 1620, 1490, 2239, 2552
1072, 1612, 1299, 1183, 2267
1073, 1303, 1613, 1182, 2266
1074, 548, 2337, 1235, 2457
1075, 2221, 2336, 829, 2539
1076, 1690, 2212, 1761, 2368
1077, 916, 2158, 1990, 2270
1078, 997, 2224, 639, 2411
1079, 1148, 1124, 1168, 2562
1080, 1220, 1740, 2218, 2258
1081, 1221, 2219, 1922, 2257
1082, 848, 2250, 849, 2301
1083, 1812, 1278, 1533, 2508
1084, 881, 708, 2177, 2363
1085, 768, 1108, 2247, 2355
1086, 1906, 986, 1877, 2233
1087, 2029, 1998, 2078, 2461
1088, 1751, 2150, 1665, 2252
1089, 798, 2416, 2220, 2422
1090, 1924, 2431, 2208, 2553
1091, 2296, 2150, 2395, 2416
1092, 1119, 1150, 2214, 2558
1093, 1896, 997, 639, 2411
1094, 1763, 1689, 2137, 2248
1095, 1257, 2360, 506, 2492
1096, 2247, 2327, 768, 2355
1097, 2158, 2233, 1484, 2488
1098, 494, 536, 686, 2527
1099, 2007, 2243, 2101, 2523
1100, 1244, 1468, 1469, 2530
1101, 1896, 2147, 997, 2411
1102, 1301, 2307, 1292, 2342
1103, 2121, 2475, 2240, 2485
1104, 697, 533, 2283, 2539
1105, 793, 2340, 2296, 2541
1106, 1806, 2191, 1787, 2322
1107, 991, 649, 1727, 2256
1108, 1794, 1846, 2183, 2367
1109, 2043, 1242, 1992, 2528
1110, 2161, 2261, 1372, 2289
1111, 557, 2161, 702, 2313
1112, 1371, 2261, 1372, 2313
1113, 937, 686, 536, 2527
1114, 1609, 2241, 2187, 2406
1115, 992, 2340, 2237, 2454
1116, 870, 1049, 2197, 2254
1117, 2184, 2245, 2229, 2448
1118, 2184, 2245, 1281, 2463
1119, 1747, 1735, 1697, 2269
1120, 1261, 1371, 495, 2313
1121, 985, 2212, 636, 2368
1122, 1772, 1664, 2312, 2413
1123, 1206, 1418, 1419, 2179
1124, 486, 2286, 595, 2462
1125, 2001, 2041, 2103, 2250
1126, 999, 1046, 739, 2277
1127, 1047, 1001, 743, 2276
1128, 2163, 2270, 2251, 2458
1129, 1868, 1936, 2125, 2257
1130, 1685, 2126, 1752, 2258
1131, 1513, 1242, 2043, 2528
1132, 751, 2398, 2388, 2499
1133, 1175, 614, 501, 2234
1134, 662, 2175, 770, 2354
1135, 1330, 2246, 2358, 2382
1136, 790, 784, 781, 2136
1137, 2239, 2390, 929, 2410
1138, 848, 847, 2250, 2301
1139, 2040, 2166, 685, 2555
1140, 1343, 2237, 2122, 2356
1141, 695, 2019, 2132, 2274
1142, 1948, 1887, 2194, 2324
1143, 2019, 695, 2132, 2350
1144, 1807, 1837, 1836, 2242
1145, 1256, 2058, 1998, 2535
1146, 2044, 787, 1991, 2251
1147, 919, 2233, 2240, 2441
1148, 1040, 820, 2317, 2472
1149, 2214, 2284, 1153, 2437
1150, 1733, 1573, 2139, 2320
1151, 1896, 2147, 1951, 2503
1152, 2183, 2288, 2281, 2509
1153, 1818, 1277, 1808, 2561
1154, 1002, 1000, 1001, 2257
1155, 999, 998, 1003, 2258
1156, 1083, 2251, 2124, 2412
1157, 1386, 2283, 1387, 2521
1158, 1979, 2319, 1975, 2415
1159, 1234, 2458, 1621, 2552
1160, 1115, 1126, 1159, 2524
1161, 1413, 2118, 1648, 2434
1162, 1591, 1645, 2231, 2518
1163, 1522, 2315, 2432, 2469
1164, 2106, 2069, 853, 2517
1165, 1193, 1550, 1718, 2248
1166, 1261, 2201, 1371, 2313
1167, 2003, 2114, 2065, 2213
1168, 1141, 1177, 1102, 2213
1169, 2122, 2312, 2184, 2356
1170, 768, 2175, 662, 2327
1171, 2158, 2287, 2233, 2488
1172, 829, 2221, 1074, 2336
1173, 1666, 2340, 625, 2541
1174, 1951, 2147, 1896, 2411
1175, 1961, 1923, 2207, 2506
1176, 1650, 619, 2229, 2448
1177, 2013, 2215, 2084, 2512
1178, 2128, 840, 2244, 2401
1179, 2155, 2255, 2398, 2499
1180, 1067, 2243, 2131, 2371
1181, 703, 853, 843, 2517
1182, 2091, 2140, 2290, 2530
1183, 1174, 2115, 1061, 2213
1184, 986, 2240, 2233, 2526
1185, 881, 1047, 708, 2363
1186, 2231, 2370, 2118, 2408
1187, 2072, 2270, 2158, 2488
1188, 1017, 789, 2184, 2448
1189, 875, 1033, 2211, 2341
1190, 2120, 2262, 1592, 2561
1191, 2054, 2414, 679, 2460
1192, 1815, 975, 2222, 2491
1193, 1698, 1767, 1713, 2226
1194, 1377, 2192, 1215, 2321
1195, 1978, 2232, 1975, 2319
1196, 556, 1502, 513, 2547
1197, 2075, 2027, 2165, 2266
1198, 576, 2164, 484, 2267
1199, 2127, 2387, 2238, 2400
1200, 1673, 1377, 1215, 2321
1201, 585, 2372, 2184, 2565
1202, 970, 2210, 971, 2423
1203, 1441, 2177, 1988, 2363
1204, 2144, 2298, 1159, 2524
1205, 1772, 2312, 2237, 2413
1206, 1113, 769, 661, 2246
1207, 720, 493, 786, 2184
1208, 1017, 2184, 2229, 2448
1209, 569, 2176, 603, 2359
1210, 2055, 2140, 683, 2290
1211, 2063, 621, 2145, 2266
1212, 562, 2146, 622, 2267
1213, 838, 1916, 2207, 2506
1214, 506, 2360, 2227, 2492
1215, 1150, 2297, 2214, 2558
1216, 1502, 1245, 1463, 2547
1217, 1747, 2211, 1735, 2269
1218, 1444, 1570, 1452, 2205
1219, 1322, 2305, 2223, 2564
1220, 598, 2318, 2161, 2436
1221, 1978, 2319, 1975, 2329
1222, 1257, 2227, 2360, 2492
1223, 1430, 2189, 1435, 2310
1224, 925, 2163, 926, 2270
1225, 531, 1249, 2133, 2294
1226, 2226, 2280, 2133, 2373
1227, 1049, 873, 1056, 2336
1228, 2137, 2422, 2198, 2487
1229, 1897, 1874, 1950, 2295
1230, 1044, 2145, 2349, 2419
1231, 1612, 1317, 1299, 2267
1232, 1318, 1613, 1303, 2266
1233, 852, 1087, 2118, 2435
1234, 1804, 1836, 2217, 2496
1235, 2038, 2171, 681, 2303
1236, 487, 2176, 1439, 2359
1237, 840, 2244, 1055, 2465
1238, 1484, 2233, 2158, 2302
1239, 1208, 2403, 2197, 2572
1240, 1883, 656, 2207, 2244
1241, 1511, 1256, 1422, 2535
1242, 951, 685, 888, 2555
1243, 1030, 2231, 851, 2498
1244, 1204, 1917, 1593, 2268
1245, 1550, 1364, 2137, 2248
1246, 903, 2368, 985, 2376
1247, 1431, 2197, 2254, 2310
1248, 2240, 2475, 920, 2485
1249, 2054, 2215, 2414, 2460
1250, 2178, 2240, 920, 2485
1251, 684, 2162, 491, 2308
1252, 521, 2146, 575, 2267
1253, 619, 1650, 2229, 2357
1254, 1490, 2163, 2239, 2552
1255, 2120, 2242, 2174, 2335
1256, 868, 869, 2154, 2254
1257, 811, 813, 815, 2353
1258, 720, 786, 1082, 2184
1259, 501, 1101, 1175, 2234
1260, 640, 994, 1708, 2538
1261, 1616, 1218, 1595, 2409
1262, 556, 1245, 1502, 2547
1263, 983, 2204, 910, 2235
1264, 1300, 2218, 1586, 2292
1265, 1304, 1585, 2219, 2291
1266, 2148, 2294, 592, 2527
1267, 1087, 2118, 2330, 2370
1268, 1281, 2245, 2184, 2565
1269, 683, 2140, 2055, 2303
1270, 1103, 1153, 1139, 2214
1271, 985, 903, 2212, 2368
1272, 1649, 2121, 2486, 2489
1273, 1374, 2180, 1215, 2289
1274, 1430, 1431, 1429, 2254
1275, 1756, 2211, 1734, 2445
1276, 1215, 2192, 1377, 2289
1277, 920, 2178, 918, 2441
1278, 2045, 2251, 2109, 2458
1279, 1892, 2194, 862, 2324
1280, 1883, 656, 838, 2207
1281, 2220, 2416, 2198, 2422
1282, 1849, 1935, 1900, 2410
1283, 1114, 1162, 1113, 2246
1284, 1740, 1220, 2218, 2425
1285, 1922, 2219, 1221, 2426
1286, 612, 564, 486, 2286
1287, 2214, 2262, 1602, 2483
1288, 1126, 2144, 1230, 2297
1289, 2097, 2062, 2188, 2333
1290, 1893, 1940, 1904, 2300
1291, 1119, 1150, 1103, 2214
1292, 1511, 2058, 1256, 2535
1293, 2173, 2452, 2450, 2508
1294, 1961, 1884, 1883, 2244
1295, 541, 2220, 546, 2325
1296, 636, 2212, 982, 2304
1297, 1717, 1666, 625, 2541
1298, 1379, 2387, 1615, 2464
1299, 581, 546, 512, 2325
1300, 796, 2296, 2228, 2416
1301, 796, 2228, 2366, 2416
1302, 1418, 2153, 1417, 2332
1303, 707, 756, 1046, 2164
1304, 708, 1047, 757, 2165
1305, 1972, 1979, 1975, 2415
1306, 1594, 1734, 2211, 2445
1307, 1604, 1287, 1316, 2203
1308, 2119, 2227, 2197, 2336
1309, 1351, 1296, 1341, 2253
1310, 581, 512, 2225, 2325
1311, 1223, 1129, 1329, 2247
1312, 1516, 2175, 1223, 2247
1313, 757, 1986, 2165, 2266
1314, 756, 2164, 526, 2267
1315, 1076, 852, 2118, 2408
1316, 2051, 1993, 2091, 2530
1317, 1317, 1299, 2267, 2292
1318, 1318, 2266, 1303, 2291
1319, 1690, 1712, 1768, 2304
1320, 1849, 1189, 2233, 2410
1321, 2013, 2053, 1240, 2512
1322, 2073, 685, 2166, 2290
1323, 635, 983, 1912, 2204
1324, 1579, 1982, 1633, 2232
1325, 925, 1060, 926, 2163
1326, 1659, 2229, 1655, 2245
1327, 2275, 2381, 2166, 2507
1328, 1849, 1900, 1189, 2410
1329, 1794, 1846, 1820, 2495
1330, 522, 2185, 704, 2318
1331, 2299, 2432, 2315, 2469
1332, 640, 939, 2151, 2226
1333, 635, 953, 2204, 2295
1334, 896, 2226, 2280, 2352
1335, 494, 2148, 686, 2308
1336, 2027, 2165, 1318, 2363
1337, 2017, 2113, 2307, 2567
1338, 710, 729, 730, 2349
1339, 640, 2151, 994, 2538
1340, 1913, 2179, 1930, 2427
1341, 1198, 2209, 1509, 2300
1342, 1690, 636, 982, 2304
1343, 1411, 2123, 1412, 2293
1344, 739, 2164, 738, 2365
1345, 743, 742, 2165, 2364
1346, 792, 2249, 2228, 2296
1347, 953, 635, 2204, 2381
1348, 1267, 2030, 2338, 2519
1349, 982, 2212, 636, 2380
1350, 1304, 1608, 2165, 2276
1351, 1300, 2164, 1607, 2277
1352, 1734, 1594, 2211, 2269
1353, 2038, 681, 2171, 2460
1354, 1278, 1518, 1531, 2182
1355, 494, 592, 536, 2527
1356, 1698, 1713, 640, 2226
1357, 2204, 2467, 2235, 2500
1358, 1168, 2142, 1124, 2502
1359, 733, 1062, 1023, 2234
1360, 2233, 2287, 1489, 2488
1361, 531, 2133, 1249, 2468
1362, 614, 564, 501, 2234
1363, 1717, 625, 989, 2541
1364, 2213, 2307, 2113, 2419
1365, 2097, 2006, 2062, 2333
1366, 1708, 1755, 1698, 2538
1367, 767, 1086, 2120, 2335
1368, 1794, 2183, 1846, 2495
1369, 1581, 1181, 1642, 2415
1370, 1198, 1509, 1904, 2300
1371, 1599, 1577, 2305, 2452
1372, 1495, 2037, 2131, 2575
1373, 956, 2156, 661, 2246
1374, 1262, 2160, 1394, 2391
1375, 1849, 2233, 1935, 2410
1376, 997, 2147, 1896, 2503
1377, 1175, 1101, 1142, 2234
1378, 770, 2155, 664, 2354
1379, 1301, 1303, 2145, 2291
1380, 1297, 2146, 1299, 2292
1381, 772, 2217, 714, 2471
1382, 2138, 2279, 885, 2446
1383, 626, 929, 2390, 2410
1384, 875, 644, 1033, 2341
1385, 1317, 2164, 484, 2359
1386, 1356, 1188, 2150, 2252
1387, 635, 1874, 953, 2295
1388, 1549, 1714, 1188, 2252
1389, 1995, 2112, 2068, 2263
1390, 578, 2308, 2162, 2547
1391, 1665, 1188, 1714, 2252
1392, 2136, 2229, 2184, 2463
1393, 2017, 2307, 1503, 2567
1394, 1538, 1279, 1537, 2170
1395, 881, 708, 880, 2177
1396, 1699, 2189, 1754, 2310
1397, 707, 879, 878, 2176
1398, 1583, 1293, 1622, 2213
1399, 556, 513, 578, 2547
1400, 1179, 1316, 1315, 2203
1401, 2109, 2251, 2071, 2458
1402, 955, 662, 2175, 2327
1403, 634, 2187, 1687, 2334
1404, 2220, 2325, 800, 2422
1405, 1558, 2147, 1202, 2411
1406, 679, 2414, 2215, 2460
1407, 870, 873, 1049, 2254
1408, 1371, 2201, 1385, 2261
1409, 851, 2231, 1030, 2301
1410, 714, 1804, 2217, 2496
1411, 1096, 1156, 1129, 2247
1412, 823, 2139, 825, 2353
1413, 1869, 2235, 633, 2344
1414, 541, 570, 2220, 2325
1415, 839, 2278, 2207, 2401
1416, 2043, 1992, 2080, 2528
1417, 2080, 2171, 2303, 2528
1418, 524, 866, 497, 2230
1419, 2071, 2270, 2047, 2458
1420, 1430, 1431, 2254, 2310
1421, 569, 2176, 878, 2317
1422, 1517, 1330, 1222, 2156
1423, 2130, 2265, 775, 2390
1424, 1515, 1148, 1168, 2562
1425, 1222, 2156, 1093, 2306
1426, 1379, 2127, 1380, 2400
1427, 792, 2129, 2249, 2296
1428, 2018, 880, 2177, 2338
1429, 2138, 2377, 2279, 2446
1430, 1759, 1687, 2187, 2334
1431, 510, 539, 2241, 2549
1432, 1914, 1943, 2344, 2433
1433, 1493, 1649, 2486, 2489
1434, 1396, 1394, 2160, 2391
1435, 626, 2390, 1850, 2410
1436, 2145, 2307, 2195, 2419
1437, 2010, 2270, 2072, 2488
1438, 986, 1906, 2240, 2526
1439, 1870, 1953, 1916, 2506
1440, 2095, 2124, 2044, 2251
1441, 1418, 1416, 2153, 2326
1442, 2231, 2370, 996, 2498
1443, 1529, 1121, 2157, 2315
1444, 2194, 2332, 2179, 2438
1445, 2153, 2332, 2194, 2438
1446, 1379, 1381, 2127, 2464
1447, 840, 842, 2128, 2465
1448, 1874, 2204, 1950, 2295
1449, 487, 2176, 529, 2317
1450, 491, 2162, 684, 2444
1451, 2198, 2378, 2220, 2490
1452, 510, 2241, 539, 2271
1453, 971, 1015, 969, 2450
1454, 1346, 2122, 1343, 2457
1455, 974, 1098, 1137, 2534
1456, 745, 2167, 663, 2288
1457, 2062, 2099, 2188, 2250
1458, 2192, 2436, 2289, 2440
1459, 1452, 2411, 1451, 2449
1460, 1569, 2223, 1322, 2255
1461, 1940, 2209, 1904, 2300
1462, 646, 2189, 869, 2254
1463, 564, 943, 486, 2286
1464, 2075, 2008, 2027, 2266
1465, 555, 576, 484, 2267
1466, 2058, 2088, 1998, 2535
1467, 869, 871, 867, 2189
1468, 940, 2151, 2352, 2385
1469, 655, 2192, 817, 2238
1470, 744, 661, 2156, 2288
1471, 1586, 2292, 2218, 2425
1472, 2219, 2291, 1585, 2426
1473, 843, 2278, 2186, 2517
1474, 971, 2210, 970, 2497
1475, 670, 1137, 2520, 2534
1476, 1188, 2150, 1665, 2394
1477, 1668, 2180, 822, 2321
1478, 1569, 2223, 2255, 2556
1479, 702, 2161, 811, 2313
1480, 813, 814, 2321, 2440
1481, 2062, 2188, 1260, 2250
1482, 1141, 1583, 2213, 2382
1483, 1211, 1591, 1645, 2231
1484, 1174, 1102, 2115, 2213
1485, 1375, 1377, 2192, 2289
1486, 1240, 2053, 1491, 2512
1487, 2193, 2271, 2241, 2351
1488, 718, 2170, 967, 2323
1489, 991, 1074, 829, 2221
1490, 753, 2195, 731, 2478
1491, 839, 2207, 2244, 2401
1492, 1562, 1304, 2219, 2276
1493, 1300, 1560, 2218, 2277
1494, 2176, 2277, 2126, 2464
1495, 1333, 2242, 2217, 2369
1496, 874, 644, 871, 2189
1497, 2197, 2227, 2119, 2403
1498, 1322, 1323, 2305, 2564
1499, 2136, 2253, 1780, 2525
1500, 2261, 2313, 2201, 2353
1501, 991, 1074, 2221, 2572
1502, 1788, 2170, 1279, 2322
1503, 499, 596, 2260, 2361
1504, 2450, 2452, 2210, 2508
1505, 834, 2160, 835, 2278
1506, 651, 844, 837, 2208
1507, 1529, 2157, 1121, 2479
1508, 783, 781, 784, 2312
1509, 1444, 1570, 2205, 2575
1510, 719, 2191, 975, 2529
1511, 1262, 2160, 2024, 2316
1512, 2190, 2283, 2201, 2521
1513, 1707, 1195, 2187, 2368
1514, 1460, 2148, 1461, 2282
1515, 1690, 1768, 2212, 2304
1516, 1301, 2145, 1605, 2307
1517, 1443, 2514, 2032, 2575
1518, 824, 825, 2201, 2353
1519, 702, 2161, 557, 2318
1520, 2045, 2046, 1234, 2458
1521, 2279, 2300, 886, 2377
1522, 1346, 1344, 1343, 2122
1523, 1745, 1727, 649, 2256
1524, 2123, 2231, 2118, 2408
1525, 2160, 2333, 701, 2566
1526, 2077, 2064, 2008, 2266
1527, 521, 575, 555, 2267
1528, 1117, 2214, 1228, 2284
1529, 2139, 1636, 2256, 2521
1530, 2077, 2064, 2266, 2567
1531, 1125, 663, 1105, 2259
1532, 2200, 2344, 1943, 2433
1533, 1807, 1568, 1275, 2217
1534, 534, 1387, 1261, 2283
1535, 1727, 1742, 991, 2221
1536, 1412, 2123, 1411, 2518
1537, 2106, 2023, 2069, 2517
1538, 1815, 2222, 1831, 2491
1539, 2144, 980, 2323, 2328
1540, 2117, 1633, 1982, 2232
1541, 757, 2165, 742, 2266
1542, 738, 2164, 756, 2267
1543, 1396, 1397, 2181, 2421
1544, 541, 546, 570, 2325
1545, 1709, 2197, 1769, 2310
1546, 1172, 2213, 1140, 2478
1547, 1807, 2217, 1275, 2242
1548, 1482, 2121, 1649, 2489
1549, 2084, 2215, 2054, 2460
1550, 1353, 2228, 1367, 2457
1551, 1532, 1278, 1531, 2210
1552, 1827, 1812, 2210, 2497
1553, 1619, 2211, 2379, 2392
1554, 1821, 1004, 2367, 2496
1555, 2205, 2510, 2147, 2579
1556, 1227, 1515, 1168, 2562
1557, 2136, 1351, 2253, 2463
1558, 1444, 2205, 1452, 2449
1559, 2439, 2486, 2121, 2489
1560, 2325, 2422, 2220, 2490
1561, 1277, 1537, 1808, 2561
1562, 1673, 1771, 2192, 2321
1563, 546, 2220, 1369, 2325
1564, 2201, 2521, 1386, 2578
1565, 1343, 2122, 1344, 2356
1566, 1683, 1341, 2136, 2413
1567, 2021, 1248, 2309, 2514
1568, 1228, 2214, 1117, 2297
1569, 1961, 2207, 1916, 2506
1570, 790, 2229, 2136, 2525
1571, 1604, 1297, 1287, 2311
1572, 487, 529, 528, 2317
1573, 1572, 1929, 2168, 2431
1574, 896, 2226, 897, 2280
1575, 870, 2197, 872, 2254
1576, 1689, 2137, 1550, 2396
1577, 507, 569, 603, 2359
1578, 1030, 2301, 2231, 2498
1579, 1430, 2154, 1428, 2384
1580, 1055, 2244, 2125, 2465
1581, 1509, 2209, 1198, 2377
1582, 1820, 1846, 1565, 2495
1583, 1606, 2132, 1256, 2293
1584, 1352, 1343, 2237, 2457
1585, 2279, 2377, 886, 2446
1586, 506, 2227, 594, 2492
1587, 2074, 2061, 2005, 2397
1588, 2106, 2186, 703, 2397
1589, 2120, 2335, 1086, 2389
1590, 1023, 2234, 1142, 2355
1591, 991, 2221, 1742, 2572
1592, 862, 2194, 1892, 2427
1593, 1027, 2170, 718, 2323
1594, 1102, 2003, 2115, 2213
1595, 2067, 1282, 1349, 2232
1596, 1904, 2209, 1941, 2295
1597, 2142, 2305, 1321, 2562
1598, 696, 518, 537, 2513
1599, 2113, 2419, 2307, 2567
1600, 670, 974, 1137, 2534
1601, 1374, 1383, 1215, 2180
1602, 988, 775, 2265, 2390
1603, 2013, 2084, 2053, 2512
1604, 634, 905, 985, 2187
1605, 1343, 2237, 2356, 2413
1606, 526, 579, 2164, 2359
1607, 2155, 2354, 2314, 2453
1608, 704, 2185, 522, 2362
1609, 1854, 1931, 1895, 2244
1610, 1264, 2005, 2186, 2316
1611, 1982, 1579, 1971, 2232
1612, 2205, 2575, 2510, 2579
1613, 892, 2505, 532, 2563
1614, 2195, 2307, 2145, 2342
1615, 692, 497, 866, 2230
1616, 2201, 2139, 2521, 2578
1617, 1990, 2090, 2158, 2273
1618, 2159, 724, 2327, 2383
1619, 1700, 2180, 1762, 2321
1620, 476, 2480, 2159, 2580
1621, 2296, 2340, 2252, 2541
1622, 1522, 2315, 1521, 2432
1623, 1506, 2226, 2417, 2538
1624, 2143, 2305, 1577, 2452
1625, 864, 2243, 1067, 2371
1626, 955, 768, 662, 2327
1627, 1373, 2161, 1372, 2289
1628, 1666, 1749, 2340, 2541
1629, 964, 2298, 1014, 2323
1630, 1700, 2180, 1383, 2320
1631, 1655, 1651, 1582, 2253
1632, 666, 2142, 1097, 2347
1633, 2224, 886, 2300, 2377
1634, 1775, 2139, 1733, 2256
1635, 835, 2160, 834, 2566
1636, 1634, 2121, 1482, 2489
1637, 2232, 2319, 1978, 2329
1638, 483, 2161, 601, 2313
1639, 886, 2377, 2224, 2446
1640, 2024, 2105, 2160, 2333
1641, 1991, 787, 673, 2251
1642, 1934, 1917, 1863, 2324
1643, 1758, 2206, 1719, 2304
1644, 2135, 2145, 2342, 2349
1645, 587, 2201, 495, 2313
1646, 751, 2155, 2398, 2499
1647, 1289, 2183, 2281, 2509
1648, 1014, 2144, 980, 2323
1649, 1459, 1460, 1458, 2206
1650, 825, 2190, 827, 2283
1651, 1979, 1975, 2319, 2329
1652, 1944, 1950, 1874, 2204
1653, 1950, 1944, 1910, 2204
1654, 1368, 2220, 489, 2366
1655, 2240, 2393, 1480, 2526
1656, 1441, 1442, 2177, 2363
1657, 1673, 1377, 2192, 2544
1658, 710, 2172, 477, 2367
1659, 1881, 1949, 2224, 2300
1660, 1410, 2123, 2250, 2518
1661, 2168, 2518, 1645, 2548
1662, 1719, 2206, 1199, 2304
1663, 1033, 2211, 1735, 2339
1664, 1996, 2153, 693, 2350
1665, 1769, 1709, 1764, 2197
1666, 1764, 1688, 1769, 2197
1667, 1493, 1649, 1483, 2486
1668, 2216, 2243, 864, 2371
1669, 1984, 2333, 701, 2517
1670, 2074, 2005, 2186, 2397
1671, 2221, 2256, 1390, 2577
1672, 1829, 2170, 1801, 2264
1673, 2082, 1988, 2030, 2338
1674, 1733, 1573, 1210, 2256
1675, 1387, 2201, 1261, 2283
1676, 699, 2002, 2188, 2333
1677, 2063, 2145, 621, 2419
1678, 1357, 1368, 2228, 2366
1679, 1986, 2165, 2081, 2363
1680, 1118, 1164, 2246, 2382
1681, 1208, 1729, 2221, 2572
1682, 2118, 2370, 1076, 2408
1683, 2198, 2416, 799, 2422
1684, 1467, 1611, 1609, 2241
1685, 1289, 2281, 1306, 2509
1686, 1096, 2175, 1223, 2314
1687, 1198, 2209, 1904, 2295
1688, 1734, 1756, 1747, 2211
1689, 1735, 1747, 1756, 2211
1690, 839, 2244, 840, 2401
1691, 2082, 2177, 1988, 2338
1692, 1940, 1859, 1941, 2209
1693, 1940, 1941, 1904, 2209
1694, 964, 2141, 2298, 2529
1695, 916, 927, 2158, 2270
1696, 2195, 2419, 2307, 2478
1697, 1608, 2165, 2276, 2363
1698, 2183, 2367, 1004, 2496
1699, 1532, 2210, 1531, 2424
1700, 1868, 1218, 1915, 2257
1701, 1685, 1732, 1219, 2258
1702, 489, 1368, 541, 2220
1703, 1766, 2189, 1699, 2269
1704, 2172, 729, 2349, 2455
1705, 701, 2333, 2160, 2517
1706, 934, 2131, 2059, 2494
1707, 2040, 2073, 685, 2166
1708, 2240, 2302, 2233, 2526
1709, 2169, 2388, 2255, 2499
1710, 1934, 1918, 2268, 2324
1711, 850, 2123, 698, 2274
1712, 2132, 2332, 1422, 2535
1713, 542, 489, 541, 2220
1714, 1802, 2217, 1836, 2495
1715, 2075, 2165, 1986, 2266
1716, 526, 2164, 576, 2267
1717, 523, 587, 495, 2313
1718, 2121, 2386, 2215, 2439
1719, 1375, 2192, 1378, 2400
1720, 2123, 2301, 2231, 2408
1721, 2257, 2276, 2125, 2516
1722, 2220, 2422, 2198, 2490
1723, 651, 2208, 837, 2553
1724, 1439, 2176, 1440, 2359
1725, 1781, 2218, 1740, 2258
1726, 1965, 1922, 2219, 2257
1727, 916, 2158, 917, 2273
1728, 1207, 1435, 1699, 2310
1729, 2174, 2242, 1327, 2369
1730, 1975, 1978, 1971, 2232
1731, 2045, 2109, 2046, 2458
1732, 1881, 2224, 639, 2300
1733, 893, 2352, 2202, 2385
1734, 2188, 846, 2333, 2566
1735, 602, 2185, 2318, 2436
1736, 1432, 2269, 2189, 2384
1737, 822, 2180, 813, 2321
1738, 2203, 2286, 2234, 2462
1739, 489, 2220, 542, 2366
1740, 2210, 2450, 2199, 2452
1741, 693, 2153, 1996, 2523
1742, 564, 733, 943, 2286
1743, 851, 1076, 2370, 2408
1744, 1734, 2211, 1747, 2269
1745, 2109, 2071, 2047, 2458
1746, 2143, 2346, 2305, 2450
1747, 1202, 2147, 1618, 2268
1748, 836, 2207, 839, 2278
1749, 1008, 2388, 2169, 2499
1750, 1476, 2275, 2166, 2507
1751, 2146, 2286, 2203, 2462
1752, 1607, 2277, 2164, 2359
1753, 1007, 1793, 1804, 2496
1754, 1176, 613, 1623, 2234
1755, 1092, 1172, 1140, 2478
1756, 1655, 1582, 1180, 2253
1757, 1318, 2165, 1608, 2363
1758, 1769, 2197, 1688, 2310
1759, 1301, 1605, 1292, 2307
1760, 842, 2128, 841, 2401
1761, 1768, 1761, 1690, 2212
1762, 1724, 1761, 1768, 2212
1763, 1699, 1435, 1679, 2269
1764, 521, 2146, 1183, 2462
1765, 1291, 1271, 1507, 2342
1766, 541, 1239, 546, 2220
1767, 949, 518, 696, 2513
1768, 1374, 1372, 2261, 2289
1769, 2242, 2369, 2174, 2471
1770, 664, 751, 2155, 2398
1771, 1301, 1303, 1182, 2145
1772, 1297, 1183, 1299, 2146
1773, 2063, 2145, 2077, 2266
1774, 562, 575, 2146, 2267
1775, 1430, 1435, 1207, 2310
1776, 1237, 1368, 544, 2228
1777, 1666, 1717, 1749, 2541
1778, 557, 702, 504, 2313
1779, 1083, 778, 2251, 2412
1780, 670, 2520, 2199, 2534
1781, 550, 1247, 2294, 2547
1782, 2152, 2379, 2211, 2392
1783, 1648, 2331, 2118, 2343
1784, 2138, 2309, 1248, 2514
1785, 1259, 2026, 2250, 2461
1786, 2217, 2369, 2242, 2471
1787, 1381, 1380, 1379, 2127
1788, 646, 870, 872, 2254
1789, 594, 2227, 537, 2513
1790, 640, 1698, 2226, 2538
1791, 1910, 1950, 2204, 2295
1792, 767, 766, 1086, 2335
1793, 1711, 1700, 1762, 2321
1794, 979, 2214, 981, 2328
1795, 755, 733, 2234, 2286
1796, 1484, 2233, 2302, 2526
1797, 2188, 2301, 2168, 2548
1798, 1486, 1234, 2046, 2458
1799, 1551, 1729, 1677, 2221
1800, 1725, 1765, 1687, 2368
1801, 1041, 2214, 1029, 2335
1802, 1087, 2330, 2118, 2435
1803, 1673, 1711, 1771, 2321
1804, 2131, 2510, 2575, 2579
1805, 745, 663, 771, 2288
1806, 2122, 2184, 2372, 2565
1807, 1699, 1728, 1207, 2310
1808, 1616, 2125, 1218, 2409
1809, 1967, 1069, 1981, 2236
1810, 1387, 534, 2260, 2283
1811, 1739, 2218, 660, 2430
1812, 1921, 659, 2219, 2429
1813, 1460, 1459, 1461, 2148
1814, 1198, 2209, 1448, 2377
1815, 1869, 983, 633, 2235
1816, 1588, 2272, 1527, 2322
1817, 956, 2156, 2246, 2455
1818, 1598, 2215, 1240, 2512
1819, 2021, 2309, 2138, 2514
1820, 2163, 1621, 2458, 2552
1821, 744, 771, 661, 2288
1822, 830, 2119, 828, 2539
1823, 2158, 2287, 927, 2441
1824, 1408, 2250, 2188, 2548
1825, 1440, 1564, 2277, 2464
1826, 524, 497, 525, 2230
1827, 749, 664, 2155, 2354
1828, 1861, 2370, 1952, 2498
1829, 1097, 2142, 666, 2398
1830, 1147, 1124, 2142, 2502
1831, 1250, 1443, 2032, 2575
1832, 663, 2167, 747, 2259
1833, 766, 1086, 2335, 2389
1834, 1765, 2187, 1687, 2368
1835, 1043, 2146, 622, 2286
1836, 1563, 2276, 2257, 2516
1837, 896, 2280, 895, 2352
1838, 710, 946, 477, 2429
1839, 1092, 2246, 2382, 2478
1840, 1396, 1395, 1397, 2421
1841, 1648, 2118, 2331, 2434
1842, 1017, 2184, 784, 2229
1843, 506, 559, 1257, 2492
1844, 1709, 2197, 872, 2572
1845, 835, 837, 844, 2208
1846, 558, 2152, 933, 2563
1847, 2094, 2112, 1995, 2263
1848, 700, 2201, 561, 2313
1849, 2092, 2177, 2018, 2363
1850, 1137, 1160, 2520, 2534
1851, 2014, 2054, 679, 2460
1852, 1480, 1481, 2240, 2302
1853, 842, 840, 2128, 2401
1854, 1914, 1862, 1943, 2433
1855, 1317, 1607, 2164, 2359
1856, 1366, 1609, 2193, 2456
1857, 1433, 1688, 2197, 2310
1858, 866, 2230, 524, 2559
1859, 774, 777, 2149, 2412
1860, 1408, 2518, 2250, 2548
1861, 726, 2203, 2327, 2383
1862, 1859, 2209, 1940, 2300
1863, 526, 507, 579, 2359
1864, 1542, 2214, 1228, 2297
1865, 787, 1083, 673, 2251
1866, 1930, 2330, 2179, 2331
1867, 1313, 2195, 2307, 2382
1868, 2125, 2276, 2177, 2516
1869, 510, 1243, 538, 2549
1870, 1367, 1237, 544, 2228
1871, 1137, 1098, 1160, 2534
1872, 1124, 1097, 1147, 2142
1873, 2032, 1997, 1250, 2575
1874, 1257, 1434, 2227, 2492
1875, 2149, 2236, 779, 2470
1876, 2024, 2006, 2105, 2333
1877, 1735, 2211, 1756, 2339
1878, 1279, 2170, 1588, 2322
1879, 1357, 1368, 2366, 2378
1880, 1124, 2347, 2142, 2562
1881, 1260, 2188, 1393, 2391
1882, 1097, 1147, 2142, 2398
1883, 1688, 1764, 1729, 2572
1884, 1291, 1507, 2135, 2342
1885, 653, 835, 844, 2181
1886, 1466, 2187, 1195, 2368
1887, 622, 1051, 505, 2267
1888, 1140, 2213, 1022, 2478
1889, 2191, 2323, 2272, 2529
1890, 967, 2191, 719, 2323
1891, 1634, 1482, 2121, 2393
1892, 949, 696, 2227, 2513
1893, 1181, 2319, 1642, 2415
1894, 873, 2227, 2254, 2513
1895, 1493, 2486, 2439, 2489
1896, 1516, 2175, 2247, 2459
1897, 801, 799, 2422, 2487
1898, 1136, 1535, 1110, 2474
1899, 1099, 1131, 1149, 2155
1900, 2019, 2078, 2132, 2274
1901, 816, 2192, 1696, 2321
1902, 1435, 2189, 1432, 2269
1903, 1141, 2213, 1172, 2382
1904, 779, 2149, 777, 2263
1905, 483, 601, 523, 2313
1906, 1354, 2129, 2252, 2395
1907, 2198, 2396, 2137, 2487
1908, 1444, 2514, 1443, 2575
1909, 2252, 2340, 1749, 2541
1910, 2121, 2433, 2386, 2439
1911, 1110, 2474, 1231, 2479
1912, 1959, 2330, 860, 2427
1913, 1995, 2068, 721, 2263
1914, 1350, 1281, 565, 2245
1915, 526, 579, 576, 2164
1916, 1164, 1092, 2246, 2382
1917, 1986, 2075, 2081, 2165
1918, 2081, 2075, 2027, 2165
1919, 576, 579, 484, 2164
1920, 1395, 1396, 1394, 2160
1921, 811, 812, 813, 2161
1922, 561, 2201, 700, 2283
1923, 976, 1819, 1801, 2264
1924, 2220, 2378, 1361, 2490
1925, 862, 2194, 859, 2324
1926, 1707, 2187, 1195, 2456
1927, 1393, 1262, 1394, 2391
1928, 2205, 2514, 1444, 2575
1929, 2322, 2323, 2170, 2571
1930, 2174, 2242, 2120, 2483
1931, 2211, 2385, 2152, 2392
1932, 1619, 2211, 2392, 2445
1933, 1934, 2268, 1917, 2324
1934, 1724, 2212, 1197, 2368
1935, 1724, 2212, 1768, 2304
1936, 1204, 1420, 1423, 2194
1937, 2077, 2266, 2145, 2567
1938, 2072, 1990, 2158, 2270
1939, 859, 2324, 2194, 2447
1940, 582, 509, 583, 2249
1941, 841, 2128, 1065, 2397
1942, 777, 2263, 2149, 2412
1943, 842, 841, 840, 2401
1944, 1379, 1615, 1381, 2464
1945, 1678, 632, 2334, 2546
1946, 2190, 2521, 2256, 2577
1947, 840, 1055, 842, 2465
1948, 2241, 2271, 906, 2444
1949, 1617, 2119, 1391, 2577
1950, 2121, 2200, 2433, 2439
1951, 1442, 2276, 2177, 2363
1952, 940, 2352, 893, 2385
1953, 1027, 2170, 2323, 2328
1954, 1655, 2229, 1658, 2253
1955, 2208, 2431, 1924, 2443
1956, 755, 2234, 1023, 2355
1957, 2202, 2352, 2151, 2385
1958, 1652, 1659, 1655, 2245
1959, 2077, 2063, 2096, 2145
1960, 2301, 2518, 2168, 2548
1961, 1959, 860, 1860, 2427
1962, 575, 595, 562, 2146
1963, 575, 521, 595, 2146
1964, 2387, 2464, 2127, 2472
1965, 2031, 1441, 1988, 2363
1966, 1306, 2281, 1305, 2306
1967, 1208, 2221, 2403, 2572
1968, 2305, 2346, 2143, 2347
1969, 728, 2288, 2183, 2536
1970, 2190, 827, 2283, 2539
1971, 1619, 2379, 1438, 2392
1972, 2236, 2319, 1979, 2415
1973, 2230, 2384, 1437, 2493
1974, 910, 2467, 2204, 2540
1975, 1815, 1831, 2222, 2545
1976, 755, 2286, 2234, 2355
1977, 724, 2383, 2159, 2580
1978, 1994, 2309, 1246, 2530
1979, 2195, 2342, 2145, 2349
1980, 1366, 2193, 2248, 2456
1981, 1348, 1644, 1640, 2124
1982, 787, 1079, 1083, 2124
1983, 690, 892, 532, 2563
1984, 2084, 2215, 2013, 2375
1985, 1045, 695, 2132, 2274
1986, 1092, 1140, 1022, 2478
1987, 1480, 2240, 1481, 2393
1988, 1550, 1193, 1364, 2248
1989, 2168, 2301, 2188, 2442
1990, 1763, 1718, 1689, 2248
1991, 2078, 2088, 2019, 2132
1992, 1998, 2088, 2078, 2132
1993, 995, 1730, 1678, 2334
1994, 1608, 2276, 1442, 2363
1995, 1151, 2167, 1125, 2573
1996, 2278, 2316, 2160, 2421
1997, 1617, 1391, 2119, 2403
1998, 1457, 2399, 2226, 2538
1999, 2150, 2378, 2395, 2416
2000, 1952, 2370, 2231, 2498
2001, 2385, 2392, 2211, 2445
2002, 1416, 1254, 2153, 2326
2003, 1634, 1482, 1649, 2489
2004, 2084, 2054, 2215, 2414
2005, 2188, 2301, 847, 2442
2006, 2233, 2302, 2240, 2441
2007, 2145, 2266, 621, 2364
2008, 622, 2267, 2146, 2365
2009, 1456, 2133, 1249, 2294
2010, 756, 738, 739, 2164
2011, 743, 742, 757, 2165
2012, 1280, 2191, 1838, 2322
2013, 1428, 1430, 1429, 2154
2014, 867, 868, 869, 2154
2015, 1248, 2138, 1446, 2309
2016, 1416, 1417, 1418, 2153
2017, 996, 1030, 851, 2498
2018, 1051, 756, 505, 2267
2019, 1947, 2235, 1869, 2344
2020, 1440, 2176, 2277, 2359
2021, 1685, 2126, 1219, 2387
2022, 2014, 679, 930, 2460
2023, 2216, 2324, 863, 2447
2024, 971, 2420, 2210, 2497
2025, 596, 2360, 2260, 2361
2026, 562, 622, 505, 2267
2027, 2199, 2520, 1160, 2534
2028, 1606, 1256, 1589, 2293
2029, 1925, 988, 2265, 2390
2030, 1777, 1763, 1689, 2137
2031, 1080, 2229, 790, 2525
2032, 695, 861, 2132, 2350
2033, 1310, 2155, 2314, 2453
2034, 1118, 1178, 1111, 2382
2035, 1709, 1764, 2197, 2572
2036, 1688, 2197, 1764, 2572
2037, 1165, 2157, 1121, 2315
2038, 929, 1060, 778, 2163
2039, 491, 2162, 578, 2308
2040, 1374, 2261, 2180, 2289
2041, 793, 2129, 2296, 2340
2042, 2204, 2275, 1473, 2295
2043, 2027, 1269, 2031, 2363
2044, 1453, 553, 515, 2468
2045, 915, 2166, 685, 2290
2046, 2208, 2442, 837, 2553
2047, 2210, 2452, 1532, 2508
2048, 559, 1510, 1257, 2492
2049, 895, 2133, 894, 2352
2050, 501, 613, 1176, 2234
2051, 1353, 1355, 2228, 2395
2052, 2066, 732, 2213, 2419
2053, 1495, 1252, 1628, 2466
2054, 1598, 1240, 1491, 2512
2055, 839, 2207, 656, 2244
2056, 504, 810, 561, 2313
2057, 1231, 1110, 1535, 2474
2058, 758, 664, 1099, 2398
2059, 2026, 2103, 2250, 2461
2060, 1609, 1467, 2241, 2406
2061, 2134, 2311, 2146, 2383
2062, 887, 2279, 2209, 2300
2063, 1729, 1551, 1208, 2221
2064, 1446, 1248, 1445, 2138
2065, 1932, 2348, 2265, 2470
2066, 1455, 1249, 1456, 2133
2067, 895, 688, 894, 2133
2068, 1084, 2301, 2168, 2442
2069, 873, 2254, 868, 2513
2070, 683, 909, 2140, 2303
2071, 1984, 2025, 701, 2333
2072, 873, 1056, 2227, 2361
2073, 1490, 2163, 1487, 2488
2074, 879, 999, 1003, 2277
2075, 1199, 2206, 1719, 2417
2076, 1001, 881, 1002, 2276
2077, 1434, 1257, 2227, 2360
2078, 956, 661, 769, 2246
2079, 1027, 718, 967, 2323
2080, 2196, 2407, 2354, 2453
2081, 1558, 1879, 1888, 2411
2082, 677, 2042, 916, 2273
2083, 2002, 832, 2025, 2333
2084, 519, 1387, 534, 2260
2085, 884, 2138, 687, 2555
2086, 703, 2186, 1078, 2397
2087, 1167, 1151, 1125, 2573
2088, 1761, 2212, 1724, 2368
2089, 1872, 1882, 1557, 2231
2090, 1841, 2420, 2173, 2532
2091, 1152, 1162, 1114, 2156
2092, 1093, 1162, 1152, 2156
2093, 895, 688, 2133, 2527
2094, 966, 964, 2323, 2529
2095, 506, 594, 2227, 2360
2096, 995, 1678, 632, 2334
2097, 1462, 2282, 2212, 2304
2098, 1121, 1165, 1163, 2157
2099, 1440, 2277, 1607, 2359
2100, 1450, 2209, 2295, 2507
2101, 2034, 1986, 2081, 2363
2102, 681, 2171, 913, 2303
2103, 1375, 1215, 1377, 2289
2104, 2198, 2422, 799, 2487
2105, 877, 2211, 2385, 2560
2106, 763, 1105, 663, 2259
2107, 1634, 2393, 2121, 2489
2108, 2204, 2467, 2500, 2540
2109, 598, 530, 2318, 2436
2110, 1751, 1743, 1665, 2150
2111, 1244, 2140, 1470, 2528
2112, 1040, 820, 1066, 2317
2113, 2120, 2262, 2214, 2483
2114, 1542, 1602, 2214, 2262
2115, 1223, 2175, 1309, 2314
2116, 977, 718, 2170, 2264
2117, 634, 1687, 1730, 2334
2118, 1118, 1111, 1164, 2382
2119, 1573, 1384, 2139, 2320
2120, 2119, 2403, 1391, 2577
2121, 1879, 1558, 1202, 2411
2122, 2085, 2514, 2205, 2575
2123, 751, 2388, 1008, 2499
2124, 1246, 1449, 2166, 2309
2125, 1445, 2138, 1248, 2514
2126, 1152, 1093, 2156, 2306
2127, 1066, 2127, 819, 2362
2128, 487, 1439, 535, 2359
2129, 2019, 2132, 2088, 2350
2130, 918, 2273, 2178, 2414
2131, 1097, 2142, 1124, 2347
2132, 1418, 2194, 1420, 2326
2133, 1459, 1247, 2148, 2294
2134, 2032, 2514, 2085, 2575
2135, 654, 1696, 1710, 2321
2136, 1059, 2130, 775, 2390
2137, 1039, 2177, 880, 2338
2138, 1492, 2171, 1474, 2439
2139, 2307, 2419, 2213, 2478
2140, 1305, 2156, 1222, 2306
2141, 2148, 2294, 1247, 2547
2142, 979, 667, 981, 2214
2143, 1578, 2245, 1180, 2463
2144, 1489, 2233, 1548, 2410
2145, 1396, 2208, 1398, 2391
2146, 1246, 2309, 2166, 2530
2147, 894, 2133, 688, 2505
2148, 2111, 2024, 2105, 2160
2149, 1476, 1246, 2166, 2530
2150, 2097, 2062, 2099, 2188
2151, 2097, 2099, 2002, 2188
2152, 563, 1294, 2234, 2462
2153, 1713, 945, 640, 2226
2154, 667, 1029, 1041, 2214
2155, 505, 756, 526, 2267
2156, 1268, 484, 535, 2359
2157, 2077, 2145, 2096, 2567
2158, 1235, 1367, 509, 2457
2159, 817, 2238, 2192, 2473
2160, 561, 597, 2201, 2283
2161, 1447, 2224, 1509, 2377
2162, 1080, 2357, 2229, 2525
2163, 2034, 2092, 2018, 2363
2164, 1759, 1730, 1687, 2334
2165, 726, 2327, 724, 2383
2166, 2215, 2386, 2121, 2485
2167, 2124, 2263, 1079, 2412
2168, 1488, 2158, 1484, 2488
2169, 721, 2068, 788, 2263
2170, 1841, 1826, 2420, 2532
2171, 2163, 2458, 2251, 2552
2172, 2066, 2115, 2003, 2213
2173, 1140, 1102, 1174, 2213
2174, 805, 2193, 1048, 2334
2175, 1306, 1224, 2167, 2306
2176, 755, 733, 1023, 2234
2177, 2073, 2166, 2107, 2290
2178, 2062, 1260, 2016, 2250
2179, 603, 569, 529, 2176
2180, 1388, 1386, 1387, 2521
2181, 1401, 1595, 1217, 2409
2182, 885, 2138, 884, 2555
2183, 1335, 2149, 1338, 2554
2184, 900, 686, 2148, 2308
2185, 2210, 2424, 1532, 2452
2186, 1944, 1910, 2204, 2501
2187, 1382, 2400, 2185, 2436
2188, 833, 701, 2333, 2566
2189, 1990, 916, 2042, 2273
2190, 857, 2194, 2438, 2447
2191, 1383, 2180, 1376, 2320
2192, 2080, 2171, 2038, 2303
2193, 1499, 1243, 2241, 2549
2194, 849, 2301, 2123, 2408
2195, 1892, 1948, 2194, 2324
2196, 2032, 2085, 1997, 2575
2197, 851, 2301, 849, 2408
2198, 1027, 2323, 980, 2328
2199, 1586, 1300, 1560, 2218
2200, 1585, 1562, 1304, 2219
2201, 1588, 2322, 2170, 2571
2202, 1003, 1040, 879, 2176
2203, 902, 2162, 684, 2308
2204, 1879, 1951, 1888, 2411
2205, 2091, 2140, 2055, 2290
2206, 833, 2160, 701, 2566
2207, 1868, 1915, 1936, 2257
2208, 1685, 1752, 1732, 2258
2209, 531, 2133, 593, 2294
2210, 1353, 2129, 1354, 2395
2211, 532, 500, 690, 2563
2212, 529, 2176, 569, 2317
2213, 1065, 2128, 2338, 2397
2214, 1617, 2119, 2360, 2403
2215, 945, 638, 897, 2206
2216, 1278, 1532, 1533, 2210
2217, 886, 885, 2279, 2446
2218, 1599, 1532, 2452, 2508
2219, 1516, 1223, 1329, 2247
2220, 2124, 2412, 2251, 2552
2221, 1815, 1786, 672, 2491
2222, 1804, 1793, 1836, 2496
2223, 1364, 2137, 2248, 2405
2224, 1719, 2206, 1758, 2417
2225, 679, 2215, 1037, 2460
2226, 1197, 2212, 1724, 2304
2227, 1466, 2187, 2368, 2406
2228, 1840, 2420, 972, 2497
2229, 483, 598, 601, 2161
2230, 598, 557, 601, 2161
2231, 1838, 2191, 1806, 2322
2232, 1423, 1418, 1206, 2194
2233, 485, 2317, 705, 2362
2234, 1176, 1101, 501, 2234
2235, 512, 580, 2225, 2351
2236, 1149, 2155, 1131, 2569
2237, 976, 1801, 718, 2264
2238, 2024, 2160, 2111, 2316
2239, 1760, 1678, 2334, 2546
2240, 2081, 2165, 2027, 2363
2241, 602, 2318, 530, 2436
2242, 2386, 2433, 2200, 2439
2243, 1864, 1949, 2224, 2411
2244, 896, 945, 897, 2226
2245, 1905, 1946, 2433, 2475
2246, 1035, 1670, 2238, 2551
2247, 594, 537, 518, 2513
2248, 637, 2209, 1859, 2300
2249, 1154, 2144, 1126, 2297
2250, 1356, 1188, 1358, 2150
2251, 1970, 1974, 1020, 2329
2252, 1569, 2169, 2255, 2453
2253, 484, 2164, 579, 2359
2254, 1400, 1217, 2207, 2402
2255, 2002, 2097, 2188, 2333
2256, 2144, 1014, 2298, 2323
2257, 888, 2166, 915, 2381
2258, 1121, 2157, 1163, 2479
2259, 1796, 1233, 1816, 2550
2260, 1389, 2260, 1597, 2360
2261, 1572, 2168, 1645, 2431
2262, 1963, 1925, 988, 2265
2263, 849, 698, 850, 2123
2264, 1249, 2133, 1455, 2468
2265, 1282, 2050, 1348, 2554
2266, 1335, 2345, 2149, 2554
2267, 766, 772, 714, 2471
2268, 1398, 2208, 1396, 2443
2269, 1075, 823, 1012, 2139
2270, 1636, 1573, 1384, 2139
2271, 1733, 2139, 1753, 2320
2272, 612, 2234, 2286, 2462
2273, 2027, 1318, 1269, 2363
2274, 2088, 2350, 2132, 2535
2275, 683, 2140, 908, 2290
2276, 1994, 2166, 2309, 2530
2277, 2209, 2300, 2279, 2377
2278, 1446, 2377, 2138, 2449
2279, 706, 2338, 2056, 2397
2280, 825, 823, 1075, 2139
2281, 1085, 2122, 783, 2372
2282, 1273, 2159, 1285, 2311
2283, 1569, 1311, 1567, 2169
2284, 1375, 1378, 1382, 2400
2285, 1713, 2226, 1767, 2417
2286, 1751, 1665, 1714, 2252
2287, 2086, 2055, 2140, 2303
2288, 1484, 2158, 1478, 2302
2289, 1665, 2150, 1743, 2394
2290, 1310, 2407, 1284, 2453
2291, 1781, 1682, 1740, 2218
2292, 1866, 1965, 1922, 2219
2293, 2121, 2439, 2215, 2486
2294, 1462, 1460, 2282, 2304
2295, 2096, 2145, 2063, 2419
2296, 1620, 2130, 1336, 2552
2297, 2001, 2035, 698, 2274
2298, 1422, 1256, 1606, 2132
2299, 695, 861, 1045, 2132
2300, 1698, 1767, 2226, 2538
2301, 2122, 2372, 2337, 2565
2302, 1040, 878, 2176, 2317
2303, 1461, 2148, 1247, 2547
2304, 2368, 2376, 2212, 2406
2305, 1450, 1473, 2275, 2295
2306, 1230, 2144, 1541, 2297
2307, 1567, 2169, 1311, 2418
2308, 1684, 2237, 1553, 2413
2309, 793, 791, 2129, 2340
2310, 2150, 2296, 795, 2416
2311, 754, 768, 2327, 2355
2312, 2121, 2433, 1946, 2475
2313, 1684, 1553, 1736, 2413
2314, 1271, 1290, 1288, 2172
2315, 2212, 2406, 2376, 2515
2316, 2194, 2427, 857, 2438
2317, 888, 2279, 2166, 2381
2318, 2023, 2186, 2316, 2517
2319, 2080, 2098, 2038, 2171
2320, 584, 2148, 494, 2308
2321, 1245, 1465, 2162, 2549
2322, 927, 917, 916, 2158
2323, 1335, 1340, 1338, 2149
2324, 779, 774, 777, 2149
2325, 1163, 2157, 1165, 2581
2326, 1740, 2218, 1682, 2425
2327, 1866, 2219, 1922, 2426
2328, 687, 2138, 884, 2451
2329, 1066, 2317, 2127, 2362
2330, 785, 2249, 2122, 2372
2331, 1892, 862, 1880, 2324
2332, 557, 601, 2161, 2313
2333, 898, 900, 2148, 2380
2334, 1081, 2236, 779, 2329
2335, 972, 2420, 971, 2497
2336, 1649, 2121, 1482, 2486
2337, 1567, 1569, 2169, 2556
2338, 1273, 1283, 1285, 2159
2339, 1398, 2431, 2208, 2443
2340, 2148, 2280, 898, 2380
2341, 833, 834, 2160, 2566
2342, 1476, 1246, 1449, 2166
2343, 915, 888, 685, 2166
2344, 2142, 2255, 2223, 2388
2345, 885, 884, 687, 2555
2346, 951, 2040, 685, 2555
2347, 2190, 2260, 1388, 2577
2348, 654, 1710, 1668, 2321
2349, 1499, 538, 1243, 2549
2350, 557, 2161, 598, 2318
2351, 1578, 1281, 2245, 2463
2352, 1763, 2248, 2137, 2546
2353, 1185, 1736, 1553, 2413
2354, 805, 2374, 2334, 2546
2355, 1337, 1640, 1644, 2124
2356, 776, 1083, 1079, 2124
2357, 1838, 2191, 1280, 2545
2358, 1172, 1092, 2382, 2478
2359, 1868, 1936, 1931, 2125
2360, 1685, 1746, 1752, 2126
2361, 846, 699, 2188, 2333
2362, 810, 504, 702, 2313
2363, 921, 2121, 1088, 2485
2364, 801, 2137, 803, 2546
2365, 1500, 2151, 2392, 2399
2366, 1354, 2129, 1352, 2522
2367, 593, 531, 591, 2133
2368, 1352, 2457, 2237, 2522
2369, 1495, 1628, 2131, 2466
2370, 1077, 2185, 704, 2362
2371, 1341, 1342, 1351, 2136
2372, 1985, 706, 2056, 2397
2373, 655, 816, 817, 2192
2374, 865, 864, 1067, 2371
2375, 1777, 2137, 1689, 2396
2376, 1323, 2173, 1599, 2305
2377, 1974, 2236, 1020, 2329
2378, 1568, 2217, 2495, 2509
2379, 2091, 2086, 2055, 2140
2380, 1910, 2204, 1196, 2295
2381, 522, 602, 2185, 2318
2382, 1250, 1444, 1443, 2575
2383, 2400, 2477, 1380, 2568
2384, 1760, 1678, 1730, 2334
2385, 839, 656, 840, 2244
2386, 1274, 2556, 1800, 2564
2387, 578, 556, 2162, 2549
2388, 487, 603, 2176, 2359
2389, 1171, 2143, 1158, 2534
2390, 749, 770, 664, 2354
2391, 1408, 1260, 2188, 2250
2392, 1959, 1930, 2330, 2427
2393, 1400, 2421, 2207, 2506
2394, 2238, 2387, 2127, 2472
2395, 1362, 1550, 1364, 2137
2396, 604, 578, 491, 2162
2397, 1636, 1210, 1573, 2256
2398, 2227, 2360, 594, 2361
2399, 2082, 2092, 1988, 2177
2400, 727, 2172, 710, 2367
2401, 2123, 2118, 2293, 2408
2402, 595, 2146, 521, 2462
2403, 758, 1099, 1127, 2398
2404, 1990, 2090, 2072, 2158
2405, 624, 780, 781, 2312
2406, 779, 2263, 1019, 2329
2407, 1602, 1228, 2214, 2284
2408, 1873, 1946, 2121, 2489
2409, 2021, 2138, 2089, 2514
2410, 898, 900, 686, 2148
2411, 1459, 1247, 1461, 2148
2412, 724, 2159, 722, 2580
2413, 1345, 2184, 1281, 2463
2414, 886, 2279, 887, 2300
2415, 2158, 2302, 2233, 2441
2416, 1577, 2143, 1229, 2562
2417, 2264, 2389, 1832, 2561
2418, 889, 953, 2209, 2381
2419, 2223, 2305, 2142, 2346
2420, 710, 727, 729, 2172
2421, 1147, 1168, 1124, 2502
2422, 785, 2122, 2249, 2454
2423, 1271, 1290, 2172, 2342
2424, 2018, 2092, 2082, 2177
2425, 1171, 1122, 2143, 2534
2426, 584, 592, 494, 2148
2427, 1996, 2153, 2093, 2523
2428, 1314, 1293, 2213, 2307
2429, 2252, 2296, 2129, 2340
2430, 2145, 2135, 2291, 2364
2431, 2134, 2146, 2292, 2365
2432, 725, 947, 737, 2134
2433, 1298, 1508, 1286, 2134
2434, 1507, 1302, 1291, 2135
2435, 741, 946, 730, 2135
2436, 1200, 1864, 2224, 2411
2437, 2118, 2408, 852, 2435
2438, 1670, 655, 1035, 2238
2439, 1796, 2545, 1536, 2550
2440, 834, 701, 2160, 2517
2441, 1327, 2242, 2174, 2483
2442, 1268, 1317, 484, 2359
2443, 532, 2505, 590, 2563
2444, 860, 2330, 2179, 2427
2445, 990, 2137, 801, 2546
2446, 798, 2366, 2220, 2416
2447, 2095, 2044, 1991, 2251
2448, 1788, 1839, 1829, 2170
2449, 1147, 2142, 2398, 2502
2450, 2102, 2093, 2153, 2523
2451, 2177, 2276, 1442, 2516
2452, 1120, 1222, 1093, 2306
2453, 802, 2325, 2225, 2422
2454, 892, 893, 2505, 2563
2455, 1085, 785, 783, 2122
2456, 1344, 1346, 1646, 2122
2457, 1360, 2378, 2198, 2490
2458, 1338, 2149, 2319, 2554
2459, 2098, 2171, 2080, 2512
2460, 1946, 1873, 2121, 2393
2461, 2334, 2374, 2248, 2546
2462, 1094, 2315, 1232, 2524
2463, 992, 2312, 782, 2454
2464, 1374, 1376, 2180, 2261
2465, 2138, 1446, 2309, 2377
2466, 1309, 2175, 1516, 2407
2467, 553, 2468, 1251, 2531
2468, 2159, 2511, 722, 2580
2469, 970, 2182, 957, 2497
2470, 1789, 1840, 972, 2497
2471, 1770, 2151, 1703, 2538
2472, 1763, 2137, 1777, 2546
2473, 1188, 1358, 2150, 2394
2474, 586, 498, 2154, 2493
2475, 1156, 1096, 1146, 2175
2476, 1946, 2121, 1960, 2393
2477, 2111, 2160, 2105, 2517
2478, 1433, 2197, 1208, 2403
2479, 1841, 1810, 2173, 2420
2480, 688, 2505, 2133, 2527
2481, 1309, 2314, 2175, 2407
2482, 1838, 1806, 2191, 2545
2483, 1537, 1277, 1592, 2561
2484, 1708, 1770, 2151, 2339
2485, 586, 2154, 498, 2492
2486, 1120, 1091, 1332, 2306
2487, 2102, 1996, 2093, 2523
2488, 1251, 553, 1453, 2468
2489, 1488, 1478, 1484, 2158
2490, 1122, 668, 2347, 2534
2491, 1518, 2182, 1798, 2550
2492, 1342, 2136, 1341, 2413
2493, 1959, 1860, 1930, 2427
2494, 1599, 2173, 1323, 2508
2495, 712, 724, 722, 2580
2496, 1171, 1158, 1122, 2534
2497, 2149, 2319, 2263, 2329
2498, 767, 1086, 1031, 2120
2499, 1750, 2180, 1700, 2320
2500, 498, 2492, 2154, 2493
2501, 1529, 2157, 1521, 2315
2502, 684, 902, 904, 2162
2503, 1465, 1463, 1245, 2162
2504, 1283, 2159, 1273, 2480
2505, 764, 2259, 2174, 2437
2506, 1015, 2143, 668, 2534
2507, 1839, 2170, 1788, 2322
2508, 1520, 2545, 2222, 2550
2509, 2038, 2171, 2098, 2460
2510, 741, 2135, 2364, 2429
2511, 737, 2365, 2134, 2430
2512, 916, 1990, 675, 2270
2513, 2110, 2138, 2021, 2309
2514, 854, 2243, 2447, 2523
2515, 1352, 1346, 1343, 2457
2516, 730, 741, 2135, 2364
2517, 737, 725, 2134, 2365
2518, 1399, 2207, 1217, 2506
2519, 825, 700, 2201, 2283
2520, 2186, 2402, 2397, 2519
2521, 814, 2192, 2321, 2440
2522, 1016, 668, 2143, 2347
2523, 1314, 2213, 1583, 2382
2524, 586, 2154, 610, 2493
2525, 2264, 2389, 2120, 2533
2526, 1126, 1154, 1159, 2144
2527, 903, 2212, 2376, 2515
2528, 764, 2174, 2259, 2471
2529, 899, 2206, 982, 2380
2530, 1356, 1549, 1188, 2252
2531, 1146, 2175, 1096, 2314
2532, 1759, 2334, 2187, 2456
2533, 728, 1004, 2183, 2367
2534, 1687, 1765, 1759, 2187
2535, 1707, 1759, 1765, 2187
2536, 1542, 2262, 2214, 2297
2537, 1171, 2143, 1122, 2347
2538, 2033, 2451, 689, 2494
2539, 800, 798, 2220, 2422
2540, 830, 2336, 2119, 2539
2541, 2202, 2505, 893, 2563
2542, 2033, 689, 2020, 2494
2543, 2084, 2215, 2375, 2414
2544, 1542, 1602, 1228, 2214
2545, 1469, 1470, 1244, 2140
2546, 908, 683, 909, 2140
2547, 1646, 1344, 2122, 2337
2548, 835, 837, 2208, 2566
2549, 487, 603, 529, 2176
2550, 1305, 2281, 2156, 2306
2551, 1005, 2504, 1845, 2511
2552, 2127, 819, 2362, 2473
2553, 1082, 1085, 783, 2372
2554, 1389, 2260, 2360, 2577
2555, 1931, 1936, 1895, 2125
2556, 1557, 1211, 1872, 2231
2557, 1330, 1178, 1118, 2382
2558, 2154, 868, 2254, 2513
2559, 2157, 2520, 962, 2581
2560, 2086, 2140, 2091, 2528
2561, 657, 1000, 1002, 2125
2562, 1530, 2474, 2199, 2479
2563, 543, 1597, 2260, 2360
2564, 2010, 2458, 2270, 2488
2565, 593, 2133, 591, 2527
2566, 2196, 2504, 723, 2511
2567, 645, 2179, 858, 2427
2568, 1320, 2142, 1321, 2502
2569, 1028, 698, 2035, 2274
2570, 1621, 2163, 1490, 2552
2571, 747, 2259, 2167, 2536
2572, 578, 2162, 604, 2549
2573, 2162, 2376, 2406, 2515
2574, 485, 606, 705, 2317
2575, 819, 2127, 1066, 2472
2576, 882, 689, 2033, 2451
2577, 534, 599, 2260, 2283
2578, 723, 2504, 1005, 2511
2579, 1196, 2204, 1910, 2501
2580, 2153, 2438, 2194, 2447
2581, 1321, 2142, 1227, 2502
2582, 1205, 1679, 1435, 2269
2583, 1158, 2143, 1171, 2562
2584, 1313, 2195, 1292, 2307
2585, 1274, 1800, 1817, 2564
2586, 1760, 2334, 2248, 2546
2587, 1155, 2315, 2141, 2582
2588, 822, 813, 654, 2321
2589, 1220, 2218, 1560, 2258
2590, 1221, 1562, 2219, 2257
2591, 2102, 2153, 2093, 2535
2592, 824, 2201, 700, 2313
2593, 783, 2312, 2122, 2454
2594, 1751, 2150, 2252, 2541
2595, 884, 2138, 885, 2446
2596, 592, 2148, 584, 2547
2597, 2076, 2059, 2104, 2131
2598, 2076, 2104, 2037, 2131
2599, 1450, 2275, 1476, 2507
2600, 1389, 1617, 1391, 2577
2601, 789, 720, 1017, 2184
2602, 1992, 2080, 2171, 2512
2603, 561, 2201, 587, 2313
2604, 869, 646, 874, 2189
2605, 1242, 2171, 1492, 2512
2606, 1122, 2347, 2143, 2534
2607, 2015, 2055, 683, 2290
2608, 2150, 1356, 2252, 2395
2609, 1230, 1575, 1541, 2144
2610, 1700, 1750, 1762, 2180
2611, 1376, 2180, 2261, 2320
2612, 551, 2225, 680, 2325
2613, 2093, 2153, 1996, 2350
2614, 1395, 2160, 1262, 2316
2615, 1577, 1576, 1229, 2143
2616, 1015, 1016, 668, 2143
2617, 1446, 2138, 1445, 2449
2618, 1348, 2124, 1640, 2554
2619, 2146, 2311, 2203, 2383
2620, 1982, 1976, 2117, 2232
2621, 913, 681, 931, 2171
2622, 1492, 1242, 1474, 2171
2623, 816, 814, 2192, 2321
2624, 1815, 672, 975, 2491
2625, 2031, 1269, 1441, 2363
2626, 2092, 1988, 2177, 2363
2627, 2120, 2335, 2174, 2483
2628, 1594, 1436, 2211, 2269
2629, 1210, 1726, 1733, 2256
2630, 2197, 2336, 872, 2572
2631, 961, 964, 2141, 2582
2632, 2200, 2439, 2121, 2489
2633, 1609, 2187, 1466, 2406
2634, 522, 602, 589, 2185
2635, 1685, 1746, 2126, 2387
2636, 2141, 2524, 1155, 2582
2637, 666, 2142, 759, 2398
2638, 783, 2122, 785, 2454
2639, 2305, 2346, 2173, 2450
2640, 1703, 2151, 1770, 2445
2641, 491, 604, 2162, 2444
2642, 1224, 2167, 2306, 2573
2643, 1634, 1873, 2393, 2489
2644, 1340, 1338, 2149, 2319
2645, 525, 2230, 497, 2484
2646, 1753, 1775, 1669, 2139
2647, 1683, 2136, 1773, 2413
2648, 702, 812, 2161, 2318
2649, 1569, 2255, 2169, 2556
2650, 531, 1498, 1249, 2294
2651, 2126, 2464, 2387, 2472
2652, 520, 2152, 577, 2531
2653, 2146, 2286, 1043, 2383
2654, 1116, 1089, 669, 2298
2655, 841, 2128, 2397, 2401
2656, 2204, 2275, 2295, 2381
2657, 748, 2175, 662, 2354
2658, 1739, 1682, 1781, 2218
2659, 1921, 1965, 1866, 2219
2660, 1701, 655, 1670, 2238
2661, 1417, 2153, 1254, 2535
2662, 1380, 2400, 2127, 2477
2663, 531, 514, 1498, 2294
2664, 675, 1990, 2108, 2270
2665, 478, 2426, 2135, 2429
2666, 510, 538, 539, 2549
2667, 610, 2154, 586, 2559
2668, 1038, 715, 2173, 2420
2669, 2018, 2177, 2082, 2338
2670, 2038, 681, 2011, 2303
2671, 1126, 1230, 1106, 2297
2672, 836, 653, 838, 2181
2673, 1753, 1733, 1775, 2139
2674, 2089, 2021, 2110, 2138
2675, 958, 2182, 2423, 2570
2676, 2128, 1626, 2516, 2519
2677, 1841, 1826, 1810, 2420
2678, 712, 722, 2511, 2580
2679, 531, 591, 2133, 2468
2680, 2121, 2393, 1482, 2486
2681, 2366, 2378, 2220, 2416
2682, 1172, 2382, 2213, 2478
2683, 952, 2011, 681, 2303
2684, 1218, 2125, 1563, 2257
2685, 1219, 1564, 2126, 2258
2686, 1112, 1116, 973, 2298
2687, 810, 702, 811, 2313
2688, 919, 2233, 986, 2240
2689, 1686, 1573, 1733, 2320
2690, 514, 550, 1247, 2294
2691, 2339, 2385, 2211, 2445
2692, 1861, 996, 2370, 2498
2693, 684, 2162, 904, 2444
2694, 1892, 2194, 1948, 2427
2695, 1588, 2170, 1279, 2571
2696, 850, 2123, 2274, 2408
2697, 508, 676, 806, 2228
2698, 1159, 2298, 2144, 2558
2699, 719, 2191, 966, 2323
2700, 2212, 2304, 2282, 2380
2701, 1223, 1516, 1309, 2175
2702, 2019, 2057, 695, 2350
2703, 1330, 2358, 1313, 2382
2704, 1801, 1829, 1839, 2170
2705, 1876, 1943, 2489, 2543
2706, 1333, 1327, 2242, 2369
2707, 1224, 2306, 1091, 2573
2708, 543, 1597, 1258, 2260
2709, 514, 1247, 1498, 2294
2710, 957, 970, 958, 2182
2711, 1766, 1754, 1699, 2189
2712, 1340, 2149, 1335, 2348
2713, 1441, 1269, 1442, 2363
2714, 1362, 1550, 2137, 2396
2715, 1796, 1536, 1233, 2550
2716, 1691, 1719, 1199, 2304
2717, 654, 1668, 822, 2321
2718, 1059, 778, 775, 2130
2719, 1229, 2143, 1576, 2474
2720, 725, 2134, 2365, 2383
2721, 2133, 2505, 591, 2527
2722, 1031, 2389, 2264, 2533
2723, 570, 607, 2220, 2325
2724, 855, 2438, 2153, 2447
2725, 2135, 2342, 2172, 2349
2726, 2202, 2392, 2151, 2399
2727, 755, 2203, 2286, 2355
2728, 1527, 2272, 2191, 2322
2729, 2015, 683, 907, 2290
2730, 859, 2194, 857, 2447
2731, 975, 2222, 959, 2529
2732, 2212, 2282, 1464, 2406
2733, 1231, 2474, 1530, 2479
2734, 1967, 734, 1069, 2236
2735, 1751, 1743, 2150, 2576
2736, 607, 678, 2220, 2325
2737, 1038, 715, 762, 2173
2738, 1204, 1593, 1424, 2268
2739, 1198, 1904, 1875, 2295
2740, 2025, 832, 701, 2333
2741, 1455, 2133, 1456, 2399
2742, 1592, 2262, 2120, 2483
2743, 1602, 2284, 2214, 2483
2744, 1857, 1399, 1923, 2506
2745, 589, 522, 2185, 2362
2746, 890, 639, 997, 2224
2747, 1707, 1672, 1546, 2368
2748, 1517, 2156, 2281, 2358
2749, 1708, 2151, 994, 2339
2750, 1960, 2121, 1946, 2475
2751, 2076, 2131, 2037, 2575
2752, 767, 2335, 2120, 2533
2753, 2173, 1038, 2420, 2450
2754, 1410, 2123, 1411, 2461
2755, 1089, 669, 2298, 2558
2756, 2121, 2433, 1088, 2485
2757, 2309, 2377, 1446, 2507
2758, 969, 2199, 670, 2520
2759, 1108, 1157, 2247, 2355
2760, 1592, 1602, 2262, 2483
2761, 1128, 1156, 1146, 2175
2762, 760, 2142, 666, 2347
2763, 1314, 1293, 1583, 2213
2764, 1509, 1198, 1448, 2377
2765, 949, 696, 873, 2227
2766, 762, 2346, 1016, 2450
2767, 1569, 1322, 2223, 2556
2768, 1234, 1486, 1621, 2458
2769, 669, 973, 1116, 2298
2770, 1490, 2163, 1489, 2239
2771, 2200, 2489, 1943, 2543
2772, 561, 700, 517, 2283
2773, 1373, 1263, 2161, 2436
2774, 1164, 1172, 1092, 2382
2775, 1586, 2218, 1220, 2425
2776, 1221, 2219, 1585, 2426
2777, 1288, 2172, 1290, 2358
2778, 750, 2169, 1006, 2504
2779, 2199, 2423, 2210, 2424
2780, 2210, 2423, 2182, 2424
2781, 683, 2055, 952, 2303
2782, 1495, 2131, 1628, 2575
2783, 1683, 1780, 1773, 2136
2784, 1633, 2117, 1349, 2232
2785, 1963, 988, 623, 2265
2786, 800, 2220, 798, 2325
2787, 2089, 2138, 2110, 2555
2788, 1373, 1263, 1372, 2161
2789, 702, 812, 811, 2161
2790, 1395, 1394, 1262, 2160
2791, 833, 834, 701, 2160
2792, 2181, 2207, 2278, 2421
2793, 917, 2273, 2158, 2441
2794, 2223, 2532, 761, 2537
2795, 1548, 2233, 1189, 2410
2796, 1953, 1945, 1899, 2506
2797, 1540, 1106, 1230, 2297
2798, 719, 975, 965, 2529
2799, 2011, 952, 2055, 2303
2800, 599, 519, 534, 2260
2801, 510, 2271, 609, 2351
2802, 1232, 2141, 1525, 2524
2803, 1929, 1890, 1955, 2168
2804, 836, 838, 839, 2207
2805, 1881, 639, 1898, 2300
2806, 1587, 1390, 2256, 2577
2807, 714, 1007, 1804, 2496
2808, 803, 2137, 801, 2374
2809, 1569, 1311, 2169, 2453
2810, 1390, 2221, 1551, 2256
2811, 643, 1918, 1880, 2324
2812, 2242, 2483, 1647, 2561
2813, 970, 958, 2182, 2423
2814, 1979, 2319, 2236, 2329
2815, 2119, 2539, 2221, 2577
2816, 801, 2374, 2137, 2422
2817, 2297, 2328, 2214, 2558
2818, 1383, 1374, 1376, 2180
2819, 962, 960, 2157, 2581
2820, 2119, 2336, 2221, 2539
2821, 2083, 2273, 2414, 2476
2822, 532, 590, 500, 2563
2823, 1755, 1770, 1703, 2538
2824, 918, 924, 2273, 2414
2825, 485, 705, 935, 2362
2826, 2012, 2094, 2095, 2124
2827, 2044, 2095, 2094, 2124
2828, 798, 2220, 678, 2325
2829, 940, 2339, 2151, 2385
2830, 577, 520, 574, 2152
2831, 1017, 784, 790, 2229
2832, 977, 2264, 2170, 2533
2833, 1125, 1105, 1167, 2259
2834, 693, 2153, 856, 2350
2835, 1673, 2192, 1771, 2544
2836, 681, 931, 2171, 2460
2837, 1085, 785, 2122, 2372
2838, 846, 832, 2333, 2566
2839, 1121, 1529, 1132, 2315
2840, 1463, 2282, 2162, 2406
2841, 1905, 1946, 1862, 2433
2842, 1481, 1479, 2178, 2302
2843, 1433, 2197, 1431, 2310
2844, 590, 2505, 2202, 2563
2845, 990, 801, 803, 2546
2846, 1795, 2504, 2196, 2511
2847, 587, 561, 597, 2201
2848, 1269, 1318, 1608, 2363
2849, 1500, 2151, 1501, 2392
2850, 1268, 535, 1439, 2359
2851, 970, 971, 969, 2423
2852, 1159, 2144, 1154, 2558
2853, 914, 2344, 2200, 2433
2854, 797, 795, 2150, 2576
2855, 828, 2119, 2361, 2539
2856, 1374, 1373, 1372, 2289
2857, 2180, 2261, 2161, 2289
2858, 1232, 1522, 2141, 2315
2859, 559, 506, 594, 2492
2860, 1576, 2143, 1577, 2452
2861, 1413, 2293, 2118, 2434
2862, 1680, 1201, 1706, 2538
2863, 1187, 1715, 1714, 2252
2864, 1048, 805, 1050, 2193
2865, 1366, 1609, 1611, 2193
2866, 959, 2222, 975, 2491
2867, 750, 1008, 1006, 2169
2868, 821, 704, 2185, 2318
2869, 2121, 2393, 1873, 2489
2870, 1946, 2433, 2121, 2489
2871, 540, 941, 491, 2308
2872, 2122, 2337, 1344, 2356
2873, 486, 612, 2286, 2462
2874, 1489, 1548, 2239, 2410
2875, 1202, 1558, 1618, 2147
2876, 1020, 620, 1970, 2329
2877, 478, 2135, 477, 2429
2878, 1750, 1668, 1762, 2180
2879, 2014, 2084, 2054, 2460
2880, 1907, 1855, 1906, 2240
2881, 1158, 2474, 2143, 2562
2882, 1284, 1566, 2418, 2480
2883, 873, 949, 2227, 2513
2884, 1546, 1466, 1195, 2368
2885, 2150, 2378, 1358, 2395
2886, 1449, 2166, 2309, 2507
2887, 519, 1258, 1387, 2260
2888, 586, 610, 498, 2493
2889, 589, 2185, 602, 2568
2890, 2244, 2402, 2207, 2409
2891, 540, 494, 941, 2308
2892, 955, 2175, 748, 2574
2893, 522, 704, 831, 2318
2894, 1909, 1925, 2265, 2390
2895, 1399, 1217, 1923, 2506
2896, 1985, 936, 706, 2397
2897, 1313, 2342, 2195, 2358
2898, 578, 604, 556, 2549
2899, 1836, 2495, 2217, 2496
2900, 537, 2227, 594, 2361
2901, 1899, 2443, 1214, 2506
2902, 857, 2194, 862, 2427
2903, 1364, 2137, 2405, 2490
2904, 1313, 2307, 1314, 2382
2905, 1079, 2263, 777, 2412
2906, 2223, 2305, 2173, 2564
2907, 520, 574, 2152, 2484
2908, 1045, 2274, 2132, 2435
2909, 1159, 1089, 2298, 2558
2910, 1707, 2187, 1765, 2368
2911, 1532, 1533, 2210, 2508
2912, 1814, 2418, 2169, 2556
2913, 1981, 1977, 1967, 2236
2914, 1947, 2501, 2235, 2543
2915, 1682, 2218, 1739, 2430
2916, 1921, 2219, 1866, 2429
2917, 610, 2493, 2154, 2559
2918, 522, 831, 516, 2318
2919, 999, 879, 1046, 2277
2920, 1032, 1918, 643, 2324
2921, 744, 2156, 956, 2557
2922, 1572, 1645, 1406, 2431
2923, 1420, 2216, 1425, 2326
2924, 1992, 2098, 2080, 2512
2925, 881, 1001, 1047, 2276
2926, 774, 2265, 2149, 2470
2927, 1478, 2158, 1488, 2583
2928, 2191, 2272, 1526, 2469
2929, 1914, 2344, 984, 2433
2930, 666, 760, 759, 2142
2931, 2143, 2347, 668, 2534
2932, 1264, 1414, 2005, 2316
2933, 797, 2150, 795, 2416
2934, 1026, 2190, 829, 2539
2935, 1744, 1191, 1776, 2396
2936, 1554, 2394, 1776, 2396
2937, 597, 495, 587, 2201
2938, 1371, 1261, 1385, 2201
2939, 2057, 950, 695, 2350
2940, 725, 947, 2134, 2580
2941, 1323, 2173, 1276, 2508
2942, 1173, 1142, 2234, 2355
2943, 2207, 2401, 2278, 2421
2944, 1336, 2130, 1620, 2428
2945, 2072, 2158, 2090, 2583
2946, 1108, 618, 1133, 2355
2947, 1862, 1073, 1905, 2433
2948, 1005, 1845, 711, 2511
2949, 551, 581, 2225, 2325
2950, 1356, 2150, 1358, 2395
2951, 1734, 1679, 1205, 2269
2952, 2169, 2255, 2223, 2556
2953, 1565, 2183, 1289, 2495
2954, 1364, 1362, 2137, 2490
2955, 1414, 2022, 2005, 2316
2956, 2140, 2467, 909, 2540
2957, 2026, 2016, 1409, 2250
2958, 699, 832, 2002, 2333
2959, 986, 627, 1877, 2233
2960, 2205, 2446, 2224, 2449
2961, 525, 524, 2230, 2559
2962, 790, 2136, 781, 2525
2963, 1255, 2154, 1429, 2492
2964, 1714, 1549, 1187, 2252
2965, 1754, 1766, 1705, 2189
2966, 943, 1043, 622, 2286
2967, 859, 863, 2324, 2447
2968, 1696, 2192, 1771, 2321
2969, 775, 2265, 2130, 2412
2970, 1914, 984, 1862, 2433
2971, 2173, 2346, 762, 2450
2972, 1707, 1546, 1195, 2368
2973, 682, 906, 2271, 2444
2974, 1161, 1155, 2524, 2582
2975, 1214, 2443, 2181, 2506
2976, 1232, 2315, 2141, 2524
2977, 1778, 1742, 2221, 2572
2978, 494, 686, 941, 2308
2979, 1481, 1482, 2393, 2486
2980, 730, 2135, 2349, 2364
2981, 684, 491, 941, 2308
2982, 958, 957, 2182, 2491
2983, 1268, 1439, 1440, 2359
2984, 1645, 2168, 1406, 2431
2985, 755, 754, 2203, 2355
2986, 927, 917, 2158, 2441
2987, 645, 1860, 860, 2427
2988, 2122, 2237, 2312, 2356
2989, 1556, 1718, 1693, 2248
2990, 1828, 1830, 1811, 2182
2991, 645, 860, 2179, 2427
2992, 1563, 1442, 2276, 2516
2993, 1038, 2173, 762, 2450
2994, 1792, 1834, 2169, 2537
2995, 2182, 2423, 2210, 2497
2996, 577, 574, 558, 2152
2997, 1947, 1894, 2501, 2543
2998, 1410, 1411, 2123, 2518
2999, 510, 552, 1505, 2351
3000, 918, 2178, 2273, 2441
3001, 1855, 630, 1906, 2240
3002, 929, 928, 2287, 2410
3003, 2168, 2442, 2188, 2548
3004, 2120, 1647, 2483, 2561
3005, 1400, 1401, 1217, 2402
3006, 1243, 1467, 1499, 2241
3007, 868, 2513, 2154, 2559
3008, 795, 2541, 2150, 2576
3009, 727, 729, 2172, 2557
3010, 1527, 2191, 1280, 2322
3011, 1762, 2180, 1668, 2321
3012, 678, 607, 2220, 2366
3013, 1554, 1776, 1191, 2396
3014, 1241, 512, 2225, 2351
3015, 1044, 2145, 740, 2349
3016, 1729, 1778, 1677, 2221
3017, 1163, 2520, 2157, 2581
3018, 977, 2170, 1027, 2328
3019, 2127, 2477, 2400, 2568
3020, 2151, 2399, 1500, 2538
3021, 2121, 2393, 2240, 2475
3022, 1587, 2256, 2521, 2577
3023, 2138, 2451, 687, 2555
3024, 824, 823, 825, 2353
3025, 901, 636, 2212, 2380
3026, 2184, 2356, 1345, 2565
3027, 1960, 2393, 2121, 2475
3028, 1872, 1952, 2231, 2498
3029, 804, 2193, 2374, 2482
3030, 2059, 2131, 2076, 2494
3031, 1398, 1405, 2431, 2443
3032, 1454, 2468, 2202, 2531
3033, 1800, 2556, 1833, 2564
3034, 1344, 2356, 2337, 2565
3035, 1946, 1960, 1873, 2393
3036, 1484, 2233, 1489, 2488
3037, 902, 2162, 2308, 2515
3038, 1284, 2418, 2196, 2480
3039, 1508, 2134, 1298, 2425
3040, 1302, 2135, 1507, 2426
3041, 1909, 2390, 2265, 2428
3042, 2066, 2213, 2113, 2419
3043, 1633, 1349, 1579, 2232
3044, 634, 1730, 995, 2334
3045, 1027, 1014, 980, 2323
3046, 1756, 1734, 1695, 2445
3047, 1759, 2187, 1707, 2456
3048, 997, 891, 2147, 2503
3049, 1699, 1754, 1728, 2310
3050, 1617, 1434, 1610, 2403
3051, 893, 2385, 2202, 2563
3052, 737, 2134, 947, 2430
3053, 741, 946, 2135, 2429
3054, 1378, 2400, 2192, 2544
3055, 1153, 2214, 1117, 2284
3056, 1298, 2134, 2292, 2425
3057, 1302, 2291, 2135, 2426
3058, 1788, 1279, 1825, 2322
3059, 577, 2152, 558, 2563
3060, 1386, 1261, 1387, 2201
3061, 716, 1790, 1819, 2264
3062, 1310, 2155, 1312, 2569
3063, 1059, 775, 988, 2390
3064, 1615, 1219, 2126, 2387
3065, 2128, 2401, 2244, 2402
3066, 1476, 2166, 1449, 2507
3067, 2190, 2256, 2221, 2577
3068, 1284, 1272, 1566, 2480
3069, 1243, 1611, 1467, 2241
3070, 543, 1258, 519, 2260
3071, 1120, 1332, 1222, 2306
3072, 1609, 1195, 2187, 2456
3073, 1538, 1279, 2170, 2571
3074, 1584, 1316, 1179, 2234
3075, 2133, 2373, 1456, 2399
3076, 1432, 2189, 1430, 2384
3077, 1396, 2181, 1214, 2443
3078, 1994, 1512, 1246, 2309
3079, 2158, 2488, 1488, 2583
3080, 826, 697, 2283, 2539
3081, 1982, 1971, 1976, 2232
3082, 1872, 1952, 1882, 2231
3083, 1141, 1111, 1583, 2382
3084, 2151, 2352, 2202, 2399
3085, 496, 591, 2505, 2527
3086, 520, 2484, 2152, 2531
3087, 940, 2151, 939, 2352
3088, 643, 1880, 862, 2324
3089, 1629, 1494, 2152, 2484
3090, 1320, 1321, 1227, 2502
3091, 1706, 2417, 1767, 2538
3092, 1548, 1189, 1900, 2410
3093, 1117, 2214, 1150, 2297
3094, 2312, 2356, 2237, 2413
3095, 1789, 972, 717, 2497
3096, 1459, 1456, 2294, 2373
3097, 550, 592, 584, 2547
3098, 2144, 2323, 2170, 2328
3099, 1562, 2219, 2257, 2276
3100, 1560, 2258, 2218, 2277
3101, 1841, 2173, 1810, 2508
3102, 833, 835, 834, 2566
3103, 922, 2433, 2386, 2485
3104, 1310, 1309, 1284, 2407
3105, 1834, 1842, 1792, 2169
3106, 1333, 1275, 2217, 2242
3107, 847, 846, 2188, 2442
3108, 2260, 2360, 2119, 2361
3109, 1640, 2124, 1337, 2554
3110, 1039, 2177, 2338, 2465
3111, 722, 2159, 724, 2574
3112, 1464, 2368, 2212, 2406
3113, 1561, 1915, 1218, 2257
3114, 1559, 1219, 1732, 2258
3115, 2278, 2401, 2186, 2421
3116, 1043, 736, 2146, 2383
3117, 1317, 1268, 1607, 2359
3118, 912, 2204, 635, 2381
3119, 700, 561, 810, 2313
3120, 1213, 1573, 1686, 2320
3121, 2193, 2351, 1611, 2405
3122, 1568, 1333, 2217, 2509
3123, 2149, 2236, 2319, 2329
3124, 2140, 908, 2290, 2540
3125, 563, 2234, 612, 2462
3126, 728, 2183, 746, 2536
3127, 806, 2228, 792, 2249
3128, 714, 2217, 1007, 2496
3129, 2222, 2432, 2299, 2469
3130, 665, 1134, 2259, 2437
3131, 1366, 2193, 1611, 2405
3132, 772, 2496, 2217, 2536
3133, 1571, 2379, 2152, 2392
3134, 728, 1004, 746, 2183
3135, 2265, 2348, 2149, 2470
3136, 2229, 2253, 2136, 2525
3137, 1151, 2306, 2167, 2573
3138, 1315, 2247, 2203, 2459
3139, 1999, 2089, 2110, 2555
3140, 1065, 2338, 2128, 2465
3141, 2158, 2270, 927, 2287
3142, 1117, 1106, 1540, 2297
3143, 1378, 2192, 1377, 2544
3144, 542, 2220, 607, 2366
3145, 1078, 703, 843, 2186
3146, 621, 2145, 1044, 2419
3147, 1069, 734, 1020, 2236
3148, 1259, 2026, 1409, 2250
3149, 1078, 2397, 2186, 2401
3150, 1110, 1160, 2474, 2479
3151, 909, 2140, 2303, 2467
3152, 1516, 2407, 2175, 2459
3153, 1813, 713, 2532, 2537
3154, 1305, 1517, 2156, 2281
3155, 904, 2376, 2162, 2515
3156, 1842, 1792, 2169, 2504
3157, 1819, 1829, 1801, 2264
3158, 1008, 1006, 2169, 2537
3159, 1993, 2086, 2091, 2528
3160, 2039, 2021, 1248, 2309
3161, 1314, 2307, 2213, 2382
3162, 1752, 2126, 1746, 2551
3163, 2062, 2016, 2099, 2250
3164, 2074, 2186, 2106, 2397
3165, 968, 962, 2520, 2581
3166, 1463, 2162, 1465, 2406
3167, 1791, 1813, 713, 2532
3168, 918, 2178, 1053, 2414
3169, 1943, 2200, 2433, 2489
3170, 862, 857, 859, 2194
3171, 1520, 1522, 2432, 2469
3172, 2248, 2334, 2193, 2374
3173, 1422, 2132, 1606, 2434
3174, 726, 2203, 754, 2327
3175, 1855, 2240, 2393, 2475
3176, 1237, 1357, 2228, 2395
3177, 1828, 2182, 1811, 2491
3178, 833, 701, 832, 2333
3179, 2214, 2335, 2284, 2437
3180, 775, 2130, 778, 2412
3181, 751, 749, 2155, 2499
3182, 891, 883, 2446, 2579
3183, 1551, 2221, 1677, 2256
3184, 2102, 2093, 2049, 2535
3185, 966, 2323, 2191, 2529
3186, 861, 2435, 2132, 2438
3187, 1541, 2144, 1575, 2571
3188, 1464, 1197, 2212, 2368
3189, 1815, 1831, 1786, 2491
3190, 779, 774, 2149, 2470
3191, 729, 2455, 2172, 2557
3192, 1892, 1948, 1937, 2427
3193, 860, 2179, 2330, 2435
3194, 977, 2170, 2328, 2533
3195, 846, 832, 699, 2333
3196, 1045, 2408, 2274, 2435
3197, 1224, 1332, 1091, 2306
3198, 913, 2171, 931, 2404
3199, 2161, 2318, 812, 2440
3200, 2386, 2433, 2121, 2485
3201, 746, 2183, 1004, 2496
3202, 1523, 1521, 1529, 2157
3203, 2178, 2121, 2485, 2486
3204, 861, 2132, 2350, 2438
3205, 1890, 2168, 1929, 2431
3206, 1483, 1649, 1482, 2486
3207, 1428, 1437, 2384, 2493
3208, 923, 2233, 919, 2441
3209, 1283, 1285, 2159, 2459
3210, 1600, 2516, 1626, 2519
3211, 1811, 2182, 1830, 2497
3212, 1489, 2163, 1490, 2488
3213, 2039, 1248, 1512, 2309
3214, 2197, 2119, 2336, 2403
3215, 1113, 1092, 617, 2246
3216, 1057, 2147, 891, 2503
3217, 1300, 1317, 2164, 2292
3218, 1304, 2165, 1318, 2291
3219, 1947, 2235, 2344, 2543
3220, 1231, 1535, 1530, 2474
3221, 1842, 2169, 1834, 2556
3222, 1117, 1590, 1090, 2284
3223, 755, 2203, 726, 2286
3224, 1110, 1160, 1136, 2474
3225, 1841, 2173, 2508, 2564
3226, 1454, 2392, 2202, 2399
3227, 1499, 2241, 1467, 2549
3228, 593, 591, 496, 2527
3229, 1236, 2458, 2010, 2488
3230, 904, 2162, 902, 2515
3231, 1480, 2302, 2240, 2526
3232, 1939, 1934, 1918, 2268
3233, 1054, 2472, 2126, 2551
3234, 1165, 2157, 2315, 2581
3235, 2169, 2418, 1567, 2556
3236, 980, 2144, 1014, 2558
3237, 850, 849, 2123, 2408
3238, 1703, 2151, 2445, 2538
3239, 1672, 1724, 1197, 2368
3240, 1566, 1844, 2418, 2480
3241, 2131, 2466, 1628, 2510
3242, 1599, 1576, 1577, 2452
3243, 516, 831, 557, 2318
3244, 1979, 1978, 1975, 2329
3245, 1833, 2556, 2223, 2564
3246, 1432, 1435, 1430, 2189
3247, 1102, 1172, 1141, 2213
3248, 992, 624, 782, 2312
3249, 2113, 2003, 2065, 2213
3250, 1351, 2136, 1342, 2463
3251, 1015, 1016, 2143, 2450
3252, 1734, 1205, 1594, 2269
3253, 776, 2124, 1079, 2412
3254, 1794, 2183, 1843, 2496
3255, 664, 751, 749, 2155
3256, 1199, 2206, 1460, 2304
3257, 928, 2233, 2287, 2410
3258, 1354, 2252, 2129, 2522
3259, 2193, 2187, 2334, 2456
3260, 2005, 2023, 2186, 2316
3261, 1693, 1556, 2248, 2456
3262, 1229, 2143, 2474, 2562
3263, 1556, 1193, 1718, 2248
3264, 716, 2264, 1031, 2389
3265, 1404, 1264, 2186, 2316
3266, 539, 2444, 2241, 2549
3267, 2018, 706, 880, 2338
3268, 1814, 2169, 1842, 2556
3269, 1292, 2307, 2195, 2342
3270, 822, 652, 815, 2353
3271, 1827, 2420, 1840, 2497
3272, 1523, 2157, 1529, 2479
3273, 1045, 2132, 861, 2435
3274, 1470, 2140, 1469, 2500
3275, 1067, 2131, 1009, 2371
3276, 1756, 2339, 2211, 2445
3277, 817, 2192, 2440, 2473
3278, 1304, 1562, 1608, 2276
3279, 665, 2259, 764, 2437
3280, 1183, 2146, 1604, 2462
3281, 1094, 1132, 1232, 2315
3282, 1300, 1607, 1560, 2277
3283, 1615, 2387, 2126, 2464
3284, 1605, 2145, 1301, 2567
3285, 1520, 1536, 2545, 2550
3286, 2232, 2263, 2329, 2481
3287, 2200, 2344, 914, 2404
3288, 759, 2142, 760, 2388
3289, 1626, 2128, 1402, 2519
3290, 697, 533, 826, 2283
3291, 1994, 2039, 1512, 2309
3292, 2173, 2305, 2223, 2346
3293, 903, 636, 985, 2212
3294, 1627, 1380, 1381, 2127
3295, 841, 842, 1065, 2128
3296, 1403, 1402, 1626, 2128
3297, 2145, 2349, 2135, 2364
3298, 2221, 2539, 2190, 2577
3299, 2128, 2409, 2244, 2465
3300, 921, 1088, 922, 2485
3301, 797, 2416, 2487, 2576
3302, 958, 2491, 2182, 2570
3303, 824, 810, 811, 2313
3304, 1308, 2167, 1224, 2573
3305, 877, 2211, 1058, 2385
3306, 2134, 2146, 2365, 2383
3307, 2106, 2074, 2023, 2186
3308, 961, 2141, 964, 2529
3309, 563, 613, 501, 2234
3310, 1842, 2169, 1814, 2418
3311, 1276, 2173, 1323, 2564
3312, 962, 2157, 960, 2570
3313, 926, 2270, 2163, 2287
3314, 2203, 754, 2327, 2355
3315, 1073, 1905, 2433, 2475
3316, 1646, 1643, 1344, 2565
3317, 1539, 1274, 1817, 2564
3318, 2200, 2386, 914, 2433
3319, 715, 762, 2173, 2532
3320, 962, 2423, 2157, 2570
3321, 1521, 2157, 1523, 2432
3322, 1092, 1022, 617, 2478
3323, 1566, 1272, 1844, 2480
3324, 1380, 2127, 1627, 2477
3325, 1845, 2504, 1795, 2511
3326, 1477, 1488, 2488, 2583
3327, 1517, 1222, 1305, 2156
3328, 956, 744, 661, 2156
3329, 1628, 2131, 1570, 2575
3330, 1855, 2240, 1907, 2393
3331, 2056, 706, 2018, 2338
3332, 1838, 1824, 1806, 2545
3333, 1143, 1101, 1176, 2234
3334, 1751, 2150, 2541, 2576
3335, 826, 2283, 827, 2539
3336, 1541, 2297, 2144, 2571
3337, 1961, 1857, 1923, 2506
3338, 1257, 1510, 1434, 2492
3339, 1077, 821, 704, 2185
3340, 1599, 1323, 1276, 2508
3341, 886, 639, 2224, 2300
3342, 1117, 1228, 1590, 2284
3343, 908, 2140, 909, 2540
3344, 1828, 1798, 1830, 2182
3345, 1571, 1629, 2152, 2379
3346, 2083, 2414, 2375, 2476
3347, 1827, 2420, 2210, 2508
3348, 1312, 2155, 1310, 2453
3349, 2244, 2401, 2207, 2402
3350, 1346, 1646, 2122, 2457
3351, 2139, 2201, 2353, 2578
3352, 2171, 2386, 931, 2404
3353, 533, 517, 826, 2283
3354, 2128, 2402, 2244, 2409
3355, 1864, 1938, 1949, 2411
3356, 1629, 1494, 1571, 2152
3357, 1009, 1067, 934, 2131
3358, 914, 2386, 2200, 2404
3359, 955, 662, 748, 2175
3360, 1525, 2141, 1522, 2469
3361, 1569, 1322, 1320, 2255
3362, 761, 2388, 2223, 2537
3363, 1379, 1216, 2387, 2544
3364, 1112, 1161, 2298, 2582
3365, 1232, 1522, 1525, 2141
3366, 2223, 2556, 1274, 2564
3367, 1169, 1170, 1331, 2314
3368, 877, 875, 2211, 2560
3369, 1450, 2209, 1198, 2295
3370, 640, 939, 994, 2151
3371, 1283, 2159, 2407, 2459
3372, 1288, 2281, 2172, 2358
3373, 873, 2227, 696, 2361
3374, 1369, 546, 1239, 2220
3375, 654, 816, 1696, 2321
3376, 1158, 1107, 2474, 2562
3377, 926, 2163, 929, 2287
3378, 1952, 2343, 2231, 2370
3379, 1345, 2356, 2184, 2463
3380, 2260, 2361, 2119, 2539
3381, 2209, 2279, 889, 2381
3382, 1896, 1858, 641, 2503
3383, 1031, 2120, 1086, 2389
3384, 899, 2280, 2206, 2380
3385, 580, 551, 581, 2225
3386, 2158, 2273, 2090, 2583
3387, 768, 618, 1108, 2355
3388, 2157, 1521, 2315, 2432
3389, 906, 2376, 2241, 2444
3390, 2085, 2451, 2205, 2514
3391, 695, 1028, 2019, 2274
3392, 867, 876, 2230, 2341
3393, 608, 583, 544, 2228
3394, 1852, 1956, 1405, 2431
3395, 763, 665, 1134, 2259
3396, 1454, 1251, 2468, 2531
3397, 2169, 1311, 2418, 2453
3398, 1586, 1560, 1220, 2218
3399, 1585, 1221, 1562, 2219
3400, 2019, 1028, 2035, 2274
3401, 2216, 2326, 2194, 2447
3402, 728, 745, 2288, 2536
3403, 2142, 2388, 759, 2398
3404, 1594, 2211, 1619, 2445
3405, 1424, 2466, 2216, 2510
3406, 747, 2471, 2259, 2536
3407, 1424, 2216, 2268, 2510
3408, 1134, 1105, 763, 2259
3409, 1594, 1695, 1734, 2445
3410, 1281, 2184, 1345, 2565
3411, 2265, 2390, 2130, 2428
3412, 1044, 621, 740, 2145
3413, 1604, 1183, 1297, 2146
3414, 1043, 736, 622, 2146
3415, 1061, 732, 1022, 2213
3416, 2040, 2309, 2166, 2555
3417, 1638, 2185, 1382, 2400
3418, 967, 719, 966, 2323
3419, 693, 855, 2153, 2523
3420, 1366, 2248, 2193, 2405
3421, 2169, 2504, 1792, 2537
3422, 1794, 1843, 1821, 2496
3423, 582, 2337, 2249, 2372
3424, 1715, 2252, 1187, 2522
3425, 1563, 2257, 2125, 2516
3426, 892, 690, 893, 2563
3427, 1289, 2183, 1307, 2495
3428, 2218, 2292, 2134, 2425
3429, 2135, 2291, 2219, 2426
3430, 750, 1008, 2169, 2499
3431, 1524, 1132, 1529, 2315
3432, 2136, 2356, 1342, 2463
3433, 1243, 510, 1505, 2351
3434, 2071, 1991, 673, 2251
3435, 1646, 1344, 2337, 2565
3436, 1766, 1699, 1679, 2269
3437, 1571, 1438, 2379, 2392
3438, 1161, 1155, 1094, 2524
3439, 1575, 2144, 2272, 2571
3440, 742, 621, 2266, 2364
3441, 622, 738, 2267, 2365
3442, 797, 2416, 799, 2487
3443, 680, 2225, 551, 2482
3444, 631, 1862, 984, 2433
3445, 747, 2167, 745, 2536
3446, 903, 985, 905, 2376
3447, 765, 764, 2174, 2437
3448, 2172, 2367, 727, 2557
3449, 2205, 2494, 2085, 2575
3450, 1852, 2431, 1405, 2443
3451, 589, 2362, 2185, 2568
3452, 791, 2129, 2340, 2454
3453, 1614, 2375, 2178, 2476
3454, 1539, 2223, 1274, 2564
3455, 1403, 2128, 1626, 2516
3456, 1095, 1179, 1129, 2247
3457, 1790, 2264, 716, 2389
3458, 924, 1989, 2273, 2414
3459, 1571, 2152, 1494, 2531
3460, 1635, 1208, 2221, 2403
3461, 2237, 2457, 2129, 2522
3462, 1097, 1123, 954, 2347
3463, 1794, 1843, 2183, 2495
3464, 1058, 2211, 1033, 2339
3465, 1077, 2185, 2362, 2473
3466, 1416, 1415, 1254, 2326
3467, 1163, 2479, 2157, 2520
3468, 1614, 2178, 1479, 2476
3469, 1943, 2344, 2200, 2543
3470, 1575, 2272, 1588, 2571
3471, 1298, 2292, 1586, 2425
3472, 1302, 1585, 2291, 2426
3473, 1410, 1412, 1411, 2518
3474, 2154, 2513, 586, 2559
3475, 1963, 623, 1867, 2265
3476, 973, 671, 1112, 2298
3477, 2071, 673, 925, 2251
3478, 1428, 2384, 2154, 2493
3479, 1639, 2186, 2402, 2421
3480, 1522, 2141, 2315, 2469
3481, 1540, 1228, 1117, 2297
3482, 2042, 924, 1989, 2273
3483, 921, 1088, 2121, 2475
3484, 621, 740, 2145, 2364
3485, 622, 2146, 736, 2365
3486, 2111, 2316, 2160, 2517
3487, 702, 557, 831, 2318
3488, 1361, 2378, 1360, 2490
3489, 1083, 2124, 776, 2412
3490, 1151, 1091, 2306, 2573
3491, 1040, 878, 879, 2176
3492, 1439, 1601, 1440, 2176
3493, 1337, 2124, 1644, 2552
3494, 881, 880, 1039, 2177
3495, 1441, 1442, 1600, 2177
3496, 1031, 767, 2120, 2533
3497, 970, 2423, 2182, 2497
3498, 631, 1073, 1862, 2433
3499, 1616, 2125, 2409, 2516
3500, 2134, 2425, 476, 2580
3501, 1312, 2255, 2155, 2453
3502, 1009, 2131, 934, 2494
3503, 1646, 2337, 2122, 2457
3504, 1882, 1557, 2231, 2343
3505, 1454, 1251, 1453, 2468
3506, 1811, 2491, 2182, 2497
3507, 663, 747, 763, 2259
3508, 722, 2511, 2159, 2574
3509, 593, 2294, 2133, 2527
3510, 1429, 1255, 1428, 2154
3511, 855, 856, 693, 2153
3512, 1254, 1417, 1416, 2153
3513, 2179, 2330, 1930, 2427
3514, 919, 2240, 920, 2441
3515, 1506, 2226, 1457, 2417
3516, 539, 2271, 2241, 2444
3517, 2205, 2451, 2085, 2494
3518, 1307, 2183, 1289, 2509
3519, 1582, 1641, 1180, 2253
3520, 2244, 2409, 2125, 2465
3521, 1643, 1345, 2356, 2565
3522, 2172, 2349, 2342, 2455
3523, 1967, 1920, 734, 2236
3524, 2103, 2026, 2100, 2461
3525, 2314, 2354, 2175, 2407
3526, 1326, 2483, 2174, 2542
3527, 1320, 2255, 2142, 2502
3528, 2155, 2255, 1312, 2569
3529, 2198, 2394, 1360, 2396
3530, 782, 2312, 783, 2454
3531, 961, 671, 964, 2582
3532, 2071, 925, 2108, 2270
3533, 671, 1112, 2298, 2582
3534, 2225, 2351, 580, 2482
3535, 1456, 2133, 2294, 2373
3536, 930, 679, 1037, 2460
3537, 1935, 2233, 1877, 2410
3538, 2183, 2495, 1843, 2496
3539, 772, 1007, 2217, 2496
3540, 582, 583, 547, 2249
3541, 512, 552, 580, 2351
3542, 2211, 2341, 2269, 2384
3543, 824, 700, 810, 2313
3544, 612, 501, 564, 2234
3545, 1262, 2024, 2022, 2316
3546, 2149, 2265, 774, 2412
3547, 794, 792, 2228, 2296
3548, 2211, 2379, 2341, 2384
3549, 1451, 2411, 2224, 2449
3550, 683, 2055, 155, 952
3551, 1308, 1306, 1224, 2167
3552, 747, 663, 745, 2167
3553, 1606, 2132, 2293, 2434
3554, 2055, 2011, 155, 952
3555, 1498, 80, 514, 531
3556, 80, 1498, 1249, 531
3557, 776, 1079, 777, 2412
3558, 992, 286, 1664, 1720
3559, 1399, 1400, 2207, 2506
3560, 1736, 1684, 469, 1553
3561, 1326, 2284, 2483, 2542
3562, 551, 2225, 580, 2482
3563, 95, 530, 483, 1392
3564, 1276, 2508, 2173, 2564
3565, 1255, 1428, 2154, 2493
3566, 1170, 1096, 1331, 2314
3567, 1789, 1827, 1840, 2497
3568, 525, 2230, 2493, 2559
3569, 1904, 1941, 1875, 2295
3570, 2137, 1362, 2396, 2490
3571, 1325, 2174, 1326, 2483
3572, 596, 600, 2360, 2361
3573, 600, 594, 2360, 2361
3574, 1031, 2120, 2389, 2533
3575, 1195, 1466, 1609, 2187
3576, 623, 773, 1867, 2265
3577, 1421, 2331, 2179, 2434
3578, 2043, 1992, 1242, 337
3579, 2011, 2038, 154, 681
3580, 2130, 2345, 1336, 2552
3581, 516, 831, 49, 557
3582, 833, 2333, 832, 2566
3583, 2225, 2422, 2325, 2490
3584, 1814, 1842, 1834, 2556
3585, 1501, 2392, 2151, 2445
3586, 1169, 2314, 1225, 2569
3587, 1778, 2221, 1729, 2572
3588, 1242, 1513, 2043, 337
3589, 952, 2011, 154, 681
3590, 739, 1025, 999, 2218
3591, 1001, 1024, 743, 2219
3592, 748, 662, 770, 2354
3593, 2179, 2427, 2194, 2438
3594, 645, 860, 858, 2179
3595, 1421, 1206, 1419, 2179
3596, 843, 2186, 2278, 2401
3597, 805, 2193, 2334, 2374
3598, 1053, 2178, 920, 2485
3599, 2170, 2262, 1538, 2571
3600, 1981, 1974, 1977, 2236
3601, 1306, 2167, 1308, 2509
3602, 1101, 1173, 1142, 2234
3603, 550, 1247, 79, 514
3604, 536, 686, 33, 494
3605, 2223, 2346, 761, 2532
3606, 1466, 2368, 1546, 2406
3607, 2086, 2303, 2140, 2528
3608, 856, 2153, 855, 2438
3609, 648, 872, 2336, 2572
3610, 1408, 2188, 1260, 2548
3611, 1563, 1562, 2257, 2276
3612, 1564, 2258, 1560, 2277
3613, 1353, 1355, 1367, 2228
3614, 1326, 2174, 1325, 2542
3615, 1452, 2147, 1558, 2411
3616, 469, 1185, 1736, 1553
3617, 992, 286, 624, 1664
3618, 1182, 1301, 2145, 2567
3619, 1481, 2178, 1614, 2486
3620, 1498, 79, 1247, 514
3621, 937, 686, 33, 536
3622, 2152, 2484, 1494, 2531
3623, 1918, 1939, 2268, 2503
3624, 1427, 567, 2484, 2493
3625, 1392, 96, 530, 1265
3626, 2170, 2144, 2328, 2571
3627, 713, 761, 2532, 2537
3628, 1284, 2407, 2196, 2453
3629, 1525, 2272, 2141, 2469
3630, 1952, 1962, 2343, 2370
3631, 883, 2451, 2205, 2494
3632, 1414, 1262, 2022, 2316
3633, 1531, 1518, 1519, 2182
3634, 1716, 624, 287, 1664
3635, 1647, 2120, 1592, 2561
3636, 1116, 128, 1112, 973
3637, 1402, 2128, 1403, 2409
3638, 2194, 2326, 2153, 2447
3639, 494, 941, 32, 540
3640, 867, 868, 2154, 2559
3641, 950, 2057, 1996, 2350
3642, 924, 2042, 677, 2273
3643, 1721, 1763, 1777, 2546
3644, 2151, 2392, 2385, 2445
3645, 1680, 1706, 1767, 2538
3646, 2183, 1307, 2495, 2509
3647, 765, 2174, 766, 2335
3648, 1421, 2179, 1419, 2434
3649, 2199, 2474, 1160, 2479
3650, 726, 2286, 2203, 2383
3651, 2151, 2226, 2352, 2399
3652, 1322, 2223, 1539, 2564
3653, 584, 2148, 2308, 2547
3654, 705, 606, 569, 2317
3655, 508, 2228, 608, 2366
3656, 2098, 2460, 2171, 2512
3657, 864, 863, 2216, 2371
3658, 1989, 2083, 2273, 2414
3659, 1378, 1375, 1377, 2192
3660, 1166, 2284, 1226, 2542
3661, 858, 2179, 860, 2435
3662, 1956, 1212, 1405, 2431
3663, 583, 608, 508, 2228
3664, 1800, 1833, 1817, 2564
3665, 1292, 2195, 1313, 2342
3666, 711, 723, 1005, 2511
3667, 910, 911, 2235, 2467
3668, 1457, 1201, 2399, 2538
3669, 1373, 2161, 2289, 2436
3670, 1106, 1126, 309, 1230
3671, 1473, 2275, 2204, 2500
3672, 1700, 1383, 1686, 2320
3673, 585, 2337, 2372, 2565
3674, 991, 648, 1074, 2572
3675, 2223, 2255, 2169, 2388
3676, 1862, 1943, 2433, 2489
3677, 864, 2243, 2216, 2447
3678, 308, 1126, 1115, 1230
3679, 1116, 1089, 129, 669
3680, 2227, 2254, 2154, 2492
3681, 2144, 2297, 1154, 2558
3682, 1239, 541, 1368, 2220
3683, 1026, 827, 2190, 2539
3684, 478, 477, 2172, 2367
3685, 1402, 2402, 1639, 2519
3686, 843, 2278, 839, 2401
3687, 2229, 2357, 2253, 2525
3688, 1171, 2143, 2347, 2562
3689, 1323, 2173, 2305, 2564
3690, 654, 813, 814, 2321
3691, 1473, 1471, 2204, 2501
3692, 1473, 2204, 1196, 2501
3693, 2125, 2177, 2465, 2516
3694, 962, 968, 960, 2581
3695, 1399, 2421, 1400, 2506
3696, 339, 1993, 2051, 1244
3697, 972, 971, 717, 2497
3698, 1795, 2418, 2196, 2504
3699, 1927, 2393, 1907, 2526
3700, 1743, 2394, 2150, 2576
3701, 2159, 2327, 724, 2574
3702, 1427, 567, 605, 2484
3703, 1316, 2234, 1294, 2462
3704, 1343, 2356, 1342, 2413
3705, 1122, 668, 1123, 2347
3706, 854, 2028, 2000, 2243
3707, 941, 32, 686, 494
3708, 1360, 2394, 1554, 2396
3709, 1290, 2172, 2342, 2358
3710, 1352, 2129, 2457, 2522
3711, 1726, 1775, 1733, 2256
3712, 2196, 2499, 723, 2504
3713, 2229, 2245, 2184, 2463
3714, 872, 870, 1049, 2197
3715, 1433, 1610, 1431, 2197
3716, 2119, 2360, 2260, 2577
3717, 2202, 2468, 590, 2531
3718, 854, 2243, 864, 2447
3719, 826, 827, 697, 2539
3720, 2142, 2346, 760, 2388
3721, 825, 1026, 827, 2190
3722, 1651, 1655, 1658, 2253
3723, 1157, 1095, 2247, 2355
3724, 1090, 1226, 1166, 2284
3725, 1985, 2106, 703, 2397
3726, 1053, 918, 920, 2178
3727, 1479, 1614, 1481, 2178
3728, 1627, 2464, 1601, 2477
3729, 1994, 2166, 2040, 2309
3730, 2182, 2491, 957, 2497
3731, 1569, 2255, 1312, 2453
3732, 1400, 1217, 1399, 2207
3733, 1798, 2182, 1828, 2550
3734, 512, 580, 581, 2225
3735, 1881, 1898, 1949, 2300
3736, 1107, 1158, 1171, 2562
3737, 1313, 1292, 1314, 2307
3738, 2096, 2145, 2419, 2567
3739, 816, 654, 814, 2321
3740, 2154, 2492, 1255, 2493
3741, 1480, 2393, 1190, 2526
3742, 1172, 1102, 1140, 2213
3743, 929, 626, 987, 2410
3744, 1849, 2233, 1189, 2526
3745, 1468, 339, 2051, 1244
3746, 2113, 2066, 2003, 2213
3747, 866, 867, 2230, 2559
3748, 1409, 2016, 1260, 2250
3749, 2127, 2400, 2362, 2568
3750, 666, 1097, 954, 2347
3751, 1240, 335, 2053, 2013
3752, 2014, 2054, 152, 679
3753, 884, 2138, 2446, 2451
3754, 129, 1116, 669, 973
3755, 1115, 308, 1230, 1534
3756, 1939, 1879, 2268, 2503
3757, 1643, 2356, 1344, 2565
3758, 2153, 856, 2350, 2438
3759, 183, 1987, 2063, 2419
3760, 753, 2213, 732, 2419
3761, 1957, 2390, 1909, 2428
3762, 1791, 713, 978, 2532
3763, 585, 2337, 588, 2372
3764, 582, 588, 2337, 2372
3765, 2015, 2055, 156, 683
3766, 1540, 1106, 309, 1230
3767, 2005, 2023, 2074, 2186
3768, 2203, 2286, 2146, 2383
3769, 556, 1502, 77, 513
3770, 1519, 1531, 2182, 2424
3771, 1137, 974, 124, 1098
3772, 1535, 303, 1136, 1110
3773, 1032, 643, 863, 2324
3774, 1471, 2500, 2204, 2501
3775, 1886, 2331, 1962, 2370
3776, 753, 2213, 2419, 2478
3777, 675, 2108, 925, 2270
3778, 742, 621, 1052, 2266
3779, 622, 738, 1051, 2267
3780, 2139, 2256, 2190, 2521
3781, 2362, 2400, 2185, 2568
3782, 1386, 1261, 2201, 2578
3783, 887, 2209, 637, 2300
3784, 865, 1067, 1009, 2371
3785, 1040, 1003, 820, 2472
3786, 1976, 2004, 2117, 2232
3787, 1425, 1420, 1424, 2216
3788, 1691, 1758, 1719, 2304
3789, 1907, 2240, 1906, 2526
3790, 1939, 1951, 1879, 2503
3791, 510, 609, 552, 2351
3792, 1898, 948, 1859, 2300
3793, 705, 569, 878, 2317
3794, 1197, 1462, 2212, 2304
3795, 2206, 2373, 2226, 2417
3796, 1691, 1543, 1724, 2304
3797, 1900, 2239, 1548, 2410
3798, 1265, 96, 530, 503
3799, 1825, 1279, 1528, 2322
3800, 1081, 1020, 2236, 2329
3801, 2184, 2122, 2356, 2565
3802, 2121, 2433, 2200, 2489
3803, 2222, 2545, 1831, 2550
3804, 525, 2484, 567, 2493
3805, 987, 626, 1850, 2410
3806, 1500, 1555, 2151, 2538
3807, 1078, 2186, 843, 2401
3808, 1379, 2400, 1216, 2544
3809, 858, 2427, 2179, 2438
3810, 1825, 1280, 1838, 2322
3811, 2181, 2421, 1397, 2506
3812, 2173, 2420, 1810, 2508
3813, 1274, 1539, 1322, 2223
3814, 2093, 2153, 2350, 2535
3815, 2152, 2385, 2211, 2560
3816, 1325, 2174, 1327, 2369
3817, 2168, 2301, 1084, 2498
3818, 1454, 2399, 2202, 2468
3819, 683, 156, 2015, 907
3820, 739, 1046, 756, 2164
3821, 1300, 1317, 1607, 2164
3822, 1304, 1608, 1318, 2165
3823, 1047, 743, 757, 2165
3824, 847, 2301, 1084, 2442
3825, 1290, 2342, 1313, 2358
3826, 1113, 617, 769, 2246
3827, 525, 605, 567, 2484
3828, 2111, 2105, 1984, 2517
3829, 1445, 2449, 2138, 2514
3830, 1570, 2131, 1628, 2510
3831, 2215, 2485, 2121, 2486
3832, 797, 2487, 993, 2576
3833, 780, 624, 287, 1716
3834, 779, 777, 1019, 2263
3835, 941, 31, 540, 491
3836, 2216, 1425, 2326, 2466
3837, 996, 1861, 1911, 2498
3838, 1524, 1232, 1132, 2315
3839, 1214, 2181, 1397, 2506
3840, 868, 694, 2513, 2559
3841, 166, 2057, 1996, 950
3842, 2143, 2474, 1158, 2534
3843, 2210, 2420, 1827, 2497
3844, 881, 2177, 1039, 2465
3845, 1440, 2176, 1601, 2464
3846, 1359, 2220, 1368, 2378
3847, 1389, 1258, 1597, 2260
3848, 1627, 2127, 2464, 2477
3849, 1404, 1264, 1639, 2186
3850, 1408, 1645, 2518, 2548
3851, 702, 49, 831, 557
3852, 1263, 95, 483, 1392
3853, 1216, 1741, 2387, 2544
3854, 2157, 2424, 1523, 2432
3855, 2107, 2290, 2166, 2530
3856, 1191, 1360, 1554, 2396
3857, 2342, 2349, 2195, 2455
3858, 726, 754, 724, 2327
3859, 1910, 1514, 1875, 2295
3860, 2192, 2400, 2185, 2473
3861, 1279, 1588, 1528, 2322
3862, 1331, 1310, 1225, 2314
3863, 1832, 2389, 1835, 2561
3864, 1090, 1590, 1226, 2284
3865, 1241, 552, 512, 2351
3866, 922, 1088, 2433, 2485
3867, 2138, 2309, 2110, 2555
3868, 1308, 2369, 2167, 2573
3869, 2211, 2339, 1058, 2385
3870, 2169, 2388, 1008, 2537
3871, 1659, 1658, 1655, 2229
3872, 2019, 2057, 167, 695
3873, 1998, 1256, 350, 2058
3874, 2053, 1491, 335, 1240
3875, 930, 2014, 152, 679
3876, 754, 726, 755, 2203
3877, 1287, 1315, 1316, 2203
3878, 1621, 1487, 2163, 2458
3879, 2233, 2287, 2158, 2441
3880, 1609, 1466, 1467, 2406
3881, 1402, 2402, 2128, 2409
3882, 2185, 2440, 2192, 2473
3883, 2299, 2315, 2141, 2469
3884, 2174, 2483, 2284, 2542
3885, 1636, 2139, 1384, 2521
3886, 2155, 2314, 1131, 2569
3887, 2331, 2343, 1962, 2370
3888, 2144, 2170, 2323, 2571
3889, 916, 675, 927, 2270
3890, 680, 2225, 802, 2325
3891, 969, 2423, 2199, 2520
3892, 2143, 2452, 1576, 2474
3893, 677, 916, 917, 2273
3894, 2134, 2383, 725, 2580
3895, 2040, 2107, 2073, 2166
3896, 2001, 2100, 2035, 2274
3897, 855, 857, 2438, 2447
3898, 656, 1854, 1034, 2244
3899, 959, 975, 672, 2491
3900, 515, 1453, 82, 553
3901, 1006, 2504, 2169, 2537
3902, 77, 1245, 1502, 556
3903, 682, 2271, 539, 2444
3904, 1363, 2351, 2225, 2405
3905, 921, 920, 2475, 2485
3906, 761, 2346, 2223, 2388
3907, 1854, 656, 1883, 2244
3908, 1382, 2436, 2185, 2568
3909, 1382, 1265, 2436, 2568
3910, 715, 2420, 1826, 2532
3911, 1509, 1447, 1200, 2224
3912, 1381, 1627, 2127, 2464
3913, 1065, 2128, 842, 2465
3914, 953, 637, 889, 2209
3915, 643, 862, 859, 2324
3916, 2178, 2240, 2302, 2441
3917, 1963, 1909, 1925, 2265
3918, 933, 1068, 1010, 2563
3919, 1579, 1580, 1181, 2232
3920, 570, 607, 542, 2220
3921, 795, 628, 2541, 2576
3922, 638, 982, 899, 2206
3923, 988, 775, 623, 2265
3924, 835, 2181, 836, 2278
3925, 2196, 2418, 1795, 2480
3926, 2067, 1349, 2117, 2232
3927, 1526, 2191, 1527, 2272
3928, 1608, 1442, 1269, 2363
3929, 1518, 1519, 2182, 2550
3930, 1187, 1714, 1715, 467
3931, 1757, 1719, 1758, 2417
3932, 936, 841, 1065, 2397
3933, 1538, 1588, 1279, 2571
3934, 831, 50, 522, 516
3935, 1084, 2168, 845, 2442
3936, 994, 2151, 940, 2339
3937, 1717, 284, 625, 1666
3938, 820, 819, 1066, 2472
3939, 2154, 2492, 586, 2513
3940, 1671, 629, 280, 1721
3941, 2133, 2399, 1455, 2468
3942, 676, 2228, 508, 2366
3943, 1520, 1522, 1521, 2432
3944, 715, 2173, 2420, 2532
3945, 977, 976, 718, 2264
3946, 2198, 2378, 1360, 2394
3947, 1955, 2168, 1890, 2553
3948, 1545, 1876, 2489, 2543
3949, 1996, 693, 950, 2350
3950, 689, 2451, 883, 2494
3951, 2191, 2469, 1526, 2545
3952, 704, 50, 522, 831
3953, 1009, 2371, 2131, 2579
3954, 2273, 2178, 2414, 2476
3955, 31, 941, 684, 491
3956, 854, 2447, 855, 2523
3957, 1437, 2379, 2230, 2484
3958, 1927, 1907, 1958, 2526
3959, 1571, 1438, 1629, 2379
3960, 2228, 2296, 2129, 2395
3961, 1141, 1172, 1111, 2382
3962, 1196, 2204, 1473, 2295
3963, 1331, 1225, 1169, 2314
3964, 591, 2133, 2468, 2505
3965, 1308, 2167, 2369, 2509
3966, 682, 938, 906, 2444
3967, 1672, 1197, 1546, 2368
3968, 1179, 1329, 1129, 2247
3969, 1385, 2261, 2201, 2578
3970, 1551, 1635, 1208, 2221
3971, 872, 2197, 1049, 2336
3972, 1727, 1778, 1742, 2221
3973, 947, 2430, 2134, 2580
3974, 1900, 1933, 1878, 2239
3975, 2040, 2166, 1994, 2530
3976, 744, 2288, 2156, 2557
3977, 2274, 2408, 2132, 2435
3978, 2210, 2420, 971, 2450
3979, 797, 799, 993, 2487
3980, 2149, 2263, 2124, 2412
3981, 1529, 305, 1121, 1132
3982, 689, 882, 883, 2451
3983, 1256, 1511, 350, 2058
3984, 695, 2057, 167, 950
3985, 1774, 1216, 1741, 2387
3986, 2206, 2280, 2148, 2380
3987, 1580, 2232, 1282, 2554
3988, 124, 670, 974, 1137
3989, 303, 1535, 1231, 1110
3990, 2143, 1015, 2450, 2534
3991, 1019, 2329, 2263, 2481
3992, 819, 2127, 2472, 2473
3993, 1549, 1714, 1187, 467
3994, 1406, 2168, 1645, 2548
3995, 2226, 2399, 2151, 2538
3996, 1811, 957, 2491, 2497
3997, 989, 284, 625, 1717
3998, 1125, 136, 771, 1104
3999, 2162, 2444, 604, 2549
4000, 2138, 2451, 2089, 2514
4001, 923, 927, 2287, 2441
4002, 2151, 2385, 2339, 2445
4003, 723, 2354, 2196, 2574
4004, 1638, 2400, 1380, 2568
4005, 1862, 2433, 1946, 2489
4006, 1305, 1222, 1332, 2306
4007, 2084, 2375, 2087, 2414
4008, 1865, 1967, 1977, 2236
4009, 1464, 1546, 1197, 2368
4010, 2120, 2389, 2264, 2561
4011, 1709, 648, 1692, 2572
4012, 559, 88, 506, 1257
4013, 1358, 2378, 2150, 2394
4014, 1605, 2307, 2145, 2567
4015, 537, 696, 42, 518
4016, 817, 2192, 814, 2440
4017, 855, 2447, 2153, 2523
4018, 2137, 2374, 803, 2546
4019, 1475, 1492, 1474, 2439
4020, 1414, 358, 2005, 2022
4021, 2144, 2323, 2272, 2571
4022, 854, 2000, 691, 2243
4023, 2107, 2166, 2040, 2530
4024, 1328, 1602, 1592, 2483
4025, 845, 2168, 1084, 2553
4026, 962, 2157, 2423, 2520
4027, 797, 2150, 2416, 2576
4028, 648, 1742, 1692, 2572
4029, 1807, 1275, 1797, 2242
4030, 1525, 2141, 2272, 2524
4031, 1398, 2208, 2431, 2548
4032, 2128, 2516, 2338, 2519
4033, 1260, 1407, 2188, 2391
4034, 966, 964, 1014, 2323
4035, 2151, 2339, 1770, 2445
4036, 788, 1019, 2263, 2481
4037, 1990, 2042, 2090, 2273
4038, 828, 2361, 1036, 2539
4039, 1834, 2169, 2537, 2556
4040, 1213, 1686, 1383, 2320
4041, 1841, 2508, 1809, 2564
4042, 1495, 1628, 1570, 2575
4043, 1410, 1259, 1409, 2250
4044, 1052, 757, 742, 2266
4045, 738, 756, 1051, 2267
4046, 1994, 1512, 341, 1246
4047, 1306, 1332, 1224, 2306
4048, 2199, 2424, 2210, 2452
4049, 954, 1123, 668, 2347
4050, 1106, 1117, 1540, 310
4051, 596, 543, 2260, 2360
4052, 773, 1867, 2265, 2470
4053, 316, 1093, 1120, 1222
4054, 782, 783, 785, 2454
4055, 1104, 137, 661, 1114
4056, 798, 678, 2220, 2366
4057, 830, 829, 2336, 2539
4058, 1877, 2233, 627, 2410
4059, 1092, 617, 2246, 2478
4060, 921, 2475, 2121, 2485
4061, 1616, 1563, 1218, 2125
4062, 1002, 1055, 657, 2125
4063, 1564, 1615, 1219, 2126
4064, 2005, 1264, 358, 1414
4065, 894, 2352, 2133, 2505
4066, 2140, 2275, 1469, 2500
4067, 977, 718, 1027, 2170
4068, 2226, 2373, 1457, 2417
4069, 750, 2499, 2169, 2504
4070, 1410, 1411, 1259, 2461
4071, 1673, 1771, 1779, 2544
4072, 991, 1742, 648, 2572
4073, 1832, 2264, 1790, 2389
4074, 2195, 2349, 731, 2455
4075, 36, 690, 892, 532
4076, 1659, 2229, 2245, 2448
4077, 882, 161, 2033, 689
4078, 344, 1443, 2032, 1250
4079, 1720, 1748, 2237, 2340
4080, 1720, 1748, 1772, 2237
4081, 2020, 2033, 161, 689
4082, 2032, 1997, 344, 1250
4083, 1767, 2417, 2226, 2538
4084, 660, 2218, 1025, 2430
4085, 1024, 2219, 659, 2429
4086, 1578, 1574, 1180, 2245
4087, 1701, 1670, 1702, 2238
4088, 939, 940, 994, 2151
4089, 1500, 1555, 1501, 2151
4090, 346, 2037, 2036, 1495
4091, 2059, 163, 2000, 934
4092, 1267, 1600, 1626, 2519
4093, 1933, 2239, 1900, 2410
4094, 804, 2193, 805, 2374
4095, 976, 716, 1819, 2264
4096, 1433, 1728, 1688, 2310
4097, 1470, 2285, 2140, 2500
4098, 485, 704, 522, 2362
4099, 2021, 2039, 1248, 342
4100, 2159, 1285, 2311, 2459
4101, 1484, 2302, 1480, 2526
4102, 1342, 2356, 2136, 2413
4103, 2083, 2087, 2375, 2414
4104, 1396, 1397, 1214, 2181
4105, 723, 2196, 2511, 2574
4106, 1512, 1248, 2039, 342
4107, 1240, 1614, 2375, 2486
4108, 877, 875, 1058, 2211
4109, 1331, 1096, 1223, 2314
4110, 2073, 907, 685, 2290
4111, 533, 2260, 599, 2283
4112, 315, 1120, 1091, 1332
4113, 1573, 1686, 1733, 442
4114, 746, 2183, 2496, 2536
4115, 2203, 2327, 2311, 2459
4116, 2159, 2311, 2327, 2459
4117, 2199, 2424, 1530, 2479
4118, 1088, 2433, 2121, 2475
4119, 2205, 2446, 883, 2579
4120, 666, 120, 1097, 2398
4121, 885, 2279, 2138, 2555
4122, 1900, 1878, 1548, 2239
4123, 1702, 2387, 2238, 2551
4124, 2156, 2455, 956, 2557
4125, 520, 1494, 2484, 2531
4126, 839, 838, 656, 2207
4127, 2022, 1262, 357, 2024
4128, 1795, 2196, 2480, 2511
4129, 1784, 1739, 660, 2430
4130, 1670, 1702, 2238, 2551
4131, 1442, 1600, 2177, 2516
4132, 766, 765, 764, 2174
4133, 1886, 2330, 2331, 2370
4134, 1927, 1190, 2393, 2526
4135, 1684, 1772, 2237, 2413
4136, 1476, 2166, 2275, 2530
4137, 1551, 1677, 1726, 2256
4138, 2235, 2501, 1194, 2543
4139, 826, 825, 827, 2283
4140, 559, 88, 1257, 1510
4141, 696, 949, 42, 518
4142, 2425, 2430, 476, 2580
4143, 2167, 2288, 745, 2536
4144, 1153, 1150, 1117, 2214
4145, 1122, 668, 122, 1123
4146, 1514, 1198, 1875, 2295
4147, 1283, 2407, 2159, 2480
4148, 760, 2346, 2142, 2347
4149, 1440, 1607, 1268, 2359
4150, 2272, 2298, 2144, 2524
4151, 1865, 2348, 2236, 2415
4152, 2133, 2280, 895, 2527
4153, 2124, 2263, 2149, 2554
4154, 1384, 2139, 2320, 2578
4155, 1821, 1004, 1847, 2367
4156, 1927, 1958, 1190, 2526
4157, 1741, 1702, 2387, 2544
4158, 1691, 1199, 1543, 2304
4159, 2174, 2335, 765, 2437
4160, 923, 2287, 2233, 2441
4161, 774, 773, 2265, 2470
4162, 1205, 1435, 1432, 2269
4163, 2162, 2376, 904, 2444
4164, 2215, 2460, 2084, 2512
4165, 1113, 661, 138, 1114
4166, 1414, 1262, 357, 2022
4167, 799, 2416, 2198, 2487
4168, 1833, 1813, 2532, 2537
4169, 693, 166, 1996, 950
4170, 1955, 2498, 2168, 2553
4171, 1520, 2469, 2222, 2545
4172, 1262, 356, 2024, 2006
4173, 2168, 2301, 2231, 2518
4174, 702, 48, 557, 504
4175, 483, 523, 94, 1263
4176, 740, 2349, 2145, 2364
4177, 2049, 1254, 348, 2007
4178, 1478, 1488, 1477, 2583
4179, 646, 869, 870, 2254
4180, 1523, 2424, 2157, 2479
4181, 1984, 2025, 173, 701
4182, 629, 990, 280, 1721
4183, 1181, 2232, 1580, 2319
4184, 955, 2327, 2175, 2574
4185, 1677, 2221, 1727, 2256
4186, 1108, 1133, 1157, 2355
4187, 585, 493, 611, 2184
4188, 960, 2299, 2157, 2581
4189, 2112, 2232, 2004, 2481
4190, 679, 2414, 1053, 2485
4191, 1078, 841, 2397, 2401
4192, 1203, 1695, 1594, 2445
4193, 2123, 2293, 1411, 2461
4194, 797, 628, 795, 2576
4195, 1638, 2185, 2400, 2568
4196, 1266, 1627, 1601, 2477
4197, 801, 629, 799, 2487
4198, 1618, 2268, 2147, 2510
4199, 1411, 1412, 1413, 2293
4200, 772, 1007, 2496, 2536
4201, 1406, 2431, 2168, 2548
4202, 896, 895, 894, 2352
4203, 875, 2341, 2211, 2560
4204, 984, 2344, 914, 2433
4205, 818, 1035, 2238, 2551
4206, 1133, 1023, 1142, 2355
4207, 2281, 2183, 2367, 2557
4208, 639, 948, 1898, 2300
4209, 1433, 1610, 2197, 2403
4210, 1587, 1390, 1551, 2256
4211, 699, 847, 846, 2188
4212, 748, 2175, 2354, 2574
4213, 498, 1255, 2492, 2493
4214, 1345, 1281, 1578, 2463
4215, 2279, 2381, 2209, 2507
4216, 561, 517, 597, 2283
4217, 1201, 1500, 2399, 2538
4218, 2140, 2285, 1470, 2528
4219, 1558, 1452, 1618, 2147
4220, 169, 2001, 2035, 698
4221, 1135, 2259, 1134, 2437
4222, 2036, 2104, 2101, 2243
4223, 1684, 468, 1553, 2522
4224, 1275, 1568, 1333, 2217
4225, 772, 1007, 714, 2217
4226, 1618, 2147, 1452, 2510
4227, 2132, 2408, 2293, 2435
4228, 654, 1696, 256, 1710
4229, 2275, 2290, 2140, 2530
4230, 1382, 2185, 1638, 2568
4231, 2337, 2356, 2122, 2565
4232, 1337, 2345, 2124, 2552
4233, 848, 849, 847, 2301
4234, 1003, 1054, 2126, 2551
4235, 2166, 2381, 2279, 2507
4236, 2259, 2437, 1135, 2542
4237, 1108, 1128, 116, 768
4238, 2157, 2299, 960, 2570
4239, 131, 1119, 667, 979
4240, 2126, 2387, 1746, 2551
4241, 1258, 1388, 1387, 2260
4242, 821, 2185, 1077, 2473
4243, 2188, 2442, 846, 2566
4244, 1760, 2334, 1730, 2456
4245, 1512, 1994, 341, 2039
4246, 2076, 2494, 2131, 2575
4247, 1988, 2031, 362, 1441
4248, 2019, 168, 2035, 1028
4249, 1589, 351, 2029, 1998
4250, 1500, 2392, 1454, 2399
4251, 795, 2296, 2150, 2541
4252, 2162, 1465, 2406, 2549
4253, 899, 897, 2206, 2280
4254, 864, 2216, 863, 2447
4255, 1684, 1736, 1772, 2413
4256, 505, 526, 576, 2267
4257, 2060, 2075, 1986, 2266
4258, 1639, 1404, 2186, 2421
4259, 1505, 552, 1241, 2351
4260, 880, 179, 2018, 2034
4261, 2191, 2322, 2272, 2323
4262, 2281, 2288, 2183, 2557
4263, 242, 1801, 1805, 718
4264, 1786, 672, 239, 1815
4265, 2128, 2402, 1402, 2519
4266, 2255, 2453, 2169, 2499
4267, 2155, 2453, 2255, 2499
4268, 1658, 2253, 2229, 2357
4269, 891, 2147, 1057, 2579
4270, 1260, 2188, 1407, 2548
4271, 1359, 1361, 2220, 2378
4272, 1436, 1619, 1594, 2211
4273, 1058, 875, 1033, 2211
4274, 736, 2365, 2146, 2383
4275, 1931, 1884, 1954, 2244
4276, 2160, 2278, 834, 2517
4277, 1178, 1583, 1111, 2382
4278, 2230, 2379, 1437, 2384
4279, 889, 2209, 887, 2279
4280, 793, 2129, 792, 2296
4281, 1352, 1354, 1353, 2129
4282, 793, 791, 792, 2129
4283, 1461, 2282, 2148, 2547
4284, 1405, 1398, 1396, 2443
4285, 1519, 2424, 2182, 2432
4286, 1715, 468, 1684, 2522
4287, 2205, 2449, 1444, 2514
4288, 1577, 2305, 2143, 2562
4289, 2235, 2500, 1472, 2501
4290, 2107, 2040, 1994, 2530
4291, 1327, 2174, 1325, 2483
4292, 627, 2233, 928, 2410
4293, 168, 2019, 695, 1028
4294, 351, 1589, 1256, 1998
4295, 690, 36, 500, 532
4296, 1894, 1194, 2501, 2543
4297, 1774, 1596, 1216, 2387
4298, 961, 2141, 2299, 2582
4299, 501, 612, 563, 2234
4300, 826, 517, 700, 2283
4301, 585, 2184, 611, 2565
4302, 1985, 703, 936, 2397
4303, 2160, 2208, 2391, 2566
4304, 1489, 1490, 1487, 2488
4305, 682, 539, 938, 2444
4306, 706, 1039, 880, 2338
4307, 752, 731, 2195, 2478
4308, 766, 2174, 764, 2471
4309, 1336, 2345, 2130, 2428
4310, 692, 2230, 876, 2560
4311, 1037, 922, 2386, 2485
4312, 642, 1675, 1708, 2339
4313, 1287, 2203, 2311, 2459
4314, 648, 1709, 872, 2572
4315, 1478, 2302, 2158, 2583
4316, 1675, 1033, 1735, 2339
4317, 874, 871, 869, 2189
4318, 1629, 2152, 2379, 2484
4319, 1016, 2346, 760, 2347
4320, 1463, 1464, 2282, 2406
4321, 1841, 2532, 2173, 2564
4322, 1458, 2373, 2206, 2417
4323, 128, 1112, 973, 671
4324, 663, 1105, 135, 1125
4325, 1101, 1143, 1173, 2234
4326, 1087, 2330, 647, 2370
4327, 1310, 1312, 1225, 2569
4328, 728, 746, 745, 2536
4329, 1462, 1464, 2212, 2282
4330, 1597, 90, 543, 1258
4331, 44, 697, 1036, 499
4332, 1169, 1131, 2314, 2569
4333, 2112, 2004, 2068, 2481
4334, 821, 2440, 2185, 2473
4335, 953, 912, 635, 2381
4336, 1253, 1427, 605, 2484
4337, 1915, 1561, 1922, 2257
4338, 1732, 1740, 1559, 2258
4339, 1453, 1251, 82, 553
4340, 2195, 1313, 2358, 2382
4341, 893, 2202, 2352, 2505
4342, 1501, 2151, 1555, 2445
4343, 2144, 2298, 2272, 2323
4344, 2063, 2077, 2060, 2266
4345, 562, 505, 575, 2267
4346, 1280, 2191, 1526, 2545
4347, 901, 982, 636, 2380
4348, 1504, 563, 554, 2462
4349, 805, 803, 2374, 2546
4350, 1028, 169, 2035, 698
4351, 1237, 2228, 1355, 2395
4352, 346, 2036, 1252, 1495
4353, 691, 2000, 163, 934
4354, 1553, 2237, 1684, 2522
4355, 2012, 328, 1348, 2045
4356, 1749, 2340, 2252, 2522
4357, 1213, 1686, 1573, 442
4358, 1845, 1005, 1823, 2504
4359, 700, 824, 825, 2201
4360, 1668, 258, 822, 1704
4361, 1383, 1700, 1686, 441
4362, 1233, 1536, 1520, 2550
4363, 1119, 1103, 131, 667
4364, 1947, 2344, 1942, 2543
4365, 1417, 2332, 2153, 2535
4366, 1284, 2196, 2418, 2453
4367, 1039, 2338, 1065, 2465
4368, 2168, 2498, 1084, 2553
4369, 858, 857, 2427, 2438
4370, 1228, 1540, 1117, 310
4371, 1855, 630, 2240, 2475
4372, 961, 2299, 2141, 2529
4373, 2046, 1234, 329, 2045
4374, 2280, 2294, 2148, 2527
4375, 2196, 2407, 1284, 2480
4376, 1223, 1309, 1331, 2314
4377, 1578, 1281, 1350, 2245
4378, 1274, 2223, 1322, 2556
4379, 1902, 987, 1850, 2410
4380, 1957, 1909, 1908, 2428
4381, 1623, 1294, 1584, 2234
4382, 1287, 1315, 2203, 2459
4383, 1718, 461, 1556, 1693
4384, 1903, 1545, 1876, 2489
4385, 278, 995, 1730, 1678
4386, 780, 790, 781, 2525
4387, 1447, 2224, 2377, 2449
4388, 796, 795, 2296, 2416
4389, 1309, 1310, 1331, 2314
4390, 2199, 2479, 1160, 2520
4391, 1663, 1574, 1632, 2245
4392, 198, 1889, 1891, 651
4393, 859, 863, 643, 2324
4394, 1615, 2126, 1564, 2464
4395, 1002, 1055, 2125, 2465
4396, 980, 2328, 2144, 2558
4397, 2066, 1987, 942, 2419
4398, 713, 761, 978, 2532
4399, 1526, 1280, 1527, 2191
4400, 931, 2386, 2171, 2460
4401, 1616, 1563, 2125, 2516
4402, 1439, 100, 487, 535
4403, 1428, 1427, 1437, 2493
4404, 954, 122, 668, 1123
4405, 1530, 2452, 2199, 2474
4406, 1833, 2532, 2223, 2537
4407, 784, 1017, 720, 2184
4408, 1835, 1837, 2242, 2389
4409, 2198, 2396, 1360, 2490
4410, 1026, 829, 827, 2539
4411, 1545, 2489, 2200, 2543
4412, 919, 920, 918, 2441
4413, 2157, 2315, 2299, 2432
4414, 1920, 2236, 1964, 2470
4415, 2149, 2124, 2345, 2412
4416, 2154, 2384, 2230, 2493
4417, 539, 572, 938, 2444
4418, 305, 1529, 1524, 1132
4419, 2118, 2331, 2330, 2370
4420, 519, 543, 90, 1258
4421, 44, 697, 499, 533
4422, 1410, 2250, 1409, 2518
4423, 1894, 1544, 1856, 2501
4424, 1160, 2474, 2199, 2534
4425, 666, 758, 120, 2398
4426, 762, 2346, 2173, 2532
4427, 521, 104, 554, 2462
4428, 2028, 2243, 854, 2523
4429, 2124, 2149, 2345, 2554
4430, 635, 910, 983, 2204
4431, 825, 826, 700, 2283
4432, 951, 2070, 2040, 2555
4433, 632, 805, 2334, 2546
4434, 1528, 1280, 1825, 2322
4435, 818, 2238, 2472, 2551
4436, 1403, 2409, 2128, 2516
4437, 439, 1215, 1711, 1673
4438, 1103, 1139, 132, 1029
4439, 1580, 1349, 1282, 2232
4440, 1237, 1367, 1355, 2228
4441, 58, 562, 486, 943
4442, 1418, 1420, 1416, 2326
4443, 1003, 2126, 1054, 2472
4444, 1237, 1357, 1368, 2228
4445, 2202, 2392, 1454, 2531
4446, 1842, 2169, 2418, 2504
4447, 2274, 2293, 2132, 2408
4448, 779, 1081, 734, 2236
4449, 1852, 380, 1899, 2443
4450, 577, 2531, 2152, 2563
4451, 2241, 2406, 1465, 2549
4452, 1479, 2178, 2302, 2476
4453, 1492, 2171, 2439, 2512
4454, 792, 2249, 2129, 2454
4455, 1094, 1132, 306, 1232
4456, 1774, 1741, 1702, 2387
4457, 926, 927, 2270, 2287
4458, 983, 910, 911, 2235
4459, 1831, 2491, 2222, 2550
4460, 1520, 2432, 2222, 2469
4461, 864, 865, 863, 2371
4462, 1620, 1339, 1490, 2552
4463, 2196, 2354, 723, 2499
4464, 1353, 1354, 1355, 2395
4465, 2136, 2253, 2229, 2463
4466, 2187, 2376, 2368, 2406
4467, 1340, 2319, 2149, 2348
4468, 1384, 2521, 2139, 2578
4469, 1425, 2216, 1424, 2466
4470, 165, 1996, 2028, 2523
4471, 1187, 1553, 468, 2522
4472, 485, 935, 704, 2362
4473, 563, 1504, 1294, 2462
4474, 662, 116, 1128, 768
4475, 922, 932, 2386, 2433
4476, 607, 488, 678, 2325
4477, 1275, 1370, 1797, 2242
4478, 1334, 1340, 1335, 2348
4479, 912, 910, 2204, 2540
4480, 1398, 2391, 2208, 2548
4481, 1332, 316, 1120, 1222
4482, 183, 942, 1987, 2419
4483, 590, 2468, 2202, 2505
4484, 137, 661, 771, 1104
4485, 911, 2344, 2235, 2404
4486, 1882, 2231, 1952, 2343
4487, 796, 2228, 676, 2366
4488, 1038, 762, 1016, 2450
4489, 502, 2245, 611, 2448
4490, 1816, 422, 1233, 1796
4491, 802, 2374, 2225, 2482
4492, 1500, 1501, 1454, 2392
4493, 1800, 416, 1274, 1817
4494, 1097, 121, 954, 1123
4495, 1687, 985, 276, 1725
4496, 1672, 1546, 459, 1707
4497, 2211, 2379, 2152, 2560
4498, 997, 1057, 891, 2503
4499, 2204, 2500, 2235, 2501
4500, 1290, 1292, 1313, 2342
4501, 752, 2195, 731, 2455
4502, 2134, 2430, 2425, 2580
4503, 1974, 1970, 1979, 2329
4504, 1446, 1447, 2377, 2449
4505, 1647, 2242, 1327, 2483
4506, 1422, 2332, 2132, 2434
4507, 1974, 1979, 2236, 2329
4508, 845, 2442, 2168, 2553
4509, 1791, 1833, 1813, 2532
4510, 1527, 1280, 1528, 2322
4511, 1563, 1442, 1562, 2276
4512, 1896, 641, 997, 2503
4513, 1440, 1564, 1560, 2277
4514, 1066, 819, 935, 2362
4515, 1878, 1186, 1548, 2239
4516, 653, 1870, 196, 1916
4517, 1430, 1207, 1431, 2310
4518, 2266, 2291, 2165, 2364
4519, 2164, 2292, 2267, 2365
4520, 1964, 2236, 1865, 2348
4521, 1398, 1405, 1212, 2431
4522, 1432, 1436, 2269, 2384
4523, 1282, 1348, 1640, 2554
4524, 1621, 1487, 1490, 2163
4525, 929, 926, 1060, 2163
4526, 1339, 1620, 1336, 2552
4527, 1759, 1730, 2334, 2456
4528, 1922, 1221, 1969, 2426
4529, 1184, 410, 1901, 1848
4530, 2234, 2286, 2203, 2355
4531, 1408, 1409, 1260, 2250
4532, 1234, 329, 1486, 2046
4533, 1590, 1117, 1090, 311
4534, 1703, 2445, 1555, 2538
4535, 1973, 1970, 188, 620
4536, 1790, 1819, 244, 716
4537, 1277, 1818, 1808, 427
4538, 1872, 1955, 1952, 2498
4539, 318, 1111, 1118, 1178
4540, 617, 139, 1092, 1113
4541, 620, 1973, 1970, 2329
4542, 1193, 461, 1556, 1718
4543, 1784, 660, 1063, 2430
4544, 2202, 2531, 590, 2563
4545, 995, 278, 632, 1678
4546, 866, 867, 876, 2230
4547, 136, 771, 663, 1125
4548, 2225, 2405, 2137, 2490
4549, 664, 1099, 119, 758
4550, 815, 824, 811, 2353
4551, 1920, 1865, 1964, 2236
4552, 1240, 1598, 1614, 2486
4553, 1580, 2319, 2232, 2554
4554, 1029, 132, 1103, 667
4555, 1199, 1460, 1543, 2304
4556, 2118, 2293, 2408, 2435
4557, 2397, 2402, 2128, 2519
4558, 2238, 2400, 2192, 2473
4559, 2066, 942, 732, 2419
4560, 2052, 1236, 331, 2010
4561, 1183, 104, 521, 2462
4562, 1487, 2163, 2458, 2488
4563, 1081, 620, 1020, 2329
4564, 1423, 1420, 1418, 2194
4565, 873, 870, 868, 2254
4566, 1189, 1548, 1489, 2233
4567, 1450, 1448, 2209, 2507
4568, 2225, 2137, 2422, 2490
4569, 2178, 1053, 2414, 2485
4570, 1497, 1402, 1639, 2519
4571, 1097, 120, 1127, 2398
4572, 888, 889, 2279, 2381
4573, 1477, 1236, 331, 2052
4574, 664, 758, 751, 2398
4575, 1569, 1312, 1311, 2453
4576, 1332, 1306, 1305, 2306
4577, 749, 2354, 2155, 2499
4578, 1614, 2178, 2375, 2486
4579, 1689, 463, 1744, 2396
4580, 901, 2212, 903, 2515
4581, 2198, 2416, 2394, 2576
4582, 1187, 468, 1715, 2522
4583, 2012, 1348, 327, 2050
4584, 2044, 1995, 144, 787
4585, 1194, 2235, 1472, 2501
4586, 258, 652, 822, 1704
4587, 1221, 1922, 1561, 2257
4588, 1220, 1559, 1740, 2258
4589, 1686, 1213, 1383, 441
4590, 899, 898, 2280, 2380
4591, 1087, 647, 1076, 2370
4592, 1858, 1896, 1951, 2503
4593, 165, 693, 1996, 2523
4594, 2202, 2385, 2151, 2392
4595, 1553, 1352, 1343, 2237
4596, 1813, 713, 233, 1791
4597, 2119, 2360, 2227, 2361
4598, 1990, 148, 675, 2108
4599, 1999, 687, 2451, 2555
4600, 1814, 1567, 2418, 2556
4601, 1991, 2044, 145, 787
4602, 1744, 1776, 1191, 464
4603, 1990, 148, 916, 675
4604, 2237, 2454, 2129, 2457
4605, 2122, 2454, 2237, 2457
4606, 2182, 2491, 1828, 2550
4607, 1675, 1735, 1756, 2339
4608, 502, 611, 566, 2448
4609, 1726, 1210, 1551, 2256
4610, 1050, 805, 804, 2193
4611, 115, 1133, 1108, 618
4612, 2150, 2394, 2416, 2576
4613, 1458, 2206, 1199, 2417
4614, 2188, 2391, 1407, 2548
4615, 1376, 2320, 2261, 2578
4616, 1723, 1776, 2394, 2396
4617, 1473, 2204, 1471, 2500
4618, 1841, 1810, 1809, 2508
4619, 2124, 2345, 1337, 2554
4620, 1594, 1205, 1436, 2269
4621, 1353, 1352, 2129, 2457
4622, 2203, 2327, 2247, 2355
4623, 1009, 2131, 2494, 2579
4624, 2248, 2334, 1760, 2456
4625, 2232, 2319, 2263, 2554
4626, 2136, 2184, 2356, 2463
4627, 1288, 1517, 2281, 2358
4628, 710, 477, 709, 2367
4629, 725, 2383, 724, 2580
4630, 886, 948, 639, 2300
4631, 821, 2318, 2185, 2440
4632, 1710, 257, 654, 1668
4633, 1215, 1711, 1700, 440
4634, 1037, 679, 1053, 2485
4635, 2342, 2358, 2172, 2455
4636, 1424, 1426, 2466, 2510
4637, 2120, 2214, 2335, 2483
4638, 1933, 1957, 2239, 2390
4639, 1514, 1450, 1198, 2295
4640, 1603, 1421, 1419, 2434
4641, 1723, 1744, 1776, 2396
4642, 792, 2129, 791, 2454
4643, 475, 476, 2430, 2580
4644, 1861, 1952, 1911, 2498
4645, 1844, 1795, 2418, 2480
4646, 522, 485, 51, 704
4647, 1091, 1224, 315, 1332
4648, 1705, 266, 874, 1697
4649, 1679, 1699, 449, 1435
4650, 832, 173, 2025, 701
4651, 356, 1262, 1393, 2006
4652, 48, 702, 810, 504
4653, 1371, 94, 523, 1263
4654, 267, 1735, 644, 1697
4655, 1734, 1679, 450, 1205
4656, 980, 1014, 669, 2558
4657, 117, 1128, 1130, 770
4658, 2207, 2421, 2181, 2506
4659, 150, 1989, 2042, 924
4660, 478, 1846, 1794, 2367
4661, 1863, 390, 1204, 1917
4662, 1546, 2368, 1464, 2406
4663, 1784, 1682, 1739, 2430
4664, 1921, 1866, 1968, 2429
4665, 2186, 1404, 2316, 2421
4666, 999, 1025, 660, 2218
4667, 1024, 1001, 659, 2219
4668, 1799, 419, 1533, 1812
4669, 1702, 1701, 2238, 2544
4670, 2018, 178, 706, 2056
4671, 2195, 2358, 2342, 2455
4672, 138, 769, 661, 1113
4673, 692, 866, 876, 2230
4674, 1408, 1409, 2250, 2518
4675, 207, 1880, 643, 1918
4676, 816, 814, 817, 2192
4677, 1815, 672, 239, 975
4678, 1852, 1924, 2431, 2443
4679, 1545, 1903, 1192, 2489
4680, 800, 798, 678, 2325
4681, 806, 794, 792, 2228
4682, 1862, 1946, 1943, 2489
4683, 924, 2042, 150, 677
4684, 1127, 2502, 2398, 2569
4685, 1705, 646, 265, 1676
4686, 1699, 1728, 448, 1207
4687, 936, 1078, 841, 2397
4688, 1772, 1773, 1664, 2413
4689, 1088, 1073, 2433, 2475
4690, 1369, 1363, 1241, 2225
4691, 2069, 853, 175, 2106
4692, 959, 2222, 2491, 2570
4693, 653, 836, 835, 2181
4694, 1598, 2439, 2215, 2512
4695, 1652, 1574, 1663, 2245
4696, 734, 2236, 1920, 2470
4697, 1365, 1611, 2351, 2405
4698, 2179, 2332, 1419, 2434
4699, 1037, 2386, 2215, 2485
4700, 650, 996, 1911, 2498
4701, 2222, 2299, 959, 2529
4702, 410, 1334, 1184, 1901
4703, 695, 950, 861, 2350
4704, 1182, 1605, 1301, 2567
4705, 1852, 1924, 1956, 2431
4706, 919, 923, 986, 2233
4707, 2106, 853, 175, 703
4708, 2147, 2371, 1057, 2579
4709, 758, 1099, 119, 1127
4710, 2275, 2166, 2381, 2540
4711, 2285, 2303, 2171, 2528
4712, 1882, 1952, 1962, 2343
4713, 1267, 1988, 2030, 361
4714, 1590, 1228, 1117, 311
4715, 2162, 2308, 2282, 2547
4716, 1582, 1651, 1655, 323
4717, 111, 1021, 1653, 1650
4718, 2385, 2392, 2202, 2563
4719, 1955, 1853, 2498, 2553
4720, 2152, 2392, 2385, 2563
4721, 2275, 2290, 2166, 2540
4722, 1974, 187, 1970, 1020
4723, 370, 1581, 1972, 1975
4724, 1892, 1880, 1948, 2324
4725, 1712, 274, 982, 1690
4726, 1724, 457, 1543, 1691
4727, 470, 1341, 1683, 2413
4728, 2178, 2375, 2215, 2414
4729, 416, 1539, 1274, 1817
4730, 1689, 1550, 463, 2396
4731, 2231, 2301, 2168, 2498
4732, 808, 2325, 802, 2422
4733, 2166, 2309, 2279, 2555
4734, 779, 2236, 734, 2470
4735, 1856, 398, 1910, 2501
4736, 1253, 1437, 1427, 2484
4737, 490, 547, 674, 2249
4738, 1677, 1778, 1727, 2221
4739, 1448, 2377, 2209, 2507
4740, 1807, 1802, 430, 1568
4741, 247, 1804, 1007, 1793
4742, 2319, 2348, 1642, 2415
4743, 361, 1267, 1988, 1441
4744, 2142, 2223, 2346, 2388
4745, 571, 607, 807, 2366
4746, 1776, 1554, 1191, 464
4747, 851, 1076, 996, 2370
4748, 1561, 1218, 1563, 2257
4749, 1219, 1559, 1564, 2258
4750, 1555, 2445, 2151, 2538
4751, 1040, 705, 878, 2317
4752, 1111, 1172, 1164, 2382
4753, 880, 178, 706, 2018
4754, 1033, 1675, 642, 2339
4755, 883, 2494, 2205, 2579
4756, 1687, 277, 634, 1730
4757, 1042, 858, 860, 2435
4758, 1713, 272, 945, 1674
4759, 2077, 2096, 2064, 2567
4760, 2281, 2288, 2156, 2306
4761, 1153, 1103, 1150, 2214
4762, 1129, 294, 1179, 1095
4763, 1897, 214, 1874, 953
4764, 1910, 1875, 1514, 397
4765, 570, 542, 541, 2220
4766, 1857, 1899, 379, 2506
4767, 179, 880, 708, 2034
4768, 1269, 362, 2031, 1441
4769, 1322, 1323, 1321, 2305
4770, 2375, 2414, 2178, 2476
4771, 2351, 2374, 2193, 2482
4772, 2278, 2316, 2186, 2517
4773, 973, 669, 1014, 2298
4774, 1822, 1566, 1844, 2418
4775, 1635, 2221, 1390, 2403
4776, 212, 1859, 1898, 948
4777, 1893, 1904, 395, 1509
4778, 2060, 1052, 182, 2063
4779, 2064, 2008, 1613, 365
4780, 2232, 2263, 2319, 2329
4781, 1759, 1760, 1730, 2456
4782, 858, 2179, 2435, 2438
4783, 1388, 2521, 2190, 2577
4784, 1378, 1216, 2400, 2544
4785, 1676, 872, 264, 1709
4786, 558, 38, 692, 497
4787, 1738, 1681, 1780, 2253
4788, 447, 1728, 1688, 1433
4789, 1039, 706, 1065, 2338
4790, 1425, 1415, 2326, 2466
4791, 528, 1266, 99, 487
4792, 1880, 1892, 206, 862
4793, 918, 1053, 924, 2414
4794, 2194, 2324, 2216, 2447
4795, 883, 2446, 2205, 2451
4796, 967, 242, 1805, 718
4797, 2026, 2103, 2016, 2250
4798, 1942, 2344, 1943, 2543
4799, 1421, 387, 1913, 1871
4800, 726, 1043, 2286, 2383
4801, 525, 2230, 2484, 2493
4802, 1360, 2378, 1358, 2394
4803, 1827, 1830, 1812, 2497
4804, 666, 121, 954, 1097
4805, 1118, 1164, 1162, 2246
4806, 1226, 2284, 1326, 2542
4807, 328, 1234, 1348, 2045
4808, 2041, 2001, 170, 848
4809, 2026, 353, 1409, 2016
4810, 2330, 2331, 2118, 2434
4811, 2154, 2254, 2227, 2513
4812, 1498, 1456, 1249, 2294
4813, 1134, 1105, 134, 763
4814, 1887, 389, 1423, 1863
4815, 1006, 1792, 2504, 2537
4816, 1825, 1788, 425, 1279
4817, 1031, 1086, 716, 2389
4818, 1246, 1512, 1449, 2309
4819, 873, 696, 1056, 2361
4820, 1434, 1617, 1257, 2360
4821, 2027, 2008, 364, 1613
4822, 2060, 181, 1052, 1986
4823, 74, 1505, 510, 552
4824, 1748, 1684, 2237, 2522
4825, 713, 978, 233, 1791
4826, 1366, 1611, 1365, 2405
4827, 620, 1018, 1973, 2329
4828, 1519, 2432, 2182, 2550
4829, 753, 1022, 2213, 2478
4830, 594, 2492, 2227, 2513
4831, 1532, 1599, 1533, 2508
4832, 1963, 227, 1867, 623
4833, 2072, 2108, 1990, 2270
4834, 2002, 2025, 2097, 2333
4835, 470, 1683, 1736, 2413
4836, 854, 864, 855, 2447
4837, 2178, 2414, 2215, 2485
4838, 952, 681, 913, 2303
4839, 1625, 1969, 1221, 2426
4840, 188, 1973, 620, 1018
4841, 1967, 1865, 1920, 2236
4842, 648, 872, 1049, 2336
4843, 1248, 1446, 1512, 2309
4844, 1524, 306, 1132, 1232
4845, 2137, 2374, 2225, 2422
4846, 907, 915, 685, 2290
4847, 1807, 1797, 1837, 2242
4848, 347, 1415, 2036, 2007
4849, 164, 2028, 2000, 854
4850, 2118, 2343, 2331, 2370
4851, 2170, 2262, 2328, 2533
4852, 1985, 706, 177, 2056
4853, 1907, 2393, 2240, 2526
4854, 1200, 2224, 1451, 2411
4855, 959, 2299, 2222, 2570
4856, 1366, 1364, 2248, 2405
4857, 1333, 2369, 2217, 2509
4858, 1565, 1289, 1307, 2495
4859, 582, 2249, 490, 2372
4860, 1971, 1978, 1976, 2232
4861, 1516, 2247, 1329, 2459
4862, 1433, 1208, 1610, 2403
4863, 763, 1105, 135, 663
4864, 243, 1819, 1801, 976
4865, 1465, 1467, 2241, 2549
4866, 1656, 1783, 1662, 2253
4867, 1141, 1111, 319, 1583
4868, 1022, 140, 1140, 1092
4869, 1142, 1133, 114, 1023
4870, 1573, 1213, 1384, 2320
4871, 886, 884, 885, 2446
4872, 1845, 1823, 1795, 2504
4873, 1885, 1962, 2331, 2343
4874, 1571, 2392, 2152, 2531
4875, 504, 561, 587, 2313
4876, 1143, 1584, 293, 1095
4877, 1341, 1683, 1738, 471
4878, 1545, 1493, 2200, 2489
4879, 850, 698, 1028, 2274
4880, 676, 508, 571, 2366
4881, 1100, 2520, 1163, 2581
4882, 2112, 2067, 2004, 2232
4883, 2019, 2088, 2057, 2350
4884, 1665, 465, 1188, 2394
4885, 703, 1078, 936, 2397
4886, 2330, 2434, 2118, 2435
4887, 2214, 2262, 2120, 2533
4888, 201, 1861, 1911, 996
4889, 752, 2195, 2455, 2478
4890, 1465, 2241, 1467, 2406
4891, 1588, 1527, 1528, 2322
4892, 2214, 2335, 1041, 2533
4893, 1895, 192, 657, 1851
4894, 252, 1667, 1731, 658
4895, 100, 1439, 1268, 535
4896, 1100, 1163, 1165, 2581
4897, 1089, 1159, 1154, 2558
4898, 580, 2351, 609, 2482
4899, 2175, 2407, 2327, 2459
4900, 758, 1127, 120, 2398
4901, 893, 1010, 2385, 2563
4902, 1986, 180, 708, 2034
4903, 2031, 2027, 363, 1269
4904, 844, 198, 1891, 651
4905, 2073, 2015, 907, 2290
4906, 568, 2317, 485, 2362
4907, 484, 101, 1268, 535
4908, 1325, 2174, 2369, 2542
4909, 747, 763, 2259, 2471
4910, 1530, 1532, 2424, 2452
4911, 2071, 1991, 146, 673
4912, 623, 774, 773, 2265
4913, 526, 55, 507, 707
4914, 1882, 1557, 384, 1872
4915, 1865, 2236, 1977, 2415
4916, 1663, 1632, 616, 2245
4917, 1459, 1498, 1247, 2294
4918, 1433, 1207, 1728, 2310
4919, 754, 618, 768, 2355
4920, 1199, 1458, 1460, 2206
4921, 638, 899, 897, 2206
4922, 1530, 2424, 2199, 2452
4923, 2056, 2338, 2079, 2397
4924, 197, 1891, 1870, 653
4925, 1354, 2252, 1356, 2395
4926, 1662, 1783, 1631, 2253
4927, 580, 552, 609, 2351
4928, 1545, 1903, 1876, 401
4929, 818, 1035, 655, 2238
4930, 218, 1862, 1914, 984
4931, 1446, 1445, 1447, 2449
4932, 2195, 2358, 2246, 2382
4933, 1352, 2237, 1553, 2522
4934, 727, 710, 709, 2367
4935, 753, 1022, 732, 2213
4936, 633, 983, 911, 2235
4937, 1405, 380, 1852, 2443
4938, 2332, 2132, 2435, 2438
4939, 850, 851, 849, 2408
4940, 1976, 2004, 2232, 2481
4941, 2137, 2225, 2374, 2405
4942, 828, 1036, 697, 2539
4943, 2420, 2450, 2210, 2508
4944, 1744, 463, 1191, 2396
4945, 1260, 1393, 1407, 2391
4946, 545, 786, 19, 493
4947, 2067, 2117, 2004, 2232
4948, 867, 694, 868, 2559
4949, 1749, 1748, 2340, 2522
4950, 682, 573, 539, 2271
4951, 1919, 2348, 1865, 2415
4952, 1886, 1885, 1962, 2331
4953, 1379, 1378, 1216, 2400
4954, 2131, 2510, 1570, 2575
4955, 683, 952, 909, 2303
4956, 1390, 2403, 2221, 2577
4957, 1457, 2373, 2226, 2399
4958, 1300, 1299, 1317, 2292
4959, 1304, 1318, 1303, 2291
4960, 1869, 1912, 216, 983
4961, 1544, 1894, 1856, 399
4962, 1942, 1947, 1869, 2344
4963, 1776, 465, 1665, 2394
4964, 1956, 1405, 381, 1852
4965, 935, 51, 485, 704
4966, 1197, 1462, 1464, 2212
4967, 903, 901, 636, 2212
4968, 1796, 422, 1233, 1536
4969, 943, 58, 562, 622
4970, 912, 2204, 2381, 2540
4971, 1525, 2272, 1575, 2524
4972, 630, 986, 1906, 2240
4973, 2025, 2002, 172, 832
4974, 2006, 1393, 355, 2062
4975, 504, 810, 47, 561
4976, 523, 495, 93, 1371
4977, 1835, 1837, 1797, 2242
4978, 2289, 2321, 2192, 2440
4979, 1737, 1681, 2357, 2525
4980, 475, 2511, 2480, 2580
4981, 1021, 111, 619, 1650
4982, 1655, 1582, 323, 1180
4983, 1964, 2236, 2348, 2470
4984, 445, 1729, 1677, 1551
4985, 1554, 1188, 465, 2394
4986, 818, 2238, 817, 2473
4987, 1835, 1803, 1837, 2389
4988, 2222, 2432, 1520, 2550
4989, 1672, 1761, 1724, 2368
4990, 1454, 1455, 2399, 2468
4991, 2215, 2375, 2178, 2486
4992, 2061, 2005, 1264, 359
4993, 545, 585, 588, 2372
4994, 588, 582, 490, 2372
4995, 1169, 1131, 1170, 2314
4996, 276, 634, 985, 1687
4997, 1546, 1195, 459, 1707
4998, 54, 507, 707, 569
4999, 665, 1134, 134, 763
5000, 932, 914, 2386, 2433
5001, 1185, 1341, 470, 2413
5002, 1542, 1592, 1602, 2262
5003, 1703, 453, 1680, 2538
5004, 2215, 2439, 1598, 2486
5005, 887, 889, 637, 2209
5006, 1450, 1448, 1198, 2209
5007, 1733, 1753, 1686, 2320
5008, 2198, 2487, 2416, 2576
5009, 1887, 1206, 388, 1913
5010, 187, 1970, 1020, 620
5011, 1581, 370, 1181, 1975
5012, 768, 115, 1108, 618
5013, 1011, 1084, 2498, 2553
5014, 1685, 1596, 1774, 2387
5015, 1266, 1439, 99, 487
5016, 255, 1701, 1696, 816
5017, 2215, 2386, 1037, 2460
5018, 1057, 2371, 2147, 2503
5019, 596, 600, 543, 2360
5020, 600, 537, 594, 2361
5021, 596, 499, 600, 2361
5022, 506, 600, 594, 2360
5023, 1118, 1330, 318, 1178
5024, 139, 617, 769, 1113
5025, 1916, 195, 838, 1883
5026, 2431, 2442, 2208, 2553
5027, 519, 91, 534, 1387
5028, 45, 826, 533, 517
5029, 1191, 463, 1550, 2396
5030, 902, 684, 941, 2308
5031, 568, 606, 485, 2317
5032, 1912, 1947, 1944, 2501
5033, 784, 720, 1082, 2184
5034, 665, 763, 764, 2259
5035, 1833, 2537, 2223, 2556
5036, 2262, 2297, 1542, 2571
5037, 1366, 2248, 1556, 2456
5038, 176, 2106, 703, 1985
5039, 683, 908, 907, 2290
5040, 1525, 1575, 1534, 2524
5041, 558, 38, 933, 692
5042, 843, 836, 839, 2278
5043, 1451, 2224, 1447, 2449
5044, 1190, 1480, 1481, 2393
5045, 1180, 1641, 1578, 2463
5046, 2141, 2469, 2272, 2529
5047, 2272, 2469, 2191, 2529
5048, 1363, 1241, 2225, 2351
5049, 890, 886, 2224, 2446
5050, 1641, 2253, 1351, 2463
5051, 673, 1991, 145, 787
5052, 1895, 1034, 193, 1854
5053, 770, 117, 1128, 662
5054, 635, 912, 910, 2204
5055, 476, 475, 2480, 2580
5056, 1595, 1954, 1868, 376
5057, 436, 1596, 1774, 1685
5058, 981, 2214, 1041, 2533
5059, 2173, 2450, 2420, 2508
5060, 901, 2380, 2212, 2515
5061, 1473, 1196, 1471, 2501
5062, 1621, 1490, 1339, 2552
5063, 1385, 2201, 1261, 2578
5064, 2238, 2387, 1702, 2544
5065, 1354, 1187, 1549, 2252
5066, 1543, 1197, 1724, 2304
5067, 2386, 2404, 2171, 2439
5068, 1041, 2335, 767, 2533
5069, 2170, 2264, 2262, 2533
5070, 2235, 2404, 2344, 2543
5071, 2179, 2332, 2435, 2438
5072, 1572, 1956, 1929, 2431
5073, 1354, 1187, 2252, 2522
5074, 1472, 2235, 1194, 2543
5075, 813, 812, 814, 2440
5076, 2200, 2404, 2386, 2439
5077, 1802, 2495, 1836, 2496
5078, 2129, 2296, 2252, 2395
5079, 1425, 1252, 1415, 2466
5080, 419, 1278, 1533, 1812
5081, 962, 2423, 969, 2520
5082, 227, 1867, 623, 773
5083, 557, 504, 601, 2313
5084, 522, 516, 602, 2318
5085, 2028, 2101, 2000, 2243
5086, 1038, 971, 2420, 2450
5087, 1878, 1933, 1957, 2239
5088, 2084, 2087, 2054, 2414
5089, 2231, 2343, 2118, 2370
5090, 1537, 1592, 1538, 2262
5091, 2344, 2404, 2200, 2543
5092, 1847, 1004, 709, 2367
5093, 900, 941, 686, 2308
5094, 1748, 1684, 1772, 2237
5095, 1540, 1230, 1541, 2297
5096, 1166, 1145, 2284, 2542
5097, 944, 492, 2271, 2482
5098, 1011, 2498, 1853, 2553
5099, 794, 2228, 796, 2296
5100, 1704, 1750, 1753, 2320
5101, 691, 164, 2000, 854
5102, 1415, 1252, 347, 2036
5103, 1390, 1635, 1551, 2221
5104, 2128, 2465, 2338, 2516
5105, 1226, 1590, 1090, 312
5106, 277, 995, 634, 1730
5107, 723, 2499, 750, 2504
5108, 1835, 2389, 2242, 2561
5109, 492, 573, 944, 2271
5110, 426, 1788, 1808, 1537
5111, 637, 1859, 948, 2300
5112, 1879, 1593, 1917, 2268
5113, 633, 2235, 911, 2344
5114, 2148, 2282, 2380, 2515
5115, 1154, 1126, 1106, 2297
5116, 1085, 1082, 786, 2372
5117, 1866, 1922, 1969, 2426
5118, 1740, 1682, 1785, 2425
5119, 1776, 1554, 465, 2394
5120, 2202, 2399, 2352, 2468
5121, 1215, 1700, 1383, 440
5122, 822, 654, 257, 1668
5123, 1212, 1405, 381, 1956
5124, 1097, 1124, 1123, 2347
5125, 2352, 2399, 2133, 2468
5126, 1077, 2362, 819, 2473
5127, 630, 920, 2240, 2475
5128, 1254, 1415, 348, 2007
5129, 1999, 687, 160, 2451
5130, 2327, 2407, 2159, 2459
5131, 936, 706, 177, 1985
5132, 1939, 1917, 1934, 2268
5133, 2056, 2079, 1985, 2397
5134, 285, 1720, 992, 2340
5135, 2223, 2388, 2169, 2537
5136, 1675, 269, 642, 1708
5137, 1832, 1790, 1835, 2389
5138, 146, 925, 2071, 673
5139, 266, 644, 874, 1697
5140, 1205, 1679, 449, 1435
5141, 389, 1204, 1423, 1863
5142, 209, 1896, 1858, 641
5143, 798, 796, 2366, 2416
5144, 821, 817, 2440, 2473
5145, 1569, 1274, 1322, 2556
5146, 643, 1880, 206, 862
5147, 2148, 2308, 2282, 2515
5148, 2168, 2442, 2431, 2553
5149, 1890, 2168, 2431, 2553
5150, 2138, 2309, 2279, 2377
5151, 1396, 1398, 1394, 2391
5152, 1116, 1159, 1089, 2298
5153, 1179, 1329, 294, 1129
5154, 1214, 1899, 380, 2443
5155, 2171, 2303, 2285, 2467
5156, 848, 2001, 170, 698
5157, 1409, 1259, 353, 2026
5158, 491, 578, 540, 2308
5159, 1762, 1668, 1710, 2321
5160, 1696, 1771, 1710, 2321
5161, 1524, 1529, 1521, 2315
5162, 1835, 2242, 1797, 2561
5163, 2015, 2091, 2055, 2290
5164, 265, 874, 646, 1705
5165, 1435, 1699, 448, 1207
5166, 2159, 2383, 2311, 2580
5167, 1226, 1090, 1166, 312
5168, 2083, 1989, 2087, 2414
5169, 2171, 2285, 2404, 2467
5170, 1877, 627, 1902, 2410
5171, 1903, 1876, 1943, 2489
5172, 1647, 1370, 2242, 2561
5173, 1170, 1169, 1331, 297
5174, 2279, 2377, 2309, 2507
5175, 1643, 1281, 1345, 2565
5176, 2080, 2038, 2011, 2303
5177, 818, 2472, 2238, 2473
5178, 816, 1696, 256, 654
5179, 1915, 1868, 375, 1218
5180, 1732, 1219, 435, 1685
5181, 401, 1545, 1903, 1192
5182, 1862, 218, 631, 984
5183, 1133, 618, 1023, 2355
5184, 1832, 1835, 1818, 2561
5185, 1399, 1397, 2421, 2506
5186, 1155, 1132, 1094, 2315
5187, 1113, 1164, 1092, 2246
5188, 1108, 1157, 1156, 2247
5189, 514, 592, 550, 2294
5190, 2062, 1260, 354, 2016
5191, 2002, 2041, 171, 699
5192, 1296, 1631, 1783, 2253
5193, 1908, 1186, 408, 1878
5194, 673, 1060, 925, 2251
5195, 589, 602, 503, 2568
5196, 1132, 1165, 1121, 2315
5197, 1964, 2348, 1932, 2470
5198, 1097, 1127, 1147, 2398
5199, 1324, 2542, 2369, 2573
5200, 954, 760, 666, 2347
5201, 727, 2367, 728, 2557
5202, 729, 731, 2349, 2455
5203, 486, 564, 59, 943
5204, 105, 1504, 563, 554
5205, 942, 184, 1987, 2066
5206, 367, 2017, 2065, 1503
5207, 1152, 1120, 1093, 2306
5208, 254, 1670, 655, 1035
5209, 656, 194, 1034, 1854
5210, 1323, 1599, 1577, 2305
5211, 527, 586, 2513, 2559
5212, 1738, 1341, 471, 1296
5213, 1307, 1289, 1306, 2509
5214, 1404, 1414, 1264, 2316
5215, 569, 705, 53, 606
5216, 2178, 2485, 2215, 2486
5217, 1384, 2320, 1376, 2578
5218, 939, 2226, 896, 2352
5219, 1879, 1202, 1593, 2268
5220, 2154, 2493, 2230, 2559
5221, 1265, 1382, 1638, 2568
5222, 1270, 1288, 1289, 2281
5223, 2071, 925, 147, 2108
5224, 531, 593, 514, 2294
5225, 821, 831, 704, 2318
5226, 2198, 2422, 2137, 2490
5227, 956, 2246, 769, 2455
5228, 1933, 1902, 1850, 2410
5229, 1698, 640, 270, 1708
5230, 1145, 1090, 1166, 2284
5231, 524, 866, 39, 497
5232, 2223, 2532, 1833, 2564
5233, 2217, 2471, 772, 2536
5234, 1120, 1151, 1091, 2306
5235, 878, 54, 707, 569
5236, 1881, 1896, 210, 639
5237, 548, 582, 588, 2337
5238, 511, 588, 585, 2337
5239, 728, 709, 1004, 2367
5240, 570, 488, 607, 2325
5241, 1551, 1726, 1677, 444
5242, 705, 1040, 1066, 2317
5243, 1568, 2495, 1307, 2509
5244, 976, 1801, 243, 718
5245, 1183, 1504, 104, 2462
5246, 705, 485, 52, 606
5247, 1052, 621, 182, 2063
5248, 1613, 1182, 2064, 365
5249, 525, 497, 574, 2484
5250, 382, 1572, 1956, 1929
5251, 790, 1080, 1017, 2229
5252, 1514, 1910, 1196, 2295
5253, 2081, 2027, 2031, 2363
5254, 1388, 1587, 2521, 2577
5255, 1008, 2388, 761, 2537
5256, 470, 1736, 1185, 2413
5257, 460, 1693, 1707, 2456
5258, 1112, 1161, 1116, 2298
5259, 1400, 2402, 2207, 2421
5260, 1568, 1307, 1333, 2509
5261, 1214, 379, 1899, 2506
5262, 1168, 1515, 300, 1148
5263, 1575, 1527, 1588, 2272
5264, 2071, 2109, 1991, 2251
5265, 1193, 1366, 1364, 2248
5266, 1933, 1850, 1957, 2390
5267, 1891, 197, 844, 653
5268, 1395, 2316, 1404, 2421
5269, 856, 855, 857, 2438
5270, 675, 925, 926, 2270
5271, 1236, 1477, 1488, 2488
5272, 1459, 1458, 1456, 2373
5273, 194, 656, 1883, 1854
5274, 254, 1670, 1701, 655
5275, 1794, 1820, 1843, 2495
5276, 1505, 1243, 74, 510
5277, 1551, 445, 1729, 1208
5278, 1451, 1200, 1447, 2224
5279, 890, 886, 639, 2224
5280, 1003, 658, 1054, 2551
5281, 561, 700, 46, 517
5282, 495, 534, 92, 1261
5283, 2237, 2340, 1748, 2522
5284, 838, 653, 196, 1916
5285, 1556, 1366, 1193, 2248
5286, 642, 1708, 994, 2339
5287, 925, 675, 147, 2108
5288, 716, 1819, 244, 976
5289, 1537, 1277, 1808, 427
5290, 644, 1033, 1735, 267
5291, 450, 1594, 1734, 1205
5292, 2263, 2319, 2149, 2554
5293, 981, 2328, 2214, 2533
5294, 1316, 1584, 1294, 2234
5295, 1978, 1976, 2232, 2481
5296, 1363, 2405, 2225, 2490
5297, 1232, 1524, 1522, 2315
5298, 487, 535, 603, 2359
5299, 1918, 643, 207, 1032
5300, 1917, 390, 1204, 1593
5301, 2092, 2031, 1988, 2363
5302, 585, 511, 2337, 2565
5303, 388, 1423, 1206, 1887
5304, 2132, 2434, 2332, 2435
5305, 1749, 2252, 1715, 2522
5306, 1737, 1780, 1681, 2525
5307, 977, 976, 2264, 2533
5308, 2186, 2401, 2397, 2402
5309, 2397, 2401, 2128, 2402
5310, 1387, 519, 91, 1258
5311, 826, 697, 45, 533
5312, 928, 2233, 923, 2287
5313, 1135, 2437, 1145, 2542
5314, 746, 2496, 1007, 2536
5315, 750, 751, 1008, 2499
5316, 75, 1243, 1499, 538
5317, 818, 655, 817, 2238
5318, 2071, 2108, 2047, 2270
5319, 1743, 2487, 2394, 2576
5320, 996, 1911, 201, 650
5321, 533, 599, 517, 2283
5322, 667, 1041, 981, 2214
5323, 1189, 1489, 1484, 2233
5324, 2137, 2374, 2248, 2405
5325, 951, 2040, 158, 685
5326, 490, 582, 547, 2249
5327, 1457, 1201, 1500, 2399
5328, 1436, 1205, 1432, 2269
5329, 793, 2296, 795, 2541
5330, 1657, 1663, 616, 2245
5331, 1947, 1894, 1856, 2501
5332, 1805, 1787, 241, 719
5333, 1011, 650, 1853, 2498
5334, 734, 1081, 1020, 2236
5335, 1666, 1720, 285, 2340
5336, 1825, 1838, 1806, 2322
5337, 751, 759, 2388, 2398
5338, 837, 2442, 2208, 2566
5339, 2000, 2101, 2104, 2243
5340, 1525, 1526, 2272, 2469
5341, 1408, 1410, 1409, 2518
5342, 1145, 1135, 1134, 2437
5343, 1117, 1150, 1106, 2297
5344, 2087, 2084, 2013, 2375
5345, 893, 2352, 894, 2505
5346, 393, 1888, 1864, 2411
5347, 1211, 384, 1557, 1872
5348, 1243, 75, 510, 538
5349, 2248, 2374, 2193, 2405
5350, 1723, 2396, 2394, 2487
5351, 425, 1528, 1825, 1279
5352, 1567, 414, 1814, 2418
5353, 527, 610, 586, 2559
5354, 1749, 1715, 1748, 2522
5355, 1520, 1536, 2469, 2545
5356, 1504, 554, 104, 2462
5357, 1963, 1925, 226, 988
5358, 1264, 1497, 2061, 359
5359, 540, 584, 494, 2308
5360, 1960, 1946, 1905, 2475
5361, 716, 976, 1031, 2264
5362, 793, 625, 791, 2340
5363, 1722, 2487, 1743, 2576
5364, 2133, 2352, 2226, 2399
5365, 1095, 1129, 1157, 2247
5366, 1215, 439, 1377, 1673
5367, 1081, 779, 1019, 2329
5368, 414, 1822, 1814, 2418
5369, 1723, 2394, 1743, 2487
5370, 1361, 1359, 1360, 2378
5371, 1327, 1325, 1326, 2483
5372, 2086, 2011, 2055, 2303
5373, 602, 598, 530, 2318
5374, 847, 1084, 845, 2442
5375, 285, 992, 625, 2340
5376, 1642, 2348, 1295, 2415
5377, 2235, 2285, 1472, 2500
5378, 2225, 2374, 2351, 2482
5379, 484, 579, 535, 2359
5380, 1956, 1572, 1212, 2431
5381, 2157, 2424, 2423, 2479
5382, 1979, 1977, 2236, 2415
5383, 2172, 2358, 2281, 2557
5384, 2281, 2358, 2156, 2557
5385, 551, 488, 581, 2325
5386, 2226, 2373, 2133, 2399
5387, 1787, 1815, 240, 719
5388, 408, 1552, 1186, 1908
5389, 2083, 2375, 2048, 2476
5390, 764, 2259, 763, 2471
5391, 1903, 402, 1192, 2489
5392, 1273, 1285, 1286, 2311
5393, 989, 793, 795, 2541
5394, 2159, 2407, 2327, 2574
5395, 2327, 2407, 2175, 2574
5396, 1650, 1658, 1659, 2229
5397, 964, 966, 965, 2529
5398, 2101, 2243, 2028, 2523
5399, 1211, 1557, 1591, 2231
5400, 2249, 2454, 2122, 2457
5401, 2129, 2454, 2249, 2457
5402, 2155, 2398, 2255, 2569
5403, 2423, 2424, 2199, 2479
5404, 1549, 1356, 1354, 2252
5405, 765, 665, 764, 2437
5406, 512, 546, 72, 1241
5407, 73, 512, 1241, 552
5408, 1890, 1924, 1889, 2553
5409, 1153, 1117, 1090, 2284
5410, 936, 176, 703, 1985
5411, 1760, 1693, 1718, 2248
5412, 775, 774, 2265, 2412
5413, 1958, 1849, 405, 2526
5414, 1745, 1775, 1727, 2256
5415, 544, 509, 68, 1367
5416, 1055, 840, 1034, 2244
5417, 2083, 2087, 2048, 2375
5418, 785, 2249, 792, 2454
5419, 1229, 2474, 1107, 2562
5420, 364, 1318, 2027, 1613
5421, 181, 757, 1052, 1986
5422, 649, 1745, 261, 1727
5423, 1855, 2393, 1960, 2475
5424, 2120, 2483, 2242, 2561
5425, 2005, 2022, 2023, 2316
5426, 972, 1038, 971, 2420
5427, 2193, 2334, 2248, 2456
5428, 585, 611, 549, 2565
5429, 2386, 2439, 2171, 2460
5430, 1712, 638, 273, 1674
5431, 1719, 1199, 456, 1691
5432, 1723, 1743, 1722, 2487
5433, 609, 2351, 2271, 2482
5434, 53, 878, 705, 569
5435, 1977, 1974, 1979, 2236
5436, 81, 531, 1249, 2468
5437, 2418, 2499, 2196, 2504
5438, 1690, 275, 636, 1725
5439, 1724, 1197, 458, 1672
5440, 2171, 2460, 2439, 2512
5441, 2169, 2499, 2418, 2504
5442, 712, 711, 475, 2511
5443, 2137, 2396, 2198, 2490
5444, 1226, 1590, 1326, 2284
5445, 2199, 2474, 2452, 2534
5446, 2452, 2474, 2143, 2534
5447, 1298, 1300, 1586, 2292
5448, 1304, 1302, 1585, 2291
5449, 1493, 2439, 2200, 2489
5450, 1862, 219, 1905, 1073
5451, 1641, 1296, 1351, 2253
5452, 2418, 2453, 2196, 2499
5453, 2142, 2347, 2305, 2562
5454, 923, 627, 986, 2233
5455, 2248, 2374, 2137, 2546
5456, 2169, 2453, 2418, 2499
5457, 2332, 2434, 2179, 2435
5458, 1648, 2331, 1603, 2434
5459, 1329, 2247, 1315, 2459
5460, 882, 160, 687, 2451
5461, 1777, 2396, 1723, 2487
5462, 1861, 1962, 1952, 2370
5463, 1296, 1783, 1738, 2253
5464, 794, 806, 676, 2228
5465, 563, 612, 554, 2462
5466, 2271, 2351, 2193, 2482
5467, 2215, 2439, 2386, 2460
5468, 1406, 1398, 2431, 2548
5469, 2439, 2460, 2215, 2512
5470, 2059, 162, 934, 2494
5471, 681, 2038, 153, 2460
5472, 623, 1963, 226, 988
5473, 363, 2027, 1318, 1269
5474, 180, 708, 757, 1986
5475, 55, 526, 756, 707
5476, 1788, 426, 1279, 1537
5477, 1317, 101, 1268, 484
5478, 387, 1206, 1421, 1913
5479, 1734, 1747, 1679, 2269
5480, 382, 1572, 1212, 1956
5481, 1932, 2265, 1867, 2470
5482, 1890, 2431, 1924, 2553
5483, 692, 39, 866, 497
5484, 1719, 1706, 455, 2417
5485, 1857, 1923, 1399, 378
5486, 498, 567, 86, 2493
5487, 1614, 1485, 2375, 2476
5488, 1370, 1797, 2242, 2561
5489, 2167, 2369, 2509, 2536
5490, 2033, 1999, 160, 2451
5491, 944, 2271, 1050, 2482
5492, 1901, 1932, 1964, 2348
5493, 623, 775, 774, 2265
5494, 1239, 1361, 1369, 2220
5495, 1751, 2541, 1694, 2576
5496, 1149, 1109, 1127, 2569
5497, 854, 165, 2028, 2523
5498, 2059, 2020, 162, 2494
5499, 1685, 1219, 1596, 2387
5500, 962, 969, 670, 2520
5501, 1608, 1562, 1442, 2276
5502, 858, 2435, 861, 2438
5503, 1960, 1855, 1907, 2393
5504, 547, 22, 806, 508
5505, 1607, 1440, 1560, 2277
5506, 1709, 648, 263, 1692
5507, 935, 819, 1077, 2362
5508, 2118, 2434, 2293, 2435
5509, 802, 2225, 680, 2482
5510, 1466, 1546, 1464, 2406
5511, 1656, 1681, 1783, 2253
5512, 208, 1858, 1918, 2503
5513, 896, 640, 945, 2226
5514, 903, 2376, 904, 2515
5515, 1937, 1913, 1930, 2427
5516, 1523, 1530, 2424, 2479
5517, 460, 1707, 1195, 2456
5518, 2220, 2378, 2198, 2416
5519, 1388, 2260, 1258, 2577
5520, 1790, 1832, 1819, 2264
5521, 1728, 447, 1207, 1433
5522, 646, 872, 264, 1676
5523, 1540, 1542, 1228, 2297
5524, 648, 2336, 1074, 2572
5525, 1362, 1360, 2396, 2490
5526, 975, 959, 965, 2529
5527, 964, 671, 973, 2298
5528, 1688, 1729, 446, 1208
5529, 1897, 1859, 213, 637
5530, 1198, 1875, 1904, 396
5531, 1757, 1713, 1767, 2417
5532, 2009, 2273, 2476, 2583
5533, 1255, 498, 86, 2493
5534, 1713, 640, 271, 1698
5535, 1201, 454, 1680, 1706
5536, 1289, 1305, 1306, 2281
5537, 1551, 1726, 444, 1210
5538, 774, 776, 777, 2412
5539, 862, 1892, 205, 2427
5540, 935, 485, 52, 705
5541, 2423, 2424, 2157, 2432
5542, 2120, 2335, 2214, 2533
5543, 2338, 2465, 2177, 2516
5544, 1048, 906, 905, 2376
5545, 2423, 2479, 2199, 2520
5546, 2157, 2479, 2423, 2520
5547, 211, 1898, 1881, 639
5548, 394, 1864, 1893, 1200
5549, 1275, 1807, 1797, 429
5550, 1804, 1803, 246, 714
5551, 1642, 2319, 1340, 2348
5552, 1145, 1153, 2284, 2437
5553, 1756, 1770, 2339, 2445
5554, 1984, 2105, 2025, 2333
5555, 2009, 2090, 2273, 2583
5556, 929, 987, 928, 2410
5557, 1284, 2418, 1311, 2453
5558, 2232, 2329, 1978, 2481
5559, 1496, 1380, 2477, 2568
5560, 1919, 1964, 1865, 2348
5561, 547, 674, 21, 490
5562, 854, 693, 165, 2523
5563, 509, 548, 67, 1235
5564, 1714, 1715, 1749, 2252
5565, 2218, 2425, 2134, 2430
5566, 2135, 2426, 2219, 2429
5567, 443, 1210, 1733, 1573
5568, 1389, 1258, 2260, 2577
5569, 1854, 1883, 1884, 2244
5570, 1515, 300, 1227, 1168
5571, 640, 896, 939, 2226
5572, 1405, 1214, 380, 2443
5573, 453, 1703, 1555, 2538
5574, 852, 2408, 1045, 2435
5575, 645, 858, 857, 2427
5576, 1973, 2329, 1018, 2481
5577, 1284, 2407, 1283, 2480
5578, 1445, 1444, 2449, 2514
5579, 2175, 2327, 2247, 2459
5580, 1666, 285, 625, 2340
5581, 1444, 1452, 1451, 2449
5582, 2284, 2335, 2214, 2483
5583, 219, 1862, 631, 1073
5584, 1357, 1359, 1368, 2378
5585, 677, 918, 924, 2273
5586, 1037, 922, 932, 2386
5587, 1371, 1385, 1372, 2261
5588, 779, 773, 774, 2470
5589, 1408, 1260, 1407, 2548
5590, 888, 915, 889, 2381
5591, 680, 26, 551, 488
5592, 2182, 2424, 2423, 2432
5593, 1316, 1294, 1504, 2462
5594, 1088, 1073, 631, 2433
5595, 2225, 2374, 802, 2422
5596, 1702, 1779, 1701, 2544
5597, 2083, 2009, 2273, 2476
5598, 1109, 2502, 1127, 2569
5599, 772, 746, 1007, 2536
5600, 1412, 2231, 1557, 2343
5601, 486, 595, 612, 2462
5602, 733, 59, 564, 943
5603, 1294, 105, 1504, 563
5604, 184, 942, 732, 2066
5605, 1293, 367, 2065, 1503
5606, 898, 899, 900, 2380
5607, 1505, 73, 1241, 552
5608, 791, 2340, 992, 2454
5609, 808, 680, 802, 2325
5610, 1155, 1165, 2315, 2582
5611, 1682, 2425, 2218, 2430
5612, 2219, 2426, 1866, 2429
5613, 891, 883, 890, 2446
5614, 1379, 1216, 1596, 2387
5615, 2249, 2337, 2122, 2372
5616, 1395, 1262, 1414, 2316
5617, 1777, 1723, 1671, 2487
5618, 1237, 1355, 1357, 2395
5619, 1750, 1700, 1686, 2320
5620, 911, 2404, 2235, 2467
5621, 2042, 1989, 2083, 2273
5622, 2009, 2090, 2083, 2273
5623, 1319, 2255, 2502, 2569
5624, 1283, 2407, 1516, 2459
5625, 1912, 1874, 215, 635
5626, 1545, 2200, 1475, 2543
5627, 376, 1868, 1595, 1218
5628, 1596, 436, 1219, 1685
5629, 877, 2385, 1010, 2560
5630, 688, 496, 2505, 2527
5631, 2190, 2283, 2260, 2539
5632, 1634, 1192, 402, 2489
5633, 1165, 2581, 2315, 2582
5634, 193, 657, 1034, 1895
5635, 1942, 1914, 1943, 2344
5636, 1333, 1327, 1275, 2242
5637, 2122, 2337, 2249, 2457
5638, 1319, 1312, 2255, 2569
5639, 1853, 650, 1911, 2498
5640, 1005, 723, 750, 2504
5641, 297, 1169, 1331, 1225
5642, 2326, 2447, 2243, 2523
5643, 1921, 1000, 191, 1851
5644, 1739, 1667, 251, 998
5645, 1751, 1694, 1743, 2576
5646, 374, 1922, 1915, 1561
5647, 1740, 1559, 434, 1732
5648, 1894, 1194, 1544, 2501
5649, 596, 543, 519, 2260
5650, 711, 475, 10, 712
5651, 904, 2376, 906, 2444
5652, 1004, 1821, 248, 2496
5653, 2145, 2291, 2266, 2364
5654, 2267, 2292, 2146, 2365
5655, 1238, 2476, 2302, 2583
5656, 1343, 1344, 1342, 2356
5657, 379, 1399, 1857, 2506
5658, 2019, 2035, 2078, 2274
5659, 1273, 1508, 16, 476
5660, 710, 946, 9, 477
5661, 1271, 478, 15, 1507
5662, 1147, 2398, 1127, 2502
5663, 1963, 1867, 1932, 2265
5664, 1752, 1746, 1731, 2551
5665, 2224, 2446, 2377, 2449
5666, 2480, 2511, 2159, 2580
5667, 2066, 2113, 1987, 2419
5668, 1955, 1890, 1853, 2553
5669, 1270, 478, 15, 1271
5670, 709, 710, 9, 477
5671, 766, 809, 1086, 2389
5672, 1821, 1847, 1794, 2367
5673, 2052, 2072, 2090, 2583
5674, 2142, 2346, 2305, 2347
5675, 2261, 2353, 2201, 2578
5676, 2100, 2078, 2274, 2461
5677, 1693, 2248, 1760, 2456
5678, 715, 1826, 234, 2532
5679, 977, 1027, 980, 2328
5680, 2127, 2362, 2477, 2568
5681, 948, 887, 637, 2300
5682, 302, 1107, 1229, 2474
5683, 2047, 2270, 2010, 2458
5684, 1602, 1590, 1228, 2284
5685, 819, 2472, 818, 2473
5686, 572, 938, 29, 539
5687, 2193, 2374, 2351, 2405
5688, 2140, 2500, 2467, 2540
5689, 1272, 1273, 16, 2480
5690, 2351, 2374, 2225, 2405
5691, 702, 831, 812, 2318
5692, 910, 909, 2467, 2540
5693, 1045, 1028, 695, 2274
5694, 1373, 1392, 1263, 2436
5695, 2123, 2301, 2250, 2518
5696, 1656, 2253, 1658, 2357
5697, 1155, 1138, 1165, 2582
5698, 1155, 1161, 1112, 2582
5699, 1547, 1480, 1190, 2526
5700, 2179, 2331, 2330, 2434
5701, 673, 1083, 778, 2251
5702, 571, 542, 607, 2366
5703, 2269, 2341, 2189, 2384
5704, 1350, 616, 1632, 2245
5705, 195, 656, 838, 1883
5706, 1541, 1542, 2297, 2571
5707, 1197, 1543, 1462, 2304
5708, 1701, 255, 655, 816
5709, 1516, 1329, 1315, 2459
5710, 1157, 1173, 1095, 2355
5711, 414, 1567, 1566, 2418
5712, 1382, 1265, 1392, 2436
5713, 724, 2327, 955, 2574
5714, 1934, 1880, 1918, 2324
5715, 2084, 2460, 2098, 2512
5716, 1450, 1476, 1449, 2507
5717, 1478, 1238, 2302, 2583
5718, 2243, 2326, 2216, 2447
5719, 1965, 1915, 1922, 2257
5720, 1732, 1781, 1740, 2258
5721, 140, 1022, 617, 1092
5722, 319, 1111, 1178, 1583
5723, 618, 114, 1133, 1023
5724, 2178, 2302, 2273, 2441
5725, 1280, 1825, 1838, 424
5726, 1000, 657, 192, 1851
5727, 1667, 252, 998, 658
5728, 1165, 1138, 2581, 2582
5729, 232, 1792, 1006, 2537
5730, 1909, 2265, 1932, 2428
5731, 1584, 1179, 293, 1095
5732, 808, 800, 2325, 2422
5733, 868, 870, 869, 2254
5734, 1484, 1189, 2233, 2526
5735, 830, 828, 829, 2539
5736, 1822, 1844, 1795, 2418
5737, 1405, 1396, 1214, 2443
5738, 1016, 954, 668, 2347
5739, 1638, 1382, 1378, 2400
5740, 2214, 2297, 2262, 2328
5741, 903, 904, 902, 2515
5742, 437, 1596, 1216, 1774
5743, 1595, 1217, 1954, 377
5744, 719, 241, 1805, 967
5745, 1810, 2420, 1827, 2508
5746, 577, 590, 2531, 2563
5747, 2039, 2110, 2021, 2309
5748, 675, 926, 927, 2270
5749, 2221, 2403, 2119, 2577
5750, 1911, 1853, 200, 650
5751, 491, 684, 572, 2444
5752, 1305, 1288, 1517, 2281
5753, 2138, 2377, 2446, 2449
5754, 906, 1050, 682, 2271
5755, 830, 1049, 1056, 2336
5756, 2045, 2095, 2109, 2251
5757, 805, 632, 803, 2546
5758, 801, 802, 2374, 2422
5759, 747, 764, 763, 2471
5760, 1163, 1160, 2479, 2520
5761, 1760, 2248, 1763, 2546
5762, 1391, 2403, 1390, 2577
5763, 1460, 1462, 1543, 2304
5764, 1301, 1292, 1291, 2342
5765, 1795, 2480, 475, 2511
5766, 1308, 1324, 2369, 2573
5767, 1614, 1479, 1485, 2476
5768, 326, 1282, 2067, 2050
5769, 1995, 2068, 143, 721
5770, 851, 1030, 849, 2301
5771, 1011, 200, 1853, 650
5772, 2317, 2464, 2127, 2477
5773, 948, 886, 887, 2300
5774, 1276, 1809, 2508, 2564
5775, 1831, 1828, 2491, 2550
5776, 421, 1518, 1798, 2550
5777, 605, 1427, 85, 567
5778, 2022, 2024, 2111, 2316
5779, 1554, 1360, 1358, 2394
5780, 1282, 327, 1348, 2050
5781, 787, 1995, 144, 721
5782, 1210, 1733, 1726, 443
5783, 1501, 1619, 2392, 2445
5784, 2182, 2432, 2423, 2570
5785, 64, 549, 565, 1281
5786, 493, 720, 18, 566
5787, 1603, 2332, 1422, 2434
5788, 1741, 437, 1216, 1774
5789, 1923, 1954, 1217, 377
5790, 938, 682, 29, 539
5791, 1751, 2252, 1749, 2541
5792, 1363, 1365, 2351, 2405
5793, 1080, 735, 2357, 2525
5794, 1659, 2245, 1657, 2448
5795, 2222, 2469, 2529, 2545
5796, 1458, 1457, 2373, 2417
5797, 1811, 237, 957, 2497
5798, 885, 888, 2279, 2555
5799, 2231, 2301, 2123, 2518
5800, 1374, 1372, 1376, 2261
5801, 2423, 2432, 2157, 2570
5802, 1159, 2298, 1161, 2524
5803, 1063, 660, 1025, 2430
5804, 1064, 1024, 659, 2429
5805, 2038, 2014, 153, 2460
5806, 1473, 1471, 2275, 2500
5807, 753, 732, 942, 2419
5808, 1134, 1135, 1105, 2259
5809, 1077, 704, 935, 2362
5810, 1249, 1453, 81, 2468
5811, 1162, 1164, 1113, 2246
5812, 1735, 268, 1033, 1675
5813, 1695, 451, 1594, 1734
5814, 1838, 423, 1796, 2545
5815, 1892, 1860, 205, 2427
5816, 515, 531, 81, 2468
5817, 391, 1917, 1879, 1593
5818, 1437, 2379, 1436, 2384
5819, 885, 951, 888, 2555
5820, 2320, 2353, 2261, 2578
5821, 1536, 1526, 2469, 2545
5822, 1530, 1532, 1531, 2424
5823, 275, 985, 636, 1725
5824, 1546, 458, 1197, 1672
5825, 1450, 1473, 1476, 2275
5826, 1906, 1855, 221, 630
5827, 1456, 2373, 1457, 2399
5828, 414, 1566, 1822, 2418
5829, 682, 944, 573, 2271
5830, 238, 1811, 957, 2491
5831, 1426, 1628, 2466, 2510
5832, 2153, 2447, 2326, 2523
5833, 2216, 2466, 2371, 2510
5834, 760, 2346, 761, 2388
5835, 1145, 1139, 1153, 2437
5836, 1370, 1275, 1797, 429
5837, 714, 1803, 246, 809
5838, 761, 2346, 762, 2532
5839, 1449, 2309, 1446, 2507
5840, 1401, 2402, 1402, 2409
5841, 208, 641, 1858, 2503
5842, 592, 2294, 593, 2527
5843, 516, 557, 598, 2318
5844, 1475, 2200, 1493, 2439
5845, 1471, 1469, 2275, 2500
5846, 1031, 2264, 976, 2533
5847, 2173, 2346, 2223, 2532
5848, 1452, 1558, 1451, 2411
5849, 1523, 1231, 1530, 2479
5850, 1158, 2474, 1160, 2534
5851, 951, 158, 2040, 2070
5852, 1635, 1390, 1391, 2403
5853, 909, 2303, 913, 2467
5854, 1000, 191, 659, 1921
5855, 998, 251, 1739, 660
5856, 927, 923, 917, 2441
5857, 248, 1821, 1793, 2496
5858, 712, 2511, 475, 2580
5859, 2080, 2303, 2086, 2528
5860, 1707, 1765, 1672, 2368
5861, 594, 586, 2492, 2513
5862, 975, 240, 1815, 719
5863, 1839, 1788, 1825, 2322
5864, 796, 794, 676, 2228
5865, 1412, 1591, 1557, 2231
5866, 1965, 1851, 1936, 2257
5867, 1781, 1752, 1667, 2258
5868, 1909, 1932, 1848, 2428
5869, 584, 2308, 578, 2547
5870, 2191, 2529, 2469, 2545
5871, 709, 728, 727, 2367
5872, 1445, 1443, 1444, 2514
5873, 923, 928, 627, 2233
5874, 2227, 2492, 2154, 2513
5875, 2085, 2089, 2451, 2514
5876, 896, 897, 895, 2280
5877, 274, 636, 982, 1690
5878, 1543, 1197, 457, 1724
5879, 2033, 160, 882, 2451
5880, 302, 1136, 1107, 2474
5881, 863, 2371, 1057, 2503
5882, 647, 2330, 1928, 2370
5883, 1591, 2231, 1412, 2518
5884, 1058, 2339, 940, 2385
5885, 1389, 1597, 1617, 2360
5886, 1036, 828, 1056, 2361
5887, 2085, 2494, 2076, 2575
5888, 1958, 1547, 1190, 2526
5889, 678, 488, 808, 2325
5890, 681, 153, 930, 2460
5891, 304, 1529, 1121, 2479
5892, 1191, 1362, 1360, 2396
5893, 1273, 476, 16, 2480
5894, 2179, 2434, 2330, 2435
5895, 591, 2468, 590, 2505
5896, 1811, 1789, 237, 2497
5897, 1284, 1566, 1311, 2418
5898, 621, 742, 740, 2364
5899, 622, 736, 738, 2365
5900, 2073, 158, 2040, 685
5901, 1843, 1802, 1836, 2496
5902, 2088, 2093, 2350, 2535
5903, 1973, 1978, 2329, 2481
5904, 1514, 1196, 1473, 2295
5905, 1488, 1484, 1489, 2488
5906, 2205, 2451, 2449, 2514
5907, 2407, 2511, 2196, 2574
5908, 638, 945, 272, 1674
5909, 1494, 84, 520, 2484
5910, 1460, 1461, 1462, 2282
5911, 933, 37, 558, 2563
5912, 1987, 2096, 2063, 2419
5913, 1029, 765, 2335, 2437
5914, 2138, 2449, 2451, 2514
5915, 2205, 2446, 2449, 2451
5916, 2138, 2449, 2446, 2451
5917, 893, 894, 892, 2505
5918, 1450, 1514, 1473, 2295
5919, 1448, 1446, 2377, 2507
5920, 884, 2446, 883, 2451
5921, 565, 611, 502, 2245
5922, 1556, 1693, 460, 2456
5923, 915, 2290, 908, 2540
5924, 1681, 2253, 1656, 2357
5925, 902, 2308, 900, 2515
5926, 268, 642, 1033, 1675
5927, 1203, 451, 1594, 1695
5928, 1031, 1041, 767, 2533
5929, 991, 649, 261, 1727
5930, 374, 1221, 1922, 1561
5931, 1559, 434, 1220, 1740
5932, 2159, 2511, 2407, 2574
5933, 1571, 1454, 2392, 2531
5934, 421, 1798, 1816, 2550
5935, 1879, 1202, 391, 1593
5936, 2010, 2047, 2072, 2270
5937, 769, 2246, 752, 2455
5938, 1646, 1347, 1643, 2565
5939, 2230, 2341, 876, 2560
5940, 1657, 616, 502, 2245
5941, 498, 1255, 87, 2492
5942, 2161, 2289, 2436, 2440
5943, 2192, 2400, 2238, 2544
5944, 1196, 1910, 398, 2501
5945, 2198, 2394, 2487, 2576
5946, 2174, 2437, 2259, 2542
5947, 840, 656, 1034, 2244
5948, 917, 918, 2273, 2441
5949, 2261, 2320, 2180, 2353
5950, 1509, 1448, 1447, 2377
5951, 978, 715, 234, 2532
5952, 699, 172, 2002, 832
5953, 1260, 355, 1393, 2062
5954, 571, 508, 608, 2366
5955, 2129, 2252, 2340, 2522
5956, 778, 1060, 673, 2251
5957, 234, 1826, 1791, 2532
5958, 1938, 1951, 1896, 2411
5959, 496, 35, 688, 2505
5960, 722, 723, 2511, 2574
5961, 1368, 1359, 1239, 2220
5962, 1189, 406, 1900, 1849
5963, 1333, 1325, 1327, 2369
5964, 2407, 2480, 2196, 2511
5965, 2159, 2480, 2407, 2511
5966, 940, 939, 893, 2352
5967, 1843, 2495, 1802, 2496
5968, 1330, 1517, 1313, 2358
5969, 1145, 2437, 2284, 2542
5970, 1859, 212, 637, 948
5971, 1904, 395, 1509, 1198
5972, 1530, 1576, 2452, 2474
5973, 1275, 1807, 430, 1568
5974, 247, 1804, 714, 1007
5975, 529, 569, 606, 2317
5976, 1475, 1545, 1493, 2200
5977, 2311, 2383, 2134, 2580
5978, 2371, 2466, 2131, 2510
5979, 2132, 2350, 2332, 2535
5980, 861, 2350, 856, 2438
5981, 1521, 1522, 1524, 2315
5982, 1799, 1810, 1827, 2508
5983, 1342, 2356, 1345, 2463
5984, 712, 725, 724, 2580
5985, 721, 788, 1019, 2263
5986, 808, 800, 678, 2325
5987, 520, 84, 605, 2484
5988, 2494, 2575, 2205, 2579
5989, 994, 642, 269, 1708
5990, 848, 171, 2041, 699
5991, 1260, 1409, 354, 2016
5992, 617, 752, 2246, 2478
5993, 1185, 1343, 1342, 2413
5994, 2136, 2356, 2312, 2413
5995, 1651, 1656, 1662, 2253
5996, 730, 2349, 740, 2364
5997, 1091, 1151, 1167, 2573
5998, 1479, 2302, 1238, 2476
5999, 1383, 1376, 1213, 2320
6000, 2332, 2350, 2132, 2438
6001, 547, 806, 674, 2249
6002, 641, 209, 1896, 997
6003, 1236, 330, 2010, 2458
6004, 950, 693, 856, 2350
6005, 1931, 1854, 1884, 2244
6006, 717, 971, 970, 2497
6007, 1427, 85, 1253, 605
6008, 1834, 2537, 1833, 2556
6009, 1512, 1446, 1449, 2309
6010, 910, 908, 909, 2540
6011, 492, 27, 551, 2482
6012, 571, 607, 24, 807
6013, 861, 858, 1042, 2435
6014, 1657, 1659, 1652, 2245
6015, 379, 1214, 1399, 2506
6016, 2167, 2369, 2259, 2573
6017, 958, 959, 2491, 2570
6018, 560, 2477, 2362, 2568
6019, 232, 1813, 1792, 2537
6020, 964, 973, 1014, 2298
6021, 886, 885, 887, 2279
6022, 2369, 2542, 2259, 2573
6023, 1323, 1322, 1539, 2564
6024, 1411, 2293, 1589, 2461
6025, 304, 1121, 1110, 2479
6026, 37, 500, 558, 2563
6027, 782, 791, 992, 2454
6028, 932, 984, 914, 2433
6029, 2293, 2434, 2132, 2435
6030, 1326, 1325, 1226, 2542
6031, 1959, 1928, 203, 2330
6032, 2409, 2465, 2128, 2516
6033, 2173, 2532, 2223, 2564
6034, 520, 83, 1494, 2531
6035, 2223, 2537, 2169, 2556
6036, 1371, 495, 93, 1261
6037, 700, 47, 810, 561
6038, 568, 2362, 560, 2477
6039, 2091, 2290, 2107, 2530
6040, 635, 1874, 214, 953
6041, 1196, 1910, 1514, 397
6042, 864, 863, 859, 2447
6043, 2259, 2542, 1135, 2573
6044, 1561, 1915, 375, 1218
6045, 435, 1559, 1219, 1732
6046, 713, 1008, 761, 2537
6047, 1815, 1824, 1831, 2545
6048, 1319, 2255, 1320, 2502
6049, 796, 797, 795, 2416
6050, 1455, 1456, 1457, 2399
6051, 2369, 2217, 2509, 2536
6052, 786, 720, 19, 493
6053, 208, 1918, 1032, 2503
6054, 2345, 2412, 2124, 2552
6055, 1272, 1284, 1283, 2480
6056, 2341, 2379, 2230, 2384
6057, 1902, 1877, 223, 627
6058, 1876, 1942, 1943, 2543
6059, 1947, 1942, 1894, 2543
6060, 2156, 2358, 2246, 2455
6061, 1842, 2418, 1795, 2504
6062, 1624, 16, 1508, 2425
6063, 1625, 1507, 15, 2426
6064, 2131, 2575, 2494, 2579
6065, 1123, 1171, 1122, 2347
6066, 674, 2249, 785, 2372
6067, 678, 807, 607, 2366
6068, 2021, 343, 1248, 2514
6069, 1928, 647, 203, 2330
6070, 1015, 974, 969, 2534
6071, 1760, 1763, 1678, 2546
6072, 71, 546, 541, 1239
6073, 2161, 2436, 2318, 2440
6074, 1603, 1419, 2332, 2434
6075, 1748, 1715, 1684, 2522
6076, 1535, 302, 1229, 2474
6077, 926, 929, 928, 2287
6078, 1886, 1928, 2330, 2370
6079, 2369, 2471, 2217, 2536
6080, 1002, 881, 1039, 2465
6081, 834, 835, 836, 2278
6082, 1564, 1440, 1601, 2464
6083, 1328, 1647, 1327, 2483
6084, 1459, 1456, 1498, 2294
6085, 1124, 1171, 2347, 2562
6086, 913, 909, 952, 2303
6087, 2391, 2442, 2208, 2548
6088, 725, 2365, 736, 2383
6089, 1399, 1397, 1400, 2421
6090, 2130, 2412, 2345, 2552
6091, 2394, 2396, 2198, 2487
6092, 417, 1809, 1276, 2564
6093, 850, 2274, 1045, 2408
6094, 1325, 2369, 1324, 2542
6095, 755, 618, 754, 2355
6096, 1195, 1556, 460, 2456
6097, 2217, 2496, 2495, 2509
6098, 1657, 1652, 1663, 2245
6099, 1238, 1479, 1478, 2302
6100, 1898, 1859, 1940, 2300
6101, 559, 498, 87, 2492
6102, 1877, 1906, 222, 986
6103, 1878, 1548, 407, 1900
6104, 1606, 1589, 1411, 2293
6105, 1586, 1508, 1298, 2425
6106, 1585, 1302, 1507, 2426
6107, 803, 801, 802, 2374
6108, 1186, 1620, 1490, 2239
6109, 677, 917, 918, 2273
6110, 862, 205, 645, 2427
6111, 1826, 715, 235, 2420
6112, 2262, 2328, 2297, 2571
6113, 1239, 1359, 1361, 2220
6114, 2221, 2336, 2119, 2403
6115, 1811, 238, 1786, 2491
6116, 678, 607, 25, 488
6117, 730, 740, 741, 2364
6118, 737, 736, 725, 2365
6119, 1454, 1453, 1455, 2468
6120, 1647, 1370, 1327, 2242
6121, 2280, 2294, 2133, 2373
6122, 689, 934, 162, 2494
6123, 2100, 2029, 2078, 2461
6124, 1387, 92, 534, 1261
6125, 826, 46, 700, 517
6126, 737, 739, 738, 2365
6127, 743, 741, 742, 2364
6128, 1156, 1157, 1129, 2247
6129, 1472, 2500, 1471, 2501
6130, 421, 1233, 1518, 2550
6131, 1314, 1503, 1293, 2307
6132, 915, 907, 908, 2290
6133, 1708, 1675, 1770, 2339
6134, 2057, 2093, 1996, 2350
6135, 238, 957, 672, 2491
6136, 1528, 1825, 1280, 424
6137, 1282, 1349, 326, 2067
6138, 721, 2068, 143, 788
6139, 1958, 1190, 404, 1927
6140, 684, 938, 572, 2444
6141, 1426, 1570, 1628, 2510
6142, 1115, 1159, 1161, 2524
6143, 1170, 1146, 1096, 2314
6144, 1826, 235, 1840, 2420
6145, 720, 789, 18, 566
6146, 1350, 64, 565, 1281
6147, 1829, 1832, 1808, 2264
6148, 1741, 438, 1673, 2544
6149, 737, 947, 1025, 2430
6150, 741, 1024, 946, 2429
6151, 1586, 1220, 1624, 2425
6152, 1625, 1221, 1585, 2426
6153, 1691, 1724, 1768, 2304
6154, 2186, 2316, 2278, 2421
6155, 1494, 1253, 84, 2484
6156, 1552, 1336, 1620, 2428
6157, 2211, 2341, 2379, 2560
6158, 1651, 1658, 1656, 2253
6159, 633, 1869, 216, 983
6160, 1894, 1544, 1194, 399
6161, 798, 807, 678, 2366
6162, 748, 2354, 723, 2574
6163, 2125, 2465, 2409, 2516
6164, 1910, 1875, 1950, 2295
6165, 941, 900, 902, 2308
6166, 877, 1010, 1068, 2560
6167, 640, 994, 270, 1708
6168, 565, 616, 1350, 2245
6169, 520, 553, 83, 2531
6170, 1217, 1399, 1923, 378
6171, 2183, 2509, 2496, 2536
6172, 1682, 476, 2425, 2430
6173, 1866, 2426, 478, 2429
6174, 759, 760, 761, 2388
6175, 2216, 2371, 2268, 2510
6176, 1926, 1907, 1906, 2526
6177, 1199, 1719, 455, 2417
6178, 812, 2318, 821, 2440
6179, 1245, 556, 76, 2549
6180, 1288, 1290, 1517, 2358
6181, 383, 1211, 1929, 1872
6182, 1496, 1638, 1380, 2568
6183, 1144, 1135, 2542, 2573
6184, 599, 533, 596, 2260
6185, 982, 638, 273, 1712
6186, 1199, 1543, 456, 1691
6187, 393, 1864, 1200, 2411
6188, 41, 694, 527, 2513
6189, 978, 761, 762, 2532
6190, 997, 210, 1896, 639
6191, 2391, 2442, 2188, 2566
6192, 609, 510, 539, 2271
6193, 1519, 1523, 2424, 2432
6194, 1567, 1814, 415, 2556
6195, 1994, 2040, 2039, 2309
6196, 2196, 2453, 2354, 2499
6197, 1178, 1330, 1313, 2382
6198, 2170, 2328, 2262, 2571
6199, 1351, 1342, 1345, 2463
6200, 872, 648, 263, 1709
6201, 1433, 1688, 446, 1208
6202, 2238, 2472, 2127, 2473
6203, 955, 754, 768, 2327
6204, 1979, 1972, 1977, 2415
6205, 676, 23, 571, 508
6206, 213, 1897, 637, 953
6207, 1875, 1198, 1514, 396
6208, 884, 883, 882, 2451
6209, 1703, 1695, 452, 2445
6210, 1453, 515, 81, 2468
6211, 1624, 476, 16, 2425
6212, 1625, 15, 478, 2426
6213, 1838, 1280, 423, 2545
6214, 1992, 1242, 336, 2512
6215, 1357, 1358, 2378, 2395
6216, 2127, 2400, 2238, 2473
6217, 1603, 1419, 1422, 2332
6218, 1520, 1536, 1526, 2469
6219, 1166, 313, 1144, 2542
6220, 632, 805, 995, 2334
6221, 1201, 1680, 453, 2538
6222, 1530, 1535, 1576, 2474
6223, 536, 592, 593, 2527
6224, 2155, 2354, 2453, 2499
6225, 945, 640, 271, 1713
6226, 454, 1201, 1506, 1706
6227, 2172, 2281, 2367, 2557
6228, 778, 1083, 776, 2412
6229, 2496, 2509, 2217, 2536
6230, 883, 1009, 2494, 2579
6231, 722, 724, 955, 2574
6232, 1646, 2337, 1347, 2565
6233, 2149, 2319, 2236, 2348
6234, 2056, 2018, 2082, 2338
6235, 2495, 2496, 2183, 2509
6236, 689, 162, 2020, 2494
6237, 1283, 1516, 1285, 2459
6238, 1505, 1611, 1243, 2351
6239, 1421, 1603, 2331, 2434
6240, 2188, 2442, 2391, 2548
6241, 1419, 1418, 1417, 2332
6242, 1792, 231, 1006, 2504
6243, 1833, 2532, 1841, 2564
6244, 2080, 2086, 2043, 2528
6245, 639, 211, 1898, 948
6246, 1893, 394, 1200, 1509
6247, 1186, 1548, 407, 1878
6248, 1329, 1179, 1315, 2247
6249, 752, 2455, 2246, 2478
6250, 2014, 930, 153, 2460
6251, 1320, 1319, 1312, 2255
6252, 619, 1017, 1080, 2229
6253, 1194, 1472, 1544, 2501
6254, 1481, 1480, 1479, 2302
6255, 1271, 1291, 1290, 2342
6256, 584, 578, 513, 2547
6257, 1295, 1642, 1340, 2348
6258, 802, 804, 2374, 2482
6259, 1754, 1676, 1769, 2310
6260, 1007, 1004, 248, 2496
6261, 1562, 1561, 1563, 2257
6262, 1559, 1560, 1564, 2258
6263, 645, 857, 862, 2427
6264, 752, 753, 731, 2478
6265, 621, 1044, 942, 2419
6266, 674, 490, 2249, 2372
6267, 1338, 2319, 1580, 2554
6268, 1424, 2268, 1618, 2510
6269, 807, 676, 571, 2366
6270, 224, 1850, 1902, 987
6271, 1648, 1421, 1603, 2331
6272, 1756, 1695, 1770, 2445
6273, 867, 871, 876, 2341
6274, 2230, 2484, 2379, 2560
6275, 2379, 2484, 2152, 2560
6276, 568, 2317, 2362, 2477
6277, 1544, 398, 1856, 2501
6278, 560, 2362, 589, 2568
6279, 1535, 1136, 302, 2474
6280, 262, 648, 1742, 1692
6281, 2149, 2345, 2265, 2412
6282, 455, 1706, 1506, 2417
6283, 1350, 1632, 1574, 2245
6284, 1742, 991, 261, 1727
6285, 1749, 1748, 1666, 2340
6286, 961, 2299, 963, 2582
6287, 2037, 1495, 345, 2575
6288, 744, 728, 2288, 2557
6289, 1188, 1554, 1358, 2394
6290, 1253, 605, 84, 2484
6291, 1173, 1133, 1142, 2355
6292, 123, 668, 1122, 2534
6293, 237, 717, 957, 2497
6294, 475, 2430, 947, 2580
6295, 1324, 1144, 313, 2542
6296, 2088, 2058, 2093, 2535
6297, 2358, 2455, 2156, 2557
6298, 1399, 1214, 1397, 2506
6299, 1653, 1656, 1658, 2357
6300, 2236, 2348, 2319, 2415
6301, 2041, 2099, 2103, 2250
6302, 1362, 1191, 1550, 2396
6303, 693, 854, 855, 2523
6304, 1398, 1212, 1406, 2431
6305, 1545, 1192, 1493, 2489
6306, 1032, 641, 208, 2503
6307, 1510, 87, 1255, 2492
6308, 963, 2299, 2581, 2582
6309, 796, 676, 807, 2366
6310, 2010, 330, 2046, 2458
6311, 1324, 1144, 2542, 2573
6312, 560, 568, 589, 2362
6313, 1606, 2293, 1413, 2434
6314, 977, 1031, 976, 2533
6315, 1286, 1287, 1297, 2311
6316, 2208, 2442, 2391, 2566
6317, 617, 752, 769, 2246
6318, 554, 595, 521, 2462
6319, 723, 2354, 749, 2499
6320, 1030, 1084, 2301, 2498
6321, 1760, 1718, 1763, 2248
6322, 919, 630, 920, 2240
6323, 1536, 1796, 423, 2545
6324, 1233, 421, 1816, 2550
6325, 1579, 1349, 1580, 2232
6326, 1389, 1388, 1258, 2577
6327, 476, 475, 1795, 2480
6328, 2398, 2502, 2255, 2569
6329, 1236, 1486, 330, 2458
6330, 672, 958, 959, 2491
6331, 751, 759, 1008, 2388
6332, 1384, 1213, 1376, 2320
6333, 41, 527, 518, 2513
6334, 899, 898, 897, 2280
6335, 1572, 383, 1211, 1929
6336, 1770, 1675, 1756, 2339
6337, 496, 532, 35, 2505
6338, 86, 567, 1427, 2493
6339, 475, 947, 10, 2580
6340, 2053, 2084, 2098, 2512
6341, 892, 688, 35, 2505
6342, 1738, 1783, 1681, 2253
6343, 1714, 1749, 1751, 2252
6344, 577, 500, 590, 2563
6345, 1357, 1356, 1358, 2395
6346, 1888, 393, 1558, 2411
6347, 2130, 2345, 2265, 2428
6348, 234, 1791, 978, 2532
6349, 907, 157, 2073, 685
6350, 1747, 1697, 1766, 2269
6351, 539, 604, 2444, 2549
6352, 1339, 1336, 2345, 2552
6353, 86, 1427, 1255, 2493
6354, 888, 889, 887, 2279
6355, 304, 1231, 1529, 2479
6356, 2139, 2353, 2320, 2578
6357, 713, 232, 1006, 2537
6358, 979, 2328, 980, 2558
6359, 224, 1850, 987, 626
6360, 1682, 475, 476, 2430
6361, 1866, 478, 477, 2429
6362, 2073, 2107, 2015, 2290
6363, 755, 1023, 618, 2355
6364, 1860, 645, 205, 2427
6365, 1879, 1917, 1939, 2268
6366, 1030, 996, 650, 2498
6367, 798, 796, 807, 2366
6368, 248, 1793, 1007, 2496
6369, 16, 476, 1508, 2425
6370, 15, 1507, 478, 2426
6371, 1997, 2037, 345, 2575
6372, 1207, 1433, 1431, 2310
6373, 2130, 2265, 2345, 2412
6374, 1296, 1582, 1631, 2253
6375, 691, 1067, 864, 2243
6376, 2246, 2455, 2195, 2478
6377, 10, 1063, 947, 2430
6378, 9, 946, 1064, 2429
6379, 37, 933, 690, 2563
6380, 2023, 2316, 2111, 2517
6381, 1473, 1471, 1469, 2275
6382, 1085, 674, 785, 2372
6383, 1559, 1220, 1560, 2258
6384, 1221, 1561, 1562, 2257
6385, 1163, 1137, 1160, 2520
6386, 2172, 2455, 2358, 2557
6387, 1677, 1727, 1726, 2256
6388, 338, 1993, 1244, 2528
6389, 1413, 1648, 1603, 2434
6390, 1519, 1520, 2432, 2550
6391, 1369, 72, 546, 1241
6392, 2241, 2376, 2187, 2406
6393, 1458, 1506, 1457, 2417
6394, 1525, 1526, 1527, 2272
6395, 1366, 1556, 1609, 2456
6396, 2122, 2312, 2237, 2454
6397, 1028, 1045, 850, 2274
6398, 963, 2299, 960, 2581
6399, 2100, 2078, 2035, 2274
6400, 237, 1789, 717, 2497
6401, 34, 496, 688, 2527
6402, 1098, 1158, 1160, 2534
6403, 2222, 2432, 2550, 2570
6404, 2222, 2550, 2491, 2570
6405, 954, 1016, 760, 2347
6406, 956, 769, 752, 2455
6407, 1809, 417, 1817, 2564
6408, 782, 781, 783, 2312
6409, 2091, 2107, 2051, 2530
6410, 672, 1786, 238, 2491
6411, 715, 972, 235, 2420
6412, 2354, 2407, 2196, 2574
6413, 1587, 2256, 1636, 2521
6414, 854, 691, 864, 2243
6415, 502, 1657, 2245, 2448
6416, 125, 1100, 968, 2520
6417, 2222, 2469, 2299, 2529
6418, 1147, 1127, 1109, 2502
6419, 2241, 2376, 2162, 2444
6420, 852, 1042, 1087, 2435
6421, 1247, 550, 78, 2547
6422, 10, 947, 712, 2580
6423, 1792, 1823, 231, 2504
6424, 573, 29, 682, 539
6425, 1985, 2074, 2106, 2397
6426, 1444, 1250, 1570, 2575
6427, 1551, 1210, 1587, 2256
6428, 1080, 790, 735, 2525
6429, 1935, 1877, 1902, 2410
6430, 861, 950, 856, 2350
6431, 1443, 1248, 343, 2514
6432, 215, 1912, 635, 983
6433, 914, 2344, 911, 2404
6434, 1492, 2439, 1598, 2512
6435, 762, 760, 1016, 2346
6436, 2032, 343, 2021, 2514
6437, 808, 802, 800, 2422
6438, 228, 734, 1920, 2470
6439, 817, 814, 821, 2440
6440, 2085, 2032, 2089, 2514
6441, 559, 87, 1510, 2492
6442, 2216, 2326, 2243, 2466
6443, 972, 1840, 235, 2420
6444, 1377, 1673, 438, 2544
6445, 2162, 2406, 2241, 2549
6446, 2162, 2376, 2241, 2406
6447, 2246, 2358, 2195, 2455
6448, 987, 627, 928, 2410
6449, 83, 1251, 1494, 2531
6450, 1659, 1657, 1654, 2448
6451, 2204, 2500, 2275, 2540
6452, 2275, 2500, 2140, 2540
6453, 304, 1110, 1231, 2479
6454, 1037, 2386, 931, 2460
6455, 1185, 1342, 1341, 2413
6456, 1032, 863, 1057, 2503
6457, 893, 1010, 940, 2385
6458, 1462, 1463, 1464, 2282
6459, 1997, 2085, 2076, 2575
6460, 478, 1794, 477, 2367
6461, 283, 628, 1694, 2541
6462, 217, 1914, 1869, 2344
6463, 2141, 2299, 2469, 2529
6464, 1831, 1816, 1828, 2550
6465, 2150, 2252, 2296, 2395
6466, 2230, 2379, 2341, 2560
6467, 830, 829, 1074, 2336
6468, 1167, 2259, 1135, 2573
6469, 1203, 1594, 1619, 2445
6470, 771, 744, 745, 2288
6471, 260, 1745, 1012, 1669
6472, 2061, 2397, 2079, 2519
6473, 1481, 1483, 1482, 2486
6474, 1978, 1973, 1976, 2481
6475, 1375, 1374, 1215, 2289
6476, 1800, 415, 1814, 2556
6477, 987, 1902, 627, 2410
6478, 684, 938, 30, 572
6479, 938, 904, 906, 2444
6480, 123, 1122, 1098, 2534
6481, 477, 1847, 709, 2367
6482, 1751, 1749, 1717, 2541
6483, 2073, 2015, 157, 907
6484, 528, 2317, 568, 2477
6485, 538, 76, 556, 2549
6486, 823, 815, 652, 2353
6487, 1339, 2345, 1337, 2552
6488, 1941, 1897, 1950, 2295
6489, 591, 590, 532, 2505
6490, 10, 475, 1063, 2430
6491, 9, 1064, 477, 2429
6492, 1571, 1251, 1454, 2531
6493, 1005, 1845, 230, 711
6494, 413, 1272, 1844, 1566
6495, 2237, 2340, 2129, 2454
6496, 1891, 1924, 1945, 2443
6497, 412, 1966, 1630, 2415
6498, 1058, 994, 940, 2339
6499, 412, 1630, 1295, 2415
6500, 1992, 336, 2053, 2512
6501, 452, 1695, 1203, 2445
6502, 37, 690, 500, 2563
6503, 2182, 2550, 2432, 2570
6504, 944, 27, 492, 2482
6505, 2182, 2491, 2550, 2570
6506, 1474, 1472, 1475, 2285
6507, 1539, 417, 1276, 2564
6508, 1432, 1437, 1436, 2384
6509, 41, 949, 694, 2513
6510, 1301, 1302, 1303, 2291
6511, 1298, 1297, 1299, 2292
6512, 453, 1555, 1201, 2538
6513, 912, 2381, 915, 2540
6514, 10, 947, 475, 2430
6515, 9, 477, 946, 2429
6516, 30, 684, 572, 491
6517, 1363, 1365, 1241, 2351
6518, 873, 868, 949, 2513
6519, 1624, 1785, 476, 2425
6520, 478, 1969, 1625, 2426
6521, 2026, 1259, 352, 2461
6522, 1858, 1951, 1939, 2503
6523, 960, 2299, 959, 2570
6524, 1254, 2049, 349, 2535
6525, 1464, 1463, 1465, 2406
6526, 1499, 1245, 76, 2549
6527, 1486, 2046, 330, 2458
6528, 2079, 2397, 2338, 2519
6529, 492, 609, 2271, 2482
6530, 1500, 1201, 1555, 2538
6531, 920, 921, 922, 2485
6532, 2109, 2095, 1991, 2251
6533, 1465, 1499, 1467, 2549
6534, 1070, 289, 1782, 2357
6535, 821, 1077, 817, 2473
6536, 1183, 1604, 1504, 2462
6537, 1470, 1472, 2285, 2500
6538, 1404, 1395, 1414, 2316
6539, 2297, 2328, 2144, 2571
6540, 755, 726, 1043, 2286
6541, 475, 1784, 1063, 2430
6542, 1968, 477, 1064, 2429
6543, 1504, 1604, 1316, 2462
6544, 1538, 2262, 1542, 2571
6545, 539, 538, 604, 2549
6546, 806, 674, 21, 547
6547, 1235, 67, 509, 1367
6548, 2149, 2348, 2236, 2470
6549, 1973, 1978, 1970, 2329
6550, 1044, 740, 731, 2349
6551, 2262, 2264, 2120, 2533
6552, 2387, 2472, 2238, 2551
6553, 922, 1088, 932, 2433
6554, 405, 1849, 1189, 2526
6555, 1728, 1769, 1688, 2310
6556, 2214, 2328, 2262, 2533
6557, 1104, 1151, 1152, 2306
6558, 1019, 1018, 2329, 2481
6559, 594, 518, 586, 2513
6560, 26, 680, 808, 488
6561, 2129, 2340, 2237, 2522
6562, 694, 527, 2513, 2559
6563, 958, 2423, 962, 2570
6564, 1006, 231, 1005, 2504
6565, 1130, 1146, 1131, 2314
6566, 892, 35, 532, 2505
6567, 334, 1485, 2048, 2375
6568, 559, 594, 586, 2492
6569, 1337, 1339, 1336, 2345
6570, 944, 1050, 804, 2482
6571, 2009, 2048, 333, 2476
6572, 713, 1813, 232, 2537
6573, 1565, 432, 1270, 1846
6574, 1004, 709, 249, 1847
6575, 1491, 336, 1242, 2512
6576, 1070, 735, 289, 2357
6577, 1569, 1320, 1312, 2255
6578, 428, 1797, 1370, 2561
6579, 1076, 851, 852, 2408
6580, 1536, 423, 1280, 2545
6581, 2242, 2389, 2120, 2561
6582, 755, 943, 733, 2286
6583, 1944, 1856, 1910, 2501
6584, 687, 884, 882, 2451
6585, 1949, 1940, 1893, 2300
6586, 1186, 1490, 1548, 2239
6587, 1100, 125, 1137, 2520
6588, 1600, 1403, 1626, 2516
6589, 83, 553, 1251, 2531
6590, 2098, 2084, 2014, 2460
6591, 1226, 313, 1166, 2542
6592, 753, 942, 1044, 2419
6593, 409, 1552, 1908, 2428
6594, 689, 883, 1009, 2494
6595, 1961, 1916, 1953, 2506
6596, 1240, 334, 2013, 2375
6597, 1386, 1385, 1261, 2578
6598, 913, 931, 914, 2404
6599, 2175, 2407, 2354, 2574
6600, 452, 1555, 1703, 2445
6601, 475, 711, 1845, 2511
6602, 1541, 1542, 1540, 2297
6603, 1629, 2379, 1437, 2484
6604, 2158, 2302, 2273, 2583
6605, 1842, 1795, 1823, 2504
6606, 1308, 2369, 1333, 2509
6607, 228, 773, 734, 2470
6608, 333, 2048, 1485, 2476
6609, 1287, 2311, 1285, 2459
6610, 812, 831, 821, 2318
6611, 203, 860, 1959, 2330
6612, 931, 2386, 914, 2404
6613, 2299, 2432, 2222, 2570
6614, 715, 978, 762, 2532
6615, 2026, 352, 2029, 2461
6616, 41, 518, 949, 2513
6617, 1163, 1160, 1110, 2479
6618, 2299, 2157, 2432, 2570
6619, 961, 959, 2299, 2529
6620, 593, 592, 514, 2294
6621, 648, 991, 262, 1742
6622, 438, 1741, 1216, 2544
6623, 1712, 1758, 1768, 2304
6624, 334, 2048, 2013, 2375
6625, 415, 1274, 1567, 2556
6626, 68, 544, 1367, 1237
6627, 1226, 1324, 313, 2542
6628, 995, 1048, 634, 2334
6629, 1834, 1813, 1833, 2537
6630, 988, 1925, 225, 2390
6631, 1238, 2009, 333, 2476
6632, 403, 1927, 1190, 2393
6633, 1161, 1159, 1116, 2298
6634, 901, 900, 2380, 2515
6635, 1015, 1038, 1016, 2450
6636, 203, 647, 860, 2330
6637, 1043, 726, 736, 2383
6638, 752, 731, 729, 2455
6639, 540, 578, 584, 2308
6640, 2011, 2086, 2080, 2303
6641, 1901, 411, 1334, 2348
6642, 2032, 1443, 343, 2514
6643, 1246, 340, 1994, 2530
6644, 1277, 1647, 1592, 2561
6645, 1380, 1627, 1496, 2477
6646, 1370, 1275, 1327, 2242
6647, 159, 951, 687, 2555
6648, 2030, 2079, 2338, 2519
6649, 1150, 1154, 1106, 2297
6650, 2284, 2437, 2174, 2542
6651, 680, 551, 27, 2482
6652, 543, 89, 1597, 2360
6653, 43, 499, 1036, 2361
6654, 1617, 1610, 1391, 2403
6655, 1886, 1962, 1928, 2370
6656, 1406, 1212, 1572, 2431
6657, 1210, 1636, 1587, 2256
6658, 1078, 843, 839, 2401
6659, 1100, 968, 2520, 2581
6660, 1236, 1487, 2458, 2488
6661, 765, 1041, 1029, 2335
6662, 2090, 2042, 2083, 2273
6663, 1686, 1753, 1750, 2320
6664, 2204, 2275, 2381, 2540
6665, 591, 515, 590, 2468
6666, 385, 1882, 1885, 2343
6667, 1229, 1107, 301, 2562
6668, 1003, 1054, 820, 2472
6669, 409, 1908, 1848, 2428
6670, 628, 283, 989, 2541
6671, 944, 682, 1050, 2271
6672, 1778, 1692, 1742, 2572
6673, 2085, 2020, 2076, 2494
6674, 1818, 1797, 428, 2561
6675, 676, 806, 22, 508
6676, 1925, 1850, 225, 2390
6677, 1519, 1233, 1520, 2550
6678, 1155, 1165, 1132, 2315
6679, 626, 929, 1059, 2390
6680, 1901, 1919, 411, 2348
6681, 174, 1984, 701, 2517
6682, 2058, 349, 2049, 2535
6683, 2033, 2085, 2089, 2451
6684, 279, 1721, 990, 2546
6685, 1965, 1936, 1915, 2257
6686, 1732, 1752, 1781, 2258
6687, 913, 2404, 911, 2467
6688, 1510, 1429, 1434, 2492
6689, 2141, 2298, 2272, 2524
6690, 2282, 2212, 2380, 2515
6691, 123, 974, 668, 2534
6692, 1314, 1583, 1178, 2382
6693, 492, 609, 573, 2271
6694, 791, 625, 992, 2340
6695, 1909, 1957, 1925, 2390
6696, 1631, 472, 1296, 1783
6697, 1283, 1273, 1272, 2480
6698, 1160, 1158, 1136, 2474
6699, 1845, 230, 1823, 1005
6700, 1844, 413, 1566, 1822
6701, 2057, 2088, 2093, 2350
6702, 1831, 1828, 1786, 2491
6703, 409, 1848, 1184, 2428
6704, 781, 782, 624, 2312
6705, 1603, 1606, 1413, 2434
6706, 550, 513, 78, 2547
6707, 1257, 89, 506, 2360
6708, 696, 537, 43, 2361
6709, 411, 1919, 1295, 2348
6710, 338, 1244, 1513, 2528
6711, 1993, 338, 2043, 2528
6712, 1968, 1064, 190, 1921
6713, 1867, 228, 1920, 2470
6714, 1625, 478, 15, 1969
6715, 1968, 9, 1064, 477
6716, 1784, 10, 475, 1063
6717, 1785, 16, 1624, 476
6718, 2247, 2327, 2203, 2459
6719, 1823, 1005, 231, 2504
6720, 1373, 2289, 1375, 2436
6721, 1834, 1833, 1800, 2556
6722, 548, 511, 66, 2337
6723, 2114, 1102, 291, 1177
6724, 1102, 2115, 290, 1174
6725, 1175, 107, 501, 614
6726, 613, 1176, 108, 501
6727, 1772, 1736, 1773, 2413
6728, 2163, 2287, 2270, 2488
6729, 543, 506, 89, 2360
6730, 537, 499, 43, 2361
6731, 2109, 2047, 2046, 2458
6732, 496, 34, 536, 2527
6733, 980, 979, 981, 2328
6734, 1966, 1977, 1983, 2415
6735, 1042, 852, 1045, 2435
6736, 767, 765, 766, 2335
6737, 1424, 1618, 1426, 2510
6738, 34, 688, 937, 2527
6739, 2285, 2235, 2404, 2467
6740, 2030, 360, 2061, 2519
6741, 598, 602, 516, 2318
6742, 475, 10, 712, 2580
6743, 1190, 1481, 1482, 2393
6744, 938, 684, 904, 2444
6745, 1958, 405, 1547, 2526
6746, 1422, 1606, 1603, 2434
6747, 1012, 1745, 260, 649
6748, 1192, 1634, 1649, 2489
6749, 2160, 2316, 2278, 2517
6750, 2299, 2315, 2157, 2581
6751, 1432, 1430, 1428, 2384
6752, 2333, 2391, 2188, 2566
6753, 1566, 1567, 1311, 2418
6754, 1401, 1402, 1403, 2409
6755, 334, 1240, 1485, 2375
6756, 1782, 289, 1737, 2357
6757, 1576, 1599, 1532, 2452
6758, 1453, 1249, 1455, 2468
6759, 1491, 2053, 336, 2512
6760, 2241, 2444, 2162, 2549
6761, 958, 962, 960, 2570
6762, 2305, 2347, 2143, 2562
6763, 1634, 403, 1190, 2393
6764, 974, 123, 1098, 2534
6765, 189, 1980, 1018, 1072
6766, 1982, 372, 1579, 1633
6767, 1338, 1580, 1282, 2554
6768, 2040, 2110, 2309, 2555
6769, 1616, 1595, 1401, 2409
6770, 1042, 1045, 861, 2435
6771, 432, 1565, 1820, 1846
6772, 1847, 249, 1004, 1821
6773, 538, 1499, 76, 2549
6774, 1873, 1903, 1946, 2489
6775, 415, 1800, 1274, 2556
6776, 412, 1919, 1966, 2415
6777, 1850, 626, 225, 2390
6778, 2150, 2296, 2252, 2541
6779, 2126, 2472, 2387, 2551
6780, 2195, 2382, 2246, 2478
6781, 411, 1295, 1334, 2348
6782, 2123, 2293, 2274, 2408
6783, 1009, 1057, 2371, 2579
6784, 1506, 1199, 455, 2417
6785, 1378, 1377, 1216, 2544
6786, 1209, 385, 1885, 2343
6787, 433, 1785, 1624, 1740
6788, 1492, 1598, 1491, 2512
6789, 1446, 1447, 1448, 2377
6790, 758, 666, 759, 2398
6791, 321, 1574, 1632, 1663
6792, 109, 1071, 1013, 1660
6793, 412, 1295, 1919, 2415
6794, 1326, 2284, 1602, 2483
6795, 2099, 2016, 2103, 2250
6796, 846, 833, 832, 2566
6797, 1795, 475, 1845, 2511
6798, 735, 1737, 289, 2357
6799, 2259, 2369, 2174, 2542
6800, 1698, 1755, 1767, 2538
6801, 875, 871, 644, 2341
6802, 1661, 1021, 1070, 2357
6803, 1963, 1932, 1909, 2265
6804, 528, 98, 1266, 2477
6805, 1124, 1171, 1123, 2347
6806, 1587, 1388, 1390, 2577
6807, 1782, 1656, 1661, 2357
6808, 283, 1694, 1717, 2541
6809, 1247, 78, 1502, 2547
6810, 835, 833, 837, 2566
6811, 1267, 360, 2030, 2519
6812, 1819, 1832, 1829, 2264
6813, 1475, 1472, 1194, 2543
6814, 751, 758, 759, 2398
6815, 528, 560, 98, 2477
6816, 1552, 409, 1184, 2428
6817, 893, 690, 1010, 2563
6818, 1759, 1693, 1760, 2456
6819, 1064, 659, 190, 1921
6820, 1385, 1376, 2261, 2578
6821, 2156, 2288, 2281, 2557
6822, 926, 928, 927, 2287
6823, 2127, 2362, 2317, 2477
6824, 596, 519, 599, 2260
6825, 2115, 1102, 290, 2003
6826, 1102, 2114, 291, 2003
6827, 159, 2070, 951, 2555
6828, 1589, 2029, 352, 2461
6829, 1011, 1084, 650, 2498
6830, 1246, 1468, 340, 2530
6831, 1235, 2337, 1646, 2457
6832, 1407, 2391, 1398, 2548
6833, 2141, 2315, 2299, 2582
6834, 794, 793, 792, 2296
6835, 1257, 1597, 89, 2360
6836, 1036, 696, 43, 2361
6837, 1817, 1833, 1841, 2564
6838, 307, 1094, 1232, 2524
6839, 1544, 1472, 1471, 2501
6840, 924, 151, 1989, 2414
6841, 1777, 1689, 1744, 2396
6842, 1539, 1817, 417, 2564
6843, 501, 1176, 108, 1101
6844, 1101, 107, 501, 1175
6845, 511, 1347, 66, 2337
6846, 1438, 1571, 1619, 2392
6847, 1495, 1250, 345, 2575
6848, 1325, 1308, 1324, 2369
6849, 1629, 1437, 1253, 2484
6850, 577, 590, 553, 2531
6851, 1149, 1131, 1169, 2569
6852, 988, 225, 626, 2390
6853, 1842, 1822, 1795, 2418
6854, 1094, 307, 1115, 2524
6855, 670, 1137, 125, 2520
6856, 1943, 1946, 1903, 2489
6857, 1535, 1229, 1576, 2474
6858, 711, 722, 723, 2511
6859, 1339, 1234, 1621, 2552
6860, 2054, 151, 679, 2414
6861, 133, 1029, 1139, 2437
6862, 2043, 338, 1513, 2528
6863, 1167, 1105, 1135, 2259
6864, 345, 1250, 1997, 2575
6865, 1069, 186, 1981, 1020
6866, 1983, 1581, 369, 1630
6867, 2268, 2371, 2147, 2510
6868, 133, 1134, 665, 2437
6869, 1582, 324, 1631, 1662
6870, 112, 1021, 1070, 1661
6871, 1839, 1806, 1805, 2322
6872, 2255, 2388, 2142, 2398
6873, 937, 536, 34, 2527
6874, 125, 968, 670, 2520
6875, 1661, 1653, 1021, 2357
6876, 1590, 1602, 1326, 2284
6877, 1295, 2348, 1919, 2415
6878, 2153, 2350, 2332, 2438
6879, 1867, 773, 228, 2470
6880, 1624, 1220, 433, 1740
6881, 845, 1084, 1011, 2553
6882, 961, 960, 963, 2299
6883, 1519, 1521, 1523, 2432
6884, 133, 665, 1029, 2437
6885, 1983, 1581, 1630, 2415
6886, 2015, 2107, 2091, 2290
6887, 1485, 1238, 333, 2476
6888, 628, 1694, 2541, 2576
6889, 2284, 2335, 2174, 2437
6890, 2336, 2403, 2221, 2572
6891, 1133, 1173, 1157, 2355
6892, 2054, 1989, 151, 2414
6893, 78, 513, 1502, 2547
6894, 1255, 1427, 1428, 2493
6895, 1911, 1952, 1955, 2498
6896, 1809, 418, 1276, 2508
6897, 2315, 2581, 2299, 2582
6898, 2147, 2371, 2268, 2503
6899, 1955, 1853, 1911, 2498
6900, 573, 944, 28, 492
6901, 1615, 1596, 1219, 2387
6902, 2273, 2302, 2158, 2441
6903, 1637, 1412, 1557, 2343
6904, 1736, 1683, 1773, 2413
6905, 1187, 1354, 1352, 2522
6906, 279, 1678, 1721, 2546
6907, 2144, 2328, 2297, 2558
6908, 1544, 1196, 398, 2501
6909, 2058, 1511, 349, 2535
6910, 1980, 1973, 189, 1018
6911, 1579, 372, 1982, 1971
6912, 452, 1203, 1555, 2445
6913, 1490, 1489, 1548, 2239
6914, 2197, 2403, 2336, 2572
6915, 475, 10, 1845, 711
6916, 2061, 360, 1497, 2519
6917, 970, 962, 958, 2423
6918, 283, 1717, 989, 2541
6919, 2279, 2309, 2166, 2507
6920, 1296, 472, 1738, 1783
6921, 2282, 2308, 2162, 2515
6922, 1589, 352, 1259, 2461
6923, 724, 725, 726, 2383
6924, 589, 485, 522, 2362
6925, 748, 770, 749, 2354
6926, 1254, 349, 1511, 2535
6927, 1471, 1470, 1469, 2500
6928, 393, 1200, 1558, 2411
6929, 2273, 2302, 2178, 2476
6930, 1847, 709, 9, 477
6931, 1270, 15, 478, 1846
6932, 186, 1974, 1981, 1020
6933, 369, 1581, 1983, 1972
6934, 1582, 1651, 324, 1662
6935, 112, 1021, 1661, 1653
6936, 1038, 972, 715, 2420
6937, 970, 957, 717, 2497
6938, 321, 1652, 1574, 1663
6939, 1660, 1013, 109, 1654
6940, 1539, 1276, 1323, 2564
6941, 1626, 1402, 1497, 2519
6942, 2051, 340, 1468, 2530
6943, 2140, 2290, 2275, 2540
6944, 1534, 1115, 307, 2524
6945, 1856, 1944, 1947, 2501
6946, 971, 1038, 1015, 2450
6947, 1983, 1972, 1581, 2415
6948, 1914, 217, 984, 2344
6949, 2285, 2303, 2140, 2467
6950, 921, 1073, 1088, 2475
6951, 301, 1107, 1148, 2562
6952, 174, 2069, 1984, 2517
6953, 1591, 1408, 1645, 2518
6954, 809, 1803, 245, 2389
6955, 545, 490, 20, 2372
6956, 977, 2328, 981, 2533
6957, 1841, 1833, 1791, 2532
6958, 2051, 1994, 340, 2530
6959, 930, 1037, 931, 2460
6960, 1660, 1657, 615, 2448
6961, 1124, 1148, 1171, 2562
6962, 722, 748, 723, 2574
6963, 1596, 1615, 1379, 2387
6964, 2158, 2270, 2287, 2488
6965, 1536, 1280, 1526, 2545
6966, 438, 1216, 1377, 2544
6967, 1425, 1424, 1426, 2466
6968, 1558, 1200, 1451, 2411
6969, 2282, 2308, 2148, 2547
6970, 2174, 2369, 2259, 2471
6971, 630, 221, 1906, 986
6972, 528, 529, 568, 2317
6973, 2061, 2074, 2079, 2397
6974, 1970, 1978, 1979, 2329
6975, 819, 820, 818, 2472
6976, 682, 944, 28, 573
6977, 860, 647, 1087, 2330
6978, 608, 489, 542, 2366
6979, 2116, 1976, 1980, 2481
6980, 1485, 2048, 2375, 2476
6981, 730, 729, 731, 2349
6982, 2008, 2075, 2077, 2266
6983, 575, 576, 555, 2267
6984, 632, 1678, 279, 2546
6985, 2166, 2290, 2275, 2530
6986, 1519, 1523, 1531, 2424
6987, 546, 71, 1369, 1239
6988, 807, 607, 24, 678
6989, 2133, 2294, 2280, 2527
6990, 853, 174, 701, 2517
6991, 1187, 1352, 1553, 2522
6992, 2279, 2309, 2138, 2555
6993, 2047, 2108, 2072, 2270
6994, 1189, 406, 1548, 1900
6995, 2302, 2476, 2273, 2583
6996, 1959, 1930, 1886, 2330
6997, 1365, 1505, 1241, 2351
6998, 1588, 1541, 1575, 2571
6999, 2255, 2398, 2142, 2502
7000, 1709, 1692, 1764, 2572
7001, 1013, 1660, 1071, 2448
7002, 534, 597, 599, 2283
7003, 1679, 1747, 1766, 2269
7004, 1865, 1977, 1966, 2415
7005, 808, 678, 25, 488
7006, 2160, 2391, 2333, 2566
7007, 1918, 1858, 1939, 2503
7008, 912, 953, 889, 2381
7009, 2007, 2101, 2102, 2523
7010, 502, 616, 565, 2245
7011, 894, 688, 892, 2505
7012, 2174, 2335, 2284, 2483
7013, 133, 1139, 1134, 2437
7014, 2274, 2293, 2123, 2461
7015, 1987, 2113, 2096, 2419
7016, 967, 966, 1027, 2323
7017, 1809, 1799, 418, 2508
7018, 1767, 1706, 1757, 2417
7019, 1292, 1605, 1314, 2307
7020, 1145, 1153, 1090, 2284
7021, 1057, 997, 641, 2503
7022, 1506, 1458, 1199, 2417
7023, 1346, 1235, 1646, 2457
7024, 773, 779, 734, 2470
7025, 1525, 1522, 1526, 2469
7026, 1350, 1574, 1578, 2245
7027, 299, 1227, 1168, 2502
7028, 545, 20, 786, 2372
7029, 492, 580, 609, 2482
7030, 1609, 1556, 1195, 2456
7031, 554, 612, 595, 2462
7032, 1466, 1465, 1467, 2406
7033, 2111, 2023, 2022, 2316
7034, 815, 823, 824, 2353
7035, 681, 930, 931, 2460
7036, 2140, 2303, 2285, 2528
7037, 901, 899, 982, 2380
7038, 1621, 1486, 1487, 2458
7039, 1202, 1618, 1593, 2268
7040, 2332, 2350, 2153, 2535
7041, 1496, 98, 560, 2477
7042, 632, 279, 990, 2546
7043, 1826, 1841, 1791, 2532
7044, 1956, 1890, 1929, 2431
7045, 744, 727, 728, 2557
7046, 1018, 1072, 1980, 2481
7047, 944, 680, 27, 2482
7048, 1007, 746, 1004, 2496
7049, 1790, 245, 1803, 2389
7050, 1885, 2331, 1209, 2343
7051, 1057, 865, 1009, 2371
7052, 987, 1902, 223, 627
7053, 418, 1799, 1533, 2508
7054, 1208, 1635, 1610, 2403
7055, 792, 785, 674, 2249
7056, 1861, 996, 202, 2370
7057, 777, 721, 1019, 2263
7058, 924, 679, 151, 2414
7059, 1445, 1248, 1443, 2514
7060, 1685, 1774, 1746, 2387
7061, 1776, 1665, 1743, 2394
7062, 801, 799, 800, 2422
7063, 1782, 1681, 1656, 2357
7064, 1501, 1555, 1619, 2445
7065, 1582, 1296, 1641, 2253
7066, 1324, 1308, 1224, 2573
7067, 747, 772, 2471, 2536
7068, 723, 748, 749, 2354
7069, 385, 1557, 1882, 2343
7070, 1424, 1593, 1618, 2268
7071, 1058, 1033, 642, 2339
7072, 1928, 1861, 202, 2370
7073, 301, 1515, 1229, 2562
7074, 853, 2069, 174, 2517
7075, 1775, 1726, 1727, 2256
7076, 1538, 1542, 1541, 2571
7077, 2163, 2270, 2458, 2488
7078, 837, 846, 2442, 2566
7079, 958, 672, 957, 2491
7080, 1616, 2409, 1403, 2516
7081, 1009, 891, 1057, 2579
7082, 1231, 1523, 1529, 2479
7083, 676, 571, 23, 807
7084, 744, 728, 745, 2288
7085, 1660, 1013, 1654, 2448
7086, 1339, 1644, 1234, 2552
7087, 1928, 202, 647, 2370
7088, 1339, 1337, 1644, 2552
7089, 1818, 428, 1277, 2561
7090, 1567, 1274, 1569, 2556
7091, 919, 986, 630, 2240
7092, 1769, 1728, 1754, 2310
7093, 1379, 1380, 1378, 2400
7094, 1406, 1645, 1408, 2548
7095, 581, 570, 546, 2325
7096, 1267, 1497, 360, 2519
7097, 712, 722, 711, 2511
7098, 1693, 1759, 1707, 2456
7099, 1592, 1542, 1538, 2262
7100, 1314, 1178, 1313, 2382
7101, 502, 615, 1657, 2448
7102, 970, 969, 962, 2423
7103, 986, 222, 1877, 627
7104, 2260, 2539, 2119, 2577
7105, 689, 1009, 934, 2494
7106, 1671, 281, 629, 2487
7107, 754, 955, 724, 2327
7108, 1976, 2116, 2004, 2481
7109, 1008, 713, 1006, 2537
7110, 1175, 1142, 113, 1062
7111, 1623, 292, 1176, 1143
7112, 1061, 141, 1174, 1140
7113, 60, 564, 614, 1062
7114, 1623, 613, 106, 563
7115, 2115, 185, 1061, 2066
7116, 1776, 1743, 1723, 2394
7117, 1840, 1827, 1810, 2420
7118, 1702, 1746, 1774, 2387
7119, 299, 1319, 1227, 2502
7120, 1980, 1973, 1018, 2481
7121, 1885, 1871, 386, 2331
7122, 1899, 1945, 1852, 2443
7123, 1255, 1429, 1510, 2492
7124, 1790, 716, 245, 2389
7125, 993, 281, 1722, 2487
7126, 1144, 1167, 1135, 2573
7127, 217, 1869, 633, 2344
7128, 307, 1232, 1534, 2524
7129, 1190, 404, 1547, 1958
7130, 1049, 1074, 648, 2336
7131, 2338, 2397, 2128, 2519
7132, 386, 1871, 1421, 2331
7133, 1964, 1932, 1867, 2470
7134, 750, 723, 749, 2499
7135, 2147, 2510, 2371, 2579
7136, 1496, 1266, 98, 2477
7137, 2023, 2111, 2069, 2517
7138, 2318, 2436, 2185, 2440
7139, 785, 792, 791, 2454
7140, 2307, 2419, 2145, 2567
7141, 1416, 1420, 1425, 2326
7142, 2079, 2082, 2030, 2338
7143, 750, 1006, 1005, 2504
7144, 1284, 1311, 1310, 2453
7145, 1934, 1863, 1948, 2324
7146, 1661, 1782, 473, 1656
7147, 1662, 1656, 474, 1783
7148, 2371, 2510, 2131, 2579
7149, 1019, 788, 1018, 2481
7150, 914, 633, 911, 2344
7151, 630, 921, 920, 2475
7152, 1938, 1888, 1951, 2411
7153, 301, 1148, 1515, 2562
7154, 1015, 668, 974, 2534
7155, 993, 1722, 282, 2576
7156, 802, 680, 804, 2482
7157, 1138, 127, 963, 2582
7158, 574, 605, 525, 2484
7159, 2285, 2467, 2140, 2500
7160, 2235, 2467, 2285, 2500
7161, 1017, 1013, 789, 2448
7162, 428, 1370, 1277, 2561
7163, 868, 694, 949, 2513
7164, 819, 818, 817, 2473
7165, 1827, 1789, 1830, 2497
7166, 1875, 1941, 1950, 2295
7167, 1999, 2033, 2089, 2451
7168, 958, 960, 959, 2570
7169, 1486, 1236, 1487, 2458
7170, 500, 577, 558, 2563
7171, 418, 1533, 1276, 2508
7172, 989, 795, 628, 2541
7173, 928, 923, 927, 2287
7174, 775, 778, 776, 2412
7175, 1308, 1333, 1307, 2509
7176, 1014, 1027, 966, 2323
7177, 2279, 2209, 2377, 2507
7178, 564, 60, 733, 1062
7179, 106, 1294, 1623, 563
7180, 732, 1061, 185, 2066
7181, 1793, 1843, 1836, 2496
7182, 1089, 130, 669, 2558
7183, 2110, 2039, 2040, 2309
7184, 1977, 479, 1981, 1967
7185, 1983, 1966, 480, 1977
7186, 1152, 1151, 1120, 2306
7187, 692, 876, 1068, 2560
7188, 979, 130, 1119, 2558
7189, 725, 712, 947, 2580
7190, 62, 1657, 1663, 616
7191, 1660, 61, 615, 1657
7192, 2059, 2076, 2020, 2494
7193, 1703, 1770, 1695, 2445
7194, 965, 961, 964, 2529
7195, 1031, 981, 1041, 2533
7196, 961, 963, 671, 2582
7197, 2117, 1982, 482, 1976
7198, 1976, 481, 2116, 1980
7199, 1192, 1649, 1493, 2489
7200, 332, 2009, 1238, 2583
7201, 1079, 721, 777, 2263
7202, 1885, 386, 1209, 2331
7203, 847, 1030, 1084, 2301
7204, 1513, 1244, 1470, 2528
7205, 895, 937, 688, 2527
7206, 1720, 1666, 1748, 2340
7207, 647, 202, 996, 2370
7208, 1309, 1283, 1284, 2407
7209, 1855, 1905, 220, 2475
7210, 1670, 1035, 253, 2551
7211, 314, 1224, 1091, 2573
7212, 1898, 1940, 1949, 2300
7213, 1397, 1395, 1404, 2421
7214, 1935, 1933, 1900, 2410
7215, 2009, 2476, 1238, 2583
7216, 1283, 1309, 1516, 2407
7217, 1323, 1577, 1321, 2305
7218, 1956, 1924, 1890, 2431
7219, 2060, 2077, 2075, 2266
7220, 505, 576, 575, 2267
7221, 299, 1109, 1319, 2502
7222, 840, 841, 839, 2401
7223, 1614, 1598, 1483, 2486
7224, 1959, 1886, 1928, 2330
7225, 1312, 1310, 1311, 2453
7226, 1876, 400, 1894, 2543
7227, 1571, 1494, 1251, 2531
7228, 735, 1737, 2357, 2525
7229, 1428, 1437, 1432, 2384
7230, 1518, 1233, 1519, 2550
7231, 1295, 1340, 1334, 2348
7232, 1476, 1468, 1246, 2530
7233, 993, 629, 281, 2487
7234, 1515, 1577, 1229, 2562
7235, 1385, 1376, 1372, 2261
7236, 2190, 2539, 2260, 2577
7237, 1768, 1758, 1691, 2304
7238, 126, 1138, 963, 2581
7239, 1287, 1285, 1315, 2459
7240, 1340, 1580, 1338, 2319
7241, 1798, 1828, 1816, 2550
7242, 1502, 1461, 1247, 2547
7243, 858, 861, 856, 2438
7244, 1166, 1135, 1145, 2542
7245, 1039, 1065, 842, 2465
7246, 1411, 1413, 1606, 2293
7247, 1381, 1601, 1627, 2464
7248, 1425, 1415, 1416, 2326
7249, 1407, 1393, 1394, 2391
7250, 1480, 1484, 1478, 2302
7251, 780, 1716, 288, 2525
7252, 1484, 1480, 1547, 2526
7253, 1319, 1225, 1312, 2569
7254, 1671, 1722, 281, 2487
7255, 1381, 1615, 1564, 2464
7256, 1002, 842, 1055, 2465
7257, 560, 1496, 2477, 2568
7258, 766, 764, 772, 2471
7259, 1138, 963, 2581, 2582
7260, 1581, 1642, 1295, 2415
7261, 809, 245, 716, 2389
7262, 632, 990, 803, 2546
7263, 1037, 1053, 922, 2485
7264, 885, 687, 951, 2555
7265, 385, 1209, 1557, 2343
7266, 1325, 1324, 1226, 2542
7267, 670, 968, 962, 2520
7268, 651, 199, 1889, 2553
7269, 1491, 1242, 1492, 2512
7270, 1265, 97, 503, 2568
7271, 141, 1061, 1022, 1140
7272, 1023, 113, 1142, 1062
7273, 1623, 1584, 292, 1143
7274, 1029, 665, 765, 2437
7275, 97, 1496, 560, 2568
7276, 299, 1168, 1109, 2502
7277, 1196, 1544, 1471, 2501
7278, 1080, 735, 1021, 2357
7279, 1071, 615, 789, 2448
7280, 865, 1057, 863, 2371
7281, 1761, 1765, 1725, 2368
7282, 1385, 1384, 1376, 2578
7283, 1190, 1482, 1634, 2393
7284, 1288, 1305, 1289, 2281
7285, 1570, 1618, 1452, 2510
7286, 431, 1568, 1802, 2495
7287, 788, 2116, 1072, 2481
7288, 1876, 1545, 400, 2543
7289, 2030, 2061, 2079, 2519
7290, 1319, 1109, 298, 2569
7291, 1300, 1298, 1299, 2292
7292, 1304, 1303, 1302, 2291
7293, 753, 617, 1022, 2478
7294, 126, 968, 1100, 2581
7295, 961, 965, 959, 2529
7296, 628, 282, 1694, 2576
7297, 897, 898, 895, 2280
7298, 1373, 1375, 1382, 2436
7299, 1473, 1469, 1476, 2275
7300, 1744, 1723, 1777, 2396
7301, 834, 853, 701, 2517
7302, 1347, 2337, 511, 2565
7303, 1319, 1320, 1227, 2502
7304, 932, 631, 984, 2433
7305, 959, 960, 961, 2299
7306, 1820, 1565, 431, 2495
7307, 597, 517, 599, 2283
7308, 1402, 1401, 1400, 2402
7309, 1342, 1344, 1345, 2356
7310, 1245, 1499, 1465, 2549
7311, 199, 1011, 1853, 2553
7312, 1477, 2052, 332, 2583
7313, 431, 1802, 1820, 2495
7314, 2097, 2105, 2006, 2333
7315, 1860, 1937, 1930, 2427
7316, 1629, 1253, 1494, 2484
7317, 288, 1737, 735, 2525
7318, 1477, 332, 1238, 2583
7319, 1789, 1811, 1830, 2497
7320, 1873, 1960, 1927, 2393
7321, 587, 523, 601, 2313
7322, 620, 1019, 1018, 2329
7323, 1236, 1488, 1487, 2488
7324, 1511, 1417, 1254, 2535
7325, 852, 850, 1045, 2408
7326, 1319, 2502, 1109, 2569
7327, 1089, 1119, 130, 2558
7328, 531, 515, 591, 2468
7329, 1374, 1375, 1373, 2289
7330, 887, 885, 888, 2279
7331, 1722, 993, 2487, 2576
7332, 553, 520, 577, 2531
7333, 1605, 1503, 2307, 2567
7334, 1762, 1771, 1711, 2321
7335, 1144, 1324, 314, 2573
7336, 2038, 2098, 2014, 2460
7337, 1121, 1163, 1110, 2479
7338, 1455, 1500, 1454, 2399
7339, 1533, 1599, 1276, 2508
7340, 628, 993, 282, 2576
7341, 1166, 1144, 1135, 2542
7342, 1008, 759, 761, 2388
7343, 977, 980, 981, 2328
7344, 876, 2341, 875, 2560
7345, 1422, 1419, 1417, 2332
7346, 1792, 1813, 1834, 2537
7347, 791, 782, 785, 2454
7348, 775, 776, 774, 2412
7349, 366, 1182, 2064, 2567
7350, 1336, 1552, 1184, 2428
7351, 904, 905, 906, 2376
7352, 127, 1112, 671, 2582
7353, 891, 1009, 883, 2579
7354, 1010, 690, 933, 2563
7355, 1287, 1286, 1285, 2311
7356, 40, 527, 694, 2559
7357, 789, 615, 566, 2448
7358, 1136, 1158, 1107, 2474
7359, 1885, 1882, 1962, 2343
7360, 1181, 1580, 1642, 2319
7361, 491, 572, 604, 2444
7362, 1857, 1953, 1899, 2506
7363, 1571, 1501, 1619, 2392
7364, 1354, 1356, 1355, 2395
7365, 2116, 788, 2068, 2481
7366, 1888, 1938, 1864, 2411
7367, 1235, 548, 66, 2337
7368, 912, 915, 908, 2540
7369, 1822, 1842, 1814, 2418
7370, 1470, 1471, 1472, 2500
7371, 1996, 2102, 2028, 2523
7372, 1378, 1380, 1638, 2400
7373, 2003, 1102, 290, 291
7374, 1291, 1292, 1290, 2342
7375, 1517, 1290, 1313, 2358
7376, 288, 1716, 1737, 2525
7377, 1532, 1530, 1576, 2452
7378, 629, 993, 799, 2487
7379, 1570, 1250, 1495, 2575
7380, 1694, 282, 1722, 2576
7381, 405, 1189, 1547, 2526
7382, 501, 108, 107, 1101
7383, 528, 568, 560, 2477
7384, 1484, 1547, 1189, 2526
7385, 761, 760, 762, 2346
7386, 794, 796, 795, 2296
7387, 492, 551, 580, 2482
7388, 1448, 1449, 1446, 2507
7389, 1782, 473, 1656, 1681
7390, 1681, 474, 1656, 1783
7391, 1463, 1462, 1461, 2282
7392, 573, 609, 539, 2271
7393, 1840, 1810, 1826, 2420
7394, 814, 812, 821, 2440
7395, 97, 560, 503, 2568
7396, 1478, 1477, 1238, 2583
7397, 1657, 62, 502, 616
7398, 502, 615, 61, 1657
7399, 127, 1138, 1112, 2582
7400, 1406, 1407, 1398, 2548
7401, 1976, 482, 2117, 2004
7402, 2004, 1976, 481, 2116
7403, 1786, 1828, 1811, 2491
7404, 979, 669, 130, 2558
7405, 1344, 1643, 1345, 2356
7406, 827, 828, 697, 2539
7407, 1324, 1224, 314, 2573
7408, 696, 1036, 1056, 2361
7409, 1617, 1597, 1257, 2360
7410, 1835, 1797, 1818, 2561
7411, 1575, 1525, 1527, 2272
7412, 589, 568, 485, 2362
7413, 603, 579, 507, 2359
7414, 963, 960, 968, 2581
7415, 35, 36, 892, 532
7416, 160, 161, 2033, 882
7417, 343, 1443, 2032, 344
7418, 2055, 155, 156, 683
7419, 81, 80, 1249, 531
7420, 34, 35, 688, 496
7421, 339, 338, 1993, 1244
7422, 342, 1248, 2021, 343
7423, 789, 1071, 17, 615
7424, 1632, 1350, 63, 616
7425, 2011, 154, 155, 952
7426, 337, 1513, 2043, 338
7427, 1605, 1503, 1314, 2307
7428, 82, 81, 1453, 515
7429, 859, 857, 855, 2447
7430, 1640, 1337, 1338, 2554
7431, 1731, 1670, 253, 2551
7432, 80, 79, 1498, 514
7433, 937, 33, 34, 536
7434, 586, 498, 559, 2492
7435, 1519, 1520, 1521, 2432
7436, 286, 992, 285, 1720
7437, 788, 2116, 142, 1072
7438, 325, 1633, 2117, 1349
7439, 314, 1091, 1144, 2573
7440, 1553, 1684, 469, 468
7441, 758, 119, 120, 1127
7442, 994, 1058, 642, 2339
7443, 1703, 1680, 1755, 2538
7444, 1885, 1886, 1871, 2331
7445, 751, 750, 749, 2499
7446, 520, 605, 574, 2484
7447, 479, 1977, 1865, 1967
7448, 480, 1966, 1865, 1977
7449, 829, 828, 827, 2539
7450, 530, 95, 96, 1392
7451, 1817, 1841, 1809, 2564
7452, 2038, 153, 154, 681
7453, 336, 1242, 1992, 337
7454, 901, 902, 900, 2515
7455, 831, 49, 50, 516
7456, 1860, 1892, 1937, 2427
7457, 1306, 1308, 1307, 2509
7458, 511, 549, 65, 2565
7459, 1131, 1146, 1170, 2314
7460, 97, 1265, 1496, 2568
7461, 126, 1100, 1138, 2581
7462, 1398, 1407, 1394, 2391
7463, 199, 1853, 1889, 2553
7464, 32, 33, 686, 494
7465, 1247, 79, 78, 550
7466, 284, 285, 625, 1666
7467, 850, 852, 851, 2408
7468, 1534, 1232, 1525, 2524
7469, 386, 1421, 1209, 2331
7470, 1927, 1960, 1907, 2393
7471, 651, 1011, 199, 2553
7472, 941, 31, 32, 540
7473, 78, 77, 1502, 513
7474, 1185, 1736, 470, 469
7475, 624, 286, 287, 1664
7476, 680, 944, 804, 2482
7477, 1905, 1073, 220, 2475
7478, 2040, 2070, 2110, 2555
7479, 1116, 129, 128, 973
7480, 1115, 308, 1534, 307
7481, 1474, 1470, 1472, 2285
7482, 476, 1795, 1844, 2480
7483, 859, 855, 864, 2447
7484, 40, 524, 527, 2559
7485, 1030, 847, 849, 2301
7486, 780, 288, 735, 2525
7487, 1193, 462, 461, 1718
7488, 279, 632, 278, 1678
7489, 847, 845, 846, 2442
7490, 1487, 1488, 1489, 2488
7491, 993, 628, 797, 2576
7492, 1119, 131, 130, 979
7493, 1360, 1359, 1358, 2378
7494, 1540, 309, 1106, 310
7495, 674, 20, 490, 2372
7496, 309, 1126, 308, 1230
7497, 1089, 130, 129, 669
7498, 909, 913, 911, 2467
7499, 1337, 1336, 1335, 2345
7500, 837, 833, 846, 2566
7501, 652, 258, 259, 1704
7502, 1686, 1213, 441, 442
7503, 1442, 1563, 1600, 2516
7504, 332, 333, 1238, 2009
7505, 529, 606, 568, 2317
7506, 1225, 1319, 298, 2569
7507, 1236, 330, 331, 2010
7508, 334, 335, 1240, 2013
7509, 151, 152, 2054, 679
7510, 1831, 1824, 1796, 2545
7511, 1719, 1757, 1706, 2417
7512, 159, 160, 1999, 687
7513, 1778, 1729, 1764, 2572
7514, 2053, 1491, 336, 335
7515, 2014, 152, 153, 930
7516, 2009, 332, 2052, 2583
7517, 1231, 304, 303, 1110
7518, 124, 125, 670, 1137
7519, 1240, 1614, 1485, 2375
7520, 1259, 1411, 1589, 2461
7521, 2079, 2056, 2082, 2338
7522, 567, 498, 610, 2493
7523, 410, 1184, 409, 1848
7524, 1958, 1907, 1926, 2526
7525, 511, 65, 1347, 2565
7526, 1520, 1526, 1522, 2469
7527, 755, 1043, 943, 2286
7528, 349, 350, 1511, 2058
7529, 166, 167, 2057, 950
7530, 231, 232, 1792, 1006
7531, 1567, 414, 415, 1814
7532, 805, 1048, 995, 2334
7533, 2015, 156, 157, 907
7534, 468, 1187, 1715, 467
7535, 123, 124, 974, 1098
7536, 302, 1535, 303, 1136
7537, 122, 123, 668, 1122
7538, 1568, 431, 1565, 2495
7539, 2083, 2048, 2009, 2476
7540, 1849, 1958, 1926, 2526
7541, 340, 339, 2051, 1468
7542, 780, 735, 790, 2525
7543, 2092, 2034, 2081, 2363
7544, 1803, 245, 246, 809
7545, 429, 1797, 1370, 428
7546, 1252, 347, 2036, 346
7547, 2000, 163, 164, 691
7548, 1880, 1934, 1948, 2324
7549, 127, 671, 963, 2582
7550, 1454, 1501, 1571, 2392
7551, 559, 87, 88, 1510
7552, 949, 41, 42, 518
7553, 217, 633, 984, 2344
7554, 1591, 1412, 1410, 2518
7555, 1346, 1353, 1235, 2457
7556, 899, 901, 900, 2380
7557, 747, 746, 772, 2536
7558, 684, 30, 31, 491
7559, 40, 866, 524, 2559
7560, 1524, 306, 305, 1132
7561, 963, 126, 127, 1138
7562, 2001, 169, 170, 698
7563, 352, 353, 1259, 2026
7564, 1961, 1953, 1857, 2506
7565, 1838, 1796, 1824, 2545
7566, 44, 45, 697, 533
7567, 519, 90, 91, 1258
7568, 1120, 315, 316, 1332
7569, 136, 137, 771, 1104
7570, 77, 76, 1245, 556
7571, 1353, 1346, 1352, 2457
7572, 889, 915, 912, 2381
7573, 647, 996, 1076, 2370
7574, 977, 981, 1031, 2533
7575, 1035, 658, 253, 2551
7576, 804, 805, 803, 2374
7577, 1235, 66, 1347, 2337
7578, 1389, 1391, 1390, 2577
7579, 198, 199, 1889, 651
7580, 1545, 1475, 1194, 2543
7581, 1330, 317, 1118, 318
7582, 769, 138, 139, 1113
7583, 979, 980, 669, 2558
7584, 419, 1533, 418, 1799
7585, 532, 496, 591, 2505
7586, 527, 586, 518, 2513
7587, 1636, 1384, 1386, 2521
7588, 601, 504, 587, 2313
7589, 797, 798, 799, 2416
7590, 333, 334, 1485, 2048
7591, 1070, 1782, 1661, 2357
7592, 615, 17, 789, 566
7593, 1350, 565, 63, 616
7594, 150, 151, 1989, 924
7595, 1966, 1919, 1865, 2415
7596, 1194, 1894, 400, 2543
7597, 2046, 2047, 2010, 2458
7598, 142, 2068, 2116, 788
7599, 2117, 325, 1349, 2067
7600, 2076, 2037, 1997, 2575
7601, 1386, 2521, 1384, 2578
7602, 1523, 1530, 1531, 2424
7603, 253, 658, 1731, 2551
7604, 538, 556, 604, 2549
7605, 134, 133, 1134, 665
7606, 939, 894, 893, 2352
7607, 161, 162, 2020, 689
7608, 345, 344, 1997, 1250
7609, 1414, 357, 358, 2022
7610, 362, 361, 1988, 1441
7611, 1755, 1680, 1767, 2538
7612, 179, 178, 880, 2018
7613, 990, 279, 280, 1721
7614, 747, 772, 764, 2471
7615, 1700, 1383, 440, 441
7616, 822, 257, 258, 1668
7617, 2019, 167, 168, 695
7618, 350, 351, 1256, 1998
7619, 38, 39, 692, 497
7620, 460, 1556, 461, 1693
7621, 278, 995, 277, 1730
7622, 328, 329, 1234, 2045
7623, 149, 150, 2042, 677
7624, 462, 1689, 1550, 463
7625, 993, 281, 282, 1722
7626, 843, 834, 836, 2278
7627, 1848, 1908, 1909, 2428
7628, 2025, 2105, 2097, 2333
7629, 125, 126, 968, 1100
7630, 1529, 305, 304, 1121
7631, 2017, 1503, 366, 2567
7632, 968, 126, 963, 2581
7633, 116, 115, 1108, 768
7634, 1030, 650, 1084, 2498
7635, 1942, 1869, 1914, 2344
7636, 746, 747, 745, 2536
7637, 265, 266, 874, 1705
7638, 1699, 448, 449, 1435
7639, 183, 182, 621, 2063
7640, 1183, 104, 103, 521
7641, 58, 57, 562, 622
7642, 365, 1182, 2064, 366
7643, 1341, 470, 1683, 471
7644, 288, 780, 287, 1716
7645, 467, 1549, 1714, 466
7646, 989, 283, 284, 1717
7647, 1825, 1806, 1839, 2322
7648, 242, 243, 1801, 718
7649, 730, 731, 740, 2349
7650, 1457, 1456, 1458, 2373
7651, 2021, 2089, 2032, 2514
7652, 837, 846, 845, 2442
7653, 626, 1059, 988, 2390
7654, 2102, 2101, 2028, 2523
7655, 301, 1229, 302, 1107
7656, 1630, 1966, 1983, 2415
7657, 581, 488, 570, 2325
7658, 955, 748, 722, 2574
7659, 744, 956, 727, 2557
7660, 1852, 1945, 1924, 2443
7661, 806, 792, 674, 2249
7662, 794, 795, 793, 2296
7663, 911, 913, 914, 2404
7664, 1821, 1843, 1793, 2496
7665, 629, 280, 281, 1671
7666, 1100, 1137, 1163, 2520
7667, 1710, 1771, 1762, 2321
7668, 877, 876, 875, 2560
7669, 233, 232, 713, 1813
7670, 416, 1274, 415, 1800
7671, 408, 1186, 407, 1878
7672, 1996, 165, 166, 693
7673, 348, 349, 1254, 2049
7674, 48, 49, 702, 557
7675, 94, 95, 483, 1263
7676, 2064, 2017, 366, 2567
7677, 1328, 1326, 1602, 2483
7678, 1400, 1397, 1404, 2421
7679, 1333, 1308, 1325, 2369
7680, 543, 89, 90, 1597
7681, 43, 44, 1036, 499
7682, 858, 856, 857, 2438
7683, 275, 276, 985, 1725
7684, 1546, 459, 458, 1672
7685, 1019, 620, 1081, 2329
7686, 364, 2027, 1318, 363
7687, 526, 56, 55, 756
7688, 757, 181, 180, 1986
7689, 1483, 1481, 1614, 2486
7690, 1122, 1158, 1098, 2534
7691, 102, 101, 1317, 484
7692, 1661, 1656, 1653, 2357
7693, 1694, 1751, 1717, 2541
7694, 1130, 118, 117, 770
7695, 1012, 259, 260, 1669
7696, 1761, 1672, 1765, 2368
7697, 1539, 416, 417, 1817
7698, 477, 1794, 1847, 2367
7699, 1225, 298, 1169, 2569
7700, 634, 276, 277, 1687
7701, 460, 459, 1195, 1707
7702, 931, 1037, 932, 2386
7703, 1733, 443, 1573, 442
7704, 88, 89, 506, 1257
7705, 42, 43, 696, 537
7706, 549, 1281, 65, 2565
7707, 36, 37, 690, 500
7708, 340, 1994, 341, 1246
7709, 358, 1264, 2005, 359
7710, 234, 233, 978, 1791
7711, 1425, 1628, 1252, 2466
7712, 239, 238, 672, 1786
7713, 1518, 420, 421, 1798
7714, 1444, 1451, 1445, 2449
7715, 1168, 1147, 1109, 2502
7716, 266, 267, 644, 1697
7717, 1679, 449, 450, 1205
7718, 97, 96, 1265, 503
7719, 890, 883, 884, 2446
7720, 389, 390, 1204, 1863
7721, 254, 253, 1670, 1035
7722, 194, 193, 1034, 1854
7723, 1053, 679, 924, 2414
7724, 388, 389, 1423, 1887
7725, 1616, 1403, 1563, 2516
7726, 206, 207, 1880, 643
7727, 1925, 1957, 1850, 2390
7728, 2079, 2074, 1985, 2397
7729, 1552, 408, 409, 1908
7730, 1920, 1964, 1867, 2470
7731, 2098, 1992, 2053, 2512
7732, 372, 1579, 371, 1971
7733, 1973, 188, 189, 1018
7734, 954, 121, 122, 1123
7735, 872, 263, 264, 1709
7736, 1688, 446, 447, 1433
7737, 137, 138, 661, 1114
7738, 1222, 316, 1093, 317
7739, 341, 1512, 2039, 342
7740, 1901, 1964, 1919, 2348
7741, 1366, 1365, 1364, 2405
7742, 145, 146, 1991, 673
7743, 418, 1276, 417, 1809
7744, 1053, 920, 922, 2485
7745, 1741, 1779, 1702, 2544
7746, 932, 914, 931, 2386
7747, 615, 1071, 1660, 2448
7748, 1327, 1326, 1328, 2483
7749, 2035, 168, 169, 1028
7750, 351, 352, 1589, 2029
7751, 726, 725, 736, 2383
7752, 110, 109, 1013, 1654
7753, 1574, 322, 1652, 321
7754, 346, 345, 2037, 1495
7755, 162, 163, 2059, 934
7756, 426, 425, 1788, 1279
7757, 542, 571, 608, 2366
7758, 1903, 401, 1192, 402
7759, 1862, 218, 219, 631
7760, 628, 282, 283, 1694
7761, 1492, 1475, 1493, 2439
7762, 295, 294, 1329, 1129
7763, 1728, 447, 448, 1207
7764, 265, 646, 264, 1676
7765, 241, 242, 1805, 967
7766, 2100, 2026, 2029, 2461
7767, 1421, 386, 387, 1871
7768, 135, 136, 663, 1125
7769, 331, 332, 1477, 2052
7770, 1673, 1779, 1741, 2544
7771, 1011, 651, 845, 2553
7772, 1850, 224, 225, 626
7773, 674, 786, 20, 2372
7774, 1361, 1360, 1362, 2490
7775, 40, 41, 694, 527
7776, 356, 357, 1262, 2024
7777, 385, 1557, 384, 1882
7778, 27, 28, 944, 492
7779, 1505, 74, 73, 552
7780, 630, 1855, 220, 2475
7781, 1224, 314, 1091, 315
7782, 617, 753, 752, 2478
7783, 298, 1109, 1169, 2569
7784, 1353, 1367, 1235, 2457
7785, 170, 171, 2041, 848
7786, 1409, 353, 354, 2016
7787, 1133, 115, 114, 618
7788, 984, 633, 914, 2344
7789, 1809, 1810, 1799, 2508
7790, 539, 604, 572, 2444
7791, 603, 535, 579, 2359
7792, 1800, 1814, 1834, 2556
7793, 498, 86, 87, 1255
7794, 1984, 173, 174, 701
7795, 76, 75, 1499, 538
7796, 294, 293, 1179, 1095
7797, 199, 200, 1853, 1011
7798, 1983, 1977, 1972, 2415
7799, 1935, 1902, 1933, 2410
7800, 1439, 100, 99, 487
7801, 430, 1802, 431, 1568
7802, 1007, 248, 247, 1793
7803, 1897, 213, 214, 953
7804, 1514, 1875, 396, 397
7805, 1842, 1823, 1792, 2504
7806, 40, 694, 866, 2559
7807, 1506, 455, 454, 1706
7808, 945, 271, 272, 1713
7809, 1980, 1072, 2116, 2481
7810, 394, 1893, 395, 1509
7811, 211, 212, 1898, 948
7812, 1107, 1171, 1148, 2562
7813, 1112, 128, 127, 671
7814, 307, 1094, 306, 1232
7815, 91, 92, 534, 1387
7816, 826, 45, 46, 517
7817, 2069, 2111, 1984, 2517
7818, 2116, 2068, 2004, 2481
7819, 132, 131, 1103, 667
7820, 1678, 1763, 1721, 2546
7821, 1178, 318, 1111, 319
7822, 139, 140, 617, 1092
7823, 2092, 2081, 2031, 2363
7824, 1505, 1365, 1611, 2351
7825, 1892, 205, 206, 862
7826, 83, 82, 1251, 553
7827, 1823, 230, 231, 1005
7828, 414, 1566, 413, 1822
7829, 1203, 1619, 1555, 2445
7830, 588, 511, 548, 2337
7831, 550, 584, 513, 2547
7832, 1105, 135, 134, 763
7833, 238, 237, 957, 1811
7834, 273, 274, 982, 1712
7835, 457, 456, 1543, 1691
7836, 1233, 421, 422, 1816
7837, 2043, 2086, 1993, 2528
7838, 1782, 1737, 1681, 2357
7839, 329, 330, 1486, 2046
7840, 2049, 2093, 2058, 2535
7841, 1319, 299, 298, 1109
7842, 876, 871, 875, 2341
7843, 51, 50, 522, 704
7844, 536, 593, 496, 2527
7845, 1928, 1962, 1861, 2370
7846, 1711, 1215, 439, 440
7847, 654, 256, 257, 1710
7848, 2028, 164, 165, 854
7849, 1415, 347, 348, 2007
7850, 1508, 1586, 1624, 2425
7851, 1625, 1585, 1507, 2426
7852, 1479, 1238, 1485, 2476
7853, 1058, 940, 1010, 2385
7854, 117, 116, 1128, 662
7855, 1696, 256, 255, 816
7856, 111, 110, 619, 1650
7857, 1180, 323, 1655, 322
7858, 476, 1785, 1682, 2425
7859, 1866, 1969, 478, 2426
7860, 877, 1058, 1010, 2385
7861, 1386, 1388, 1587, 2521
7862, 1970, 187, 188, 620
7863, 371, 1181, 370, 1975
7864, 600, 506, 543, 2360
7865, 537, 600, 499, 2361
7866, 1094, 1115, 1161, 2524
7867, 366, 1503, 1182, 2567
7868, 288, 289, 735, 1737
7869, 472, 1738, 471, 1296
7870, 904, 903, 905, 2376
7871, 1861, 201, 202, 996
7872, 1905, 1855, 1960, 2475
7873, 1784, 475, 1682, 2430
7874, 1968, 1866, 477, 2429
7875, 615, 502, 566, 2448
7876, 525, 567, 610, 2493
7877, 742, 741, 740, 2364
7878, 737, 738, 736, 2365
7879, 2048, 2087, 2013, 2375
7880, 1063, 1025, 947, 2430
7881, 946, 1024, 1064, 2429
7882, 359, 1497, 2061, 360
7883, 1496, 98, 97, 560
7884, 545, 588, 490, 2372
7885, 401, 1876, 1545, 400
7886, 1914, 217, 218, 984
7887, 2025, 172, 173, 832
7888, 355, 356, 1393, 2006
7889, 93, 94, 523, 1371
7890, 47, 48, 810, 504
7891, 1582, 324, 1651, 323
7892, 1021, 112, 111, 1653
7893, 370, 1581, 369, 1972
7894, 186, 187, 1974, 1020
7895, 367, 366, 2017, 1503
7896, 942, 184, 183, 1987
7897, 59, 58, 486, 943
7898, 1504, 105, 104, 554
7899, 410, 411, 1334, 1901
7900, 1990, 148, 149, 916
7901, 1480, 1478, 1479, 2302
7902, 1912, 215, 216, 983
7903, 1856, 1544, 399, 398
7904, 1392, 1373, 1382, 2436
7905, 1032, 1057, 641, 2503
7906, 1436, 1437, 1438, 2379
7907, 196, 197, 1870, 653
7908, 1803, 1835, 1790, 2389
7909, 466, 1188, 1665, 465
7910, 453, 452, 1555, 1703
7911, 269, 270, 994, 1708
7912, 917, 919, 918, 2441
7913, 1819, 243, 244, 976
7914, 1808, 426, 1537, 427
7915, 1410, 1408, 1591, 2518
7916, 209, 210, 1896, 997
7917, 1888, 393, 392, 1558
7918, 197, 198, 1891, 844
7919, 1568, 1565, 1307, 2495
7920, 2051, 2107, 1994, 2530
7921, 196, 195, 838, 1916
7922, 1580, 1340, 1642, 2319
7923, 384, 1211, 383, 1872
7924, 1492, 1493, 1598, 2439
7925, 1654, 1657, 1660, 2448
7926, 11, 1622, 2114, 1177
7927, 2115, 1061, 6, 1174
7928, 614, 1175, 2, 1062
7929, 4, 1176, 613, 1623
7930, 310, 1117, 1228, 311
7931, 61, 62, 502, 1657
7932, 1989, 2054, 2087, 2414
7933, 2110, 2070, 1999, 2555
7934, 378, 1399, 1857, 379
7935, 439, 438, 1377, 1673
7936, 2004, 1976, 482, 481
7937, 656, 195, 194, 1883
7938, 255, 254, 1701, 655
7939, 1002, 1039, 842, 2465
7940, 1381, 1564, 1601, 2464
7941, 939, 896, 894, 2352
7942, 1139, 133, 132, 1029
7943, 1033, 268, 1735, 267
7944, 1734, 451, 1594, 450
7945, 1918, 207, 208, 1032
7946, 390, 1917, 391, 1593
7947, 171, 172, 2002, 699
7948, 354, 355, 1260, 2062
7949, 1277, 428, 1818, 427
7950, 244, 245, 1790, 716
7951, 1820, 431, 1565, 432
7952, 249, 248, 1004, 1821
7953, 1450, 1449, 1448, 2507
7954, 200, 201, 1911, 650
7955, 474, 1656, 473, 1681
7956, 560, 589, 503, 2568
7957, 411, 412, 1295, 1919
7958, 1099, 119, 118, 664
7959, 564, 60, 59, 733
7960, 367, 2065, 368, 1293
7961, 185, 184, 732, 2066
7962, 1294, 106, 105, 563
7963, 1194, 400, 1545, 2543
7964, 1578, 1641, 1351, 2463
7965, 120, 121, 666, 1097
7966, 1963, 226, 227, 623
7967, 1671, 1723, 1722, 2487
7968, 1845, 10, 230, 711
7969, 1272, 1844, 16, 413
7970, 853, 175, 174, 2069
7971, 363, 362, 2031, 1269
7972, 180, 179, 708, 2034
7973, 296, 295, 1223, 1096
7974, 1070, 1021, 735, 2357
7975, 912, 908, 910, 2540
7976, 901, 903, 902, 2515
7977, 890, 884, 886, 2446
7978, 1920, 228, 229, 734
7979, 1406, 1408, 1407, 2548
7980, 9, 249, 709, 1847
7981, 1270, 432, 15, 1846
7982, 75, 74, 1243, 510
7983, 251, 250, 1739, 660
7984, 191, 190, 659, 1921
7985, 52, 51, 485, 935
7986, 936, 177, 176, 1985
7987, 39, 40, 866, 524
7988, 464, 1776, 1554, 465
7989, 1139, 1145, 1134, 2437
7990, 463, 1744, 1191, 464
7991, 675, 148, 147, 2108
7992, 92, 93, 495, 1261
7993, 700, 46, 47, 561
7994, 1973, 1980, 1976, 2481
7995, 1282, 326, 327, 2050
7996, 1995, 143, 144, 721
7997, 1865, 480, 1977, 479
7998, 767, 1041, 765, 2335
7999, 549, 64, 65, 1281
8000, 18, 19, 720, 493
8001, 1212, 381, 382, 1956
8002, 1451, 1447, 1445, 2449
8003, 1049, 830, 1074, 2336
8004, 1541, 1588, 1538, 2571
8005, 1278, 419, 420, 1812
8006, 716, 1086, 809, 2389
8007, 867, 866, 694, 2559
8008, 1389, 1390, 1388, 2577
8009, 1405, 380, 381, 1852
8010, 1348, 327, 328, 2012
8011, 144, 145, 2044, 787
8012, 1722, 1743, 1694, 2576
8013, 360, 1267, 2030, 361
8014, 1815, 239, 240, 975
8015, 1516, 1315, 1285, 2459
8016, 1000, 192, 191, 1851
8017, 252, 251, 1667, 998
8018, 1426, 1628, 1425, 2466
8019, 1266, 99, 98, 528
8020, 972, 236, 235, 1840
8021, 433, 1220, 434, 1740
8022, 1922, 373, 1221, 374
8023, 956, 752, 729, 2455
8024, 806, 21, 22, 547
8025, 67, 68, 509, 1367
8026, 1209, 1637, 1557, 2343
8027, 1214, 379, 380, 1899
8028, 1629, 1438, 1437, 2379
8029, 1635, 1391, 1610, 2403
8030, 1295, 1630, 1581, 2415
8031, 1925, 225, 226, 988
8032, 1983, 14, 1966, 1630
8033, 1967, 8, 1981, 1069
8034, 1662, 12, 1631, 1783
8035, 5, 1070, 1782, 1661
8036, 1627, 1266, 1496, 2477
8037, 648, 262, 263, 1692
8038, 1166, 1226, 312, 313
8039, 1663, 1632, 3, 616
8040, 615, 1071, 1, 1660
8041, 7, 2116, 1980, 1072
8042, 2117, 13, 1982, 1633
8043, 445, 446, 1729, 1208
8044, 101, 100, 1268, 535
8045, 1209, 1421, 1648, 2331
8046, 715, 235, 234, 1826
8047, 37, 38, 933, 558
8048, 311, 1090, 1590, 312
8049, 1401, 1403, 1616, 2409
8050, 1515, 301, 300, 1148
8051, 1825, 1528, 425, 424
8052, 55, 54, 507, 707
8053, 1267, 1626, 1497, 2519
8054, 910, 909, 911, 2467
8055, 85, 84, 1253, 605
8056, 1605, 1182, 1503, 2567
8057, 1347, 65, 1281, 2565
8058, 1639, 1402, 1400, 2402
8059, 1078, 839, 841, 2401
8060, 1726, 444, 1210, 443
8061, 1959, 203, 204, 860
8062, 1265, 1638, 1496, 2568
8063, 240, 241, 1787, 719
8064, 1853, 1890, 1889, 2553
8065, 1570, 1426, 1618, 2510
8066, 1385, 1386, 1384, 2578
8067, 65, 66, 511, 1347
8068, 786, 19, 20, 545
8069, 383, 1572, 382, 1929
8070, 1464, 1465, 1466, 2406
8071, 237, 236, 717, 1789
8072, 178, 177, 706, 2056
8073, 1077, 819, 817, 2473
8074, 1275, 430, 1807, 429
8075, 246, 247, 1804, 714
8076, 1536, 1796, 422, 423
8077, 53, 54, 878, 569
8078, 1647, 1277, 1370, 2561
8079, 1144, 1324, 313, 314
8080, 455, 1199, 456, 1719
8081, 638, 272, 273, 1674
8082, 1867, 227, 228, 773
8083, 1677, 445, 1551, 444
8084, 512, 72, 73, 1241
8085, 1716, 1780, 1737, 2525
8086, 458, 457, 1197, 1724
8087, 274, 275, 636, 1690
8088, 630, 220, 1073, 2475
8089, 1138, 1100, 1165, 2581
8090, 1282, 1640, 1338, 2554
8091, 175, 176, 2106, 703
8092, 376, 1595, 1954, 377
8093, 437, 436, 1596, 1774
8094, 1054, 658, 1035, 2551
8095, 1746, 1670, 1731, 2551
8096, 296, 1170, 1331, 297
8097, 1764, 1692, 1778, 2572
8098, 925, 147, 146, 2071
8099, 1843, 1820, 1802, 2495
8100, 387, 388, 1206, 1913
8101, 1904, 395, 1198, 396
8102, 212, 213, 1859, 637
8103, 657, 193, 192, 1895
8104, 253, 252, 1731, 658
8105, 1169, 1109, 1149, 2569
8106, 1894, 1194, 400, 399
8107, 1869, 216, 217, 633
8108, 84, 83, 1494, 520
8109, 1089, 1154, 1119, 2558
8110, 527, 524, 610, 2559
8111, 1144, 1091, 1167, 2573
8112, 548, 66, 67, 1235
8113, 674, 20, 21, 490
8114, 2096, 2017, 2064, 2567
8115, 397, 1196, 1910, 398
8116, 1874, 214, 215, 635
8117, 375, 374, 1915, 1561
8118, 1559, 435, 434, 1732
8119, 1054, 818, 820, 2472
8120, 585, 549, 511, 2565
8121, 69, 70, 489, 1368
8122, 1216, 438, 437, 1741
8123, 378, 1923, 1217, 377
8124, 2052, 2090, 2009, 2583
8125, 801, 800, 802, 2422
8126, 1071, 789, 1013, 2448
8127, 1894, 1942, 1876, 2543
8128, 932, 1088, 631, 2433
8129, 1860, 204, 205, 645
8130, 1235, 1347, 1646, 2337
8131, 70, 71, 541, 1239
8132, 375, 1868, 376, 1218
8133, 436, 435, 1219, 1685
8134, 1022, 140, 141, 1140
8135, 319, 1141, 1583, 320
8136, 292, 1584, 293, 1143
8137, 1142, 114, 113, 1023
8138, 788, 1072, 1018, 2481
8139, 1138, 1155, 1112, 2582
8140, 86, 85, 1427, 567
8141, 26, 27, 680, 551
8142, 505, 57, 56, 1051
8143, 1612, 103, 102, 555
8144, 1613, 2008, 364, 365
8145, 182, 181, 1052, 2060
8146, 220, 221, 1855, 630
8147, 1363, 1361, 1362, 2490
8148, 17, 18, 789, 566
8149, 63, 64, 565, 1350
8150, 2068, 142, 143, 788
8151, 326, 1349, 325, 2067
8152, 1209, 385, 386, 1885
8153, 1457, 1500, 1455, 2399
8154, 640, 270, 271, 1698
8155, 454, 453, 1201, 1680
8156, 210, 211, 1881, 639
8157, 393, 1864, 394, 1200
8158, 6, 185, 1061, 2115
8159, 11, 1622, 368, 2114
8160, 614, 2, 60, 1062
8161, 613, 106, 4, 1623
8162, 1061, 141, 6, 1174
8163, 320, 1622, 11, 1177
8164, 113, 2, 1175, 1062
8165, 292, 1176, 4, 1623
8166, 803, 802, 804, 2374
8167, 71, 72, 546, 1369
8168, 544, 68, 69, 1237
8169, 1563, 1403, 1600, 2516
8170, 221, 222, 1906, 986
8171, 642, 268, 269, 1675
8172, 451, 1203, 452, 1695
8173, 1202, 392, 1879, 391
8174, 208, 209, 1858, 641
8175, 22, 23, 676, 508
8176, 1345, 1578, 1351, 2463
8177, 219, 220, 1905, 1073
8178, 402, 403, 1634, 1873
8179, 674, 1085, 786, 2372
8180, 1068, 876, 877, 2560
8181, 798, 797, 796, 2416
8182, 1785, 16, 433, 1624
8183, 1784, 250, 10, 1063
8184, 15, 1625, 1969, 373
8185, 1064, 190, 9, 1968
8186, 159, 158, 951, 2070
8187, 29, 30, 938, 572
8188, 1169, 297, 298, 1225
8189, 2073, 157, 158, 685
8190, 705, 52, 53, 606
8191, 1358, 1359, 1357, 2378
8192, 808, 25, 26, 488
8193, 6, 2115, 1174, 290
8194, 2114, 291, 11, 1177
8195, 1176, 108, 4, 613
8196, 1175, 2, 107, 614
8197, 299, 1227, 300, 1168
8198, 923, 919, 917, 2441
8199, 406, 407, 1548, 1900
8200, 1364, 1365, 1363, 2405
8201, 222, 223, 1877, 627
8202, 424, 1838, 1280, 423
8203, 1, 17, 1071, 615
8204, 1632, 63, 3, 616
8205, 2116, 7, 142, 1072
8206, 2117, 13, 1633, 325
8207, 223, 224, 1902, 987
8208, 472, 1631, 12, 1783
8209, 1070, 289, 5, 1782
8210, 229, 8, 1967, 1069
8211, 1630, 14, 1966, 412
8212, 24, 23, 571, 807
8213, 1355, 1356, 1357, 2395
8214, 1386, 1587, 1636, 2521
8215, 1981, 479, 8, 1967
8216, 1661, 1782, 5, 473
8217, 474, 12, 1662, 1783
8218, 1983, 1966, 14, 480
8219, 1190, 403, 404, 1927
8220, 14, 1983, 369, 1630
8221, 1981, 8, 186, 1069
8222, 1070, 5, 112, 1661
8223, 324, 12, 1631, 1662
8224, 189, 7, 1980, 1072
8225, 372, 1982, 13, 1633
8226, 321, 1632, 3, 1663
8227, 1071, 109, 1, 1660
8228, 1928, 202, 203, 647
8229, 2117, 1982, 13, 482
8230, 2116, 481, 7, 1980
8231, 615, 1, 61, 1660
8232, 1663, 3, 62, 616
8233, 406, 1189, 405, 1849
8234, 682, 28, 29, 573
8235, 607, 25, 24, 678
8236, 405, 1547, 404, 1958
8237, 1347, 1281, 1643, 2565
8238, 630, 1073, 921, 2475
8239, 1745, 261, 260, 649
8240, 991, 261, 262, 1742
8241, 2553, 1891, 1924, 1889
8242, 2553, 1924, 1891, 2208
8243, 2543, 2404, 2285, 2235
8244, 2543, 2285, 2404, 2200
8245, 2263, 2044, 2094, 2124
8246, 2263, 2094, 2044, 1995
8247, 1667, 2551, 1752, 1731
8248, 1752, 2551, 1667, 2126
8249, 2487, 990, 801, 629
8250, 2487, 801, 990, 2137
8251, 1093, 1330, 317, 1118
8252, 317, 1330, 1093, 1222
8253, 2190, 1075, 2256, 2139
8254, 2190, 2256, 1075, 1026
8255, 2342, 2426, 478, 1271
8256, 478, 2426, 2342, 2135
8257, 2180, 2440, 2161, 813
8258, 2161, 2440, 2180, 2289
8259, 2210, 969, 2450, 971
8260, 2210, 2450, 969, 2199
8261, 828, 2361, 830, 1056
8262, 828, 830, 2361, 2119
8263, 2336, 830, 2361, 1056
8264, 2336, 2361, 830, 2119
8265, 1348, 2045, 2124, 2012
8266, 2124, 2045, 1348, 1234
8267, 2519, 1264, 1639, 1497
8268, 2519, 1639, 1264, 2186
8269, 2311, 2580, 476, 2159
8270, 476, 2580, 2311, 2134
8271, 2293, 2343, 2231, 1412
8272, 2231, 2343, 2293, 2118
8273, 1099, 770, 118, 1130
8274, 118, 770, 1099, 664
8275, 2551, 998, 1003, 658
8276, 2551, 1003, 998, 2126
8277, 2544, 1696, 1771, 1779
8278, 2544, 1771, 1696, 2192
8279, 1278, 1798, 420, 1518
8280, 420, 1798, 1278, 1812
8281, 1954, 2409, 1217, 1595
8282, 1217, 2409, 1954, 2244
8283, 1579, 1975, 371, 1971
8284, 371, 1975, 1579, 1181
8285, 2312, 1772, 1720, 1664
8286, 2312, 1720, 1772, 2237
8287, 2242, 1836, 1804, 1837
8288, 2242, 1804, 1836, 2217
8289, 2254, 1434, 2197, 1431
8290, 2254, 2197, 1434, 2227
8291, 2334, 2376, 905, 2187
8292, 905, 2376, 2334, 1048
8293, 905, 634, 2334, 2187
8294, 2334, 634, 905, 1048
8295, 1669, 652, 259, 1704
8296, 1669, 259, 652, 1012
8297, 2045, 2552, 2458, 1234
8298, 2458, 2552, 2045, 2251
8299, 1601, 2477, 2176, 1266
8300, 2176, 2477, 1601, 2464
8301, 1424, 2324, 1420, 1204
8302, 1420, 2324, 1424, 2216
8303, 2336, 873, 2197, 1049
8304, 2336, 2197, 873, 2227
8305, 2342, 2291, 1291, 1301
8306, 2342, 1291, 2291, 2135
8307, 2554, 2112, 2094, 2263
8308, 2554, 2094, 2112, 2050
8309, 2389, 714, 766, 809
8310, 2389, 766, 714, 2242
8311, 2457, 509, 2228, 1367
8312, 2457, 2228, 509, 2249
8313, 2311, 2292, 1286, 2134
8314, 2311, 1286, 2292, 1297
8315, 2285, 2543, 1472, 1475
8316, 1472, 2543, 2285, 2235
8317, 934, 2000, 2243, 691
8318, 934, 2243, 2000, 2059
8319, 1495, 2036, 2466, 2037
8320, 1495, 2466, 2036, 1252
8321, 2337, 582, 2457, 548
8322, 2337, 2457, 582, 2249
8323, 509, 2457, 582, 548
8324, 509, 582, 2457, 2249
8325, 2526, 1849, 1935, 1926
8326, 1935, 1849, 2526, 2233
8327, 1935, 1877, 2526, 1926
8328, 2526, 1877, 1935, 2233
8329, 2562, 1227, 1321, 2142
8330, 2562, 1321, 1227, 1515
8331, 2136, 1716, 1780, 1773
8332, 2136, 1780, 1716, 2525
8333, 2448, 1650, 1659, 2229
8334, 2448, 1659, 1650, 1654
8335, 2548, 2250, 2301, 2518
8336, 2548, 2301, 2250, 2188
8337, 2250, 699, 847, 848
8338, 2250, 847, 699, 2188
8339, 2525, 2312, 781, 780
8340, 2525, 781, 2312, 2136
8341, 2353, 813, 822, 2180
8342, 2353, 822, 813, 815
8343, 2244, 1961, 1923, 2207
8344, 2244, 1923, 1961, 1884
8345, 2357, 619, 1080, 2229
8346, 2357, 1080, 619, 1021
8347, 1013, 1650, 110, 1654
8348, 110, 1650, 1013, 619
8349, 1574, 1655, 322, 1180
8350, 1574, 322, 1655, 1652
8351, 1891, 651, 2553, 844
8352, 2553, 651, 1891, 1889
8353, 2481, 2112, 2263, 2068
8354, 2481, 2263, 2112, 2232
8355, 2357, 1650, 1658, 1653
8356, 2357, 1658, 1650, 2229
8357, 2427, 1887, 1948, 1937
8358, 2427, 1948, 1887, 2194
8359, 1805, 718, 2170, 967
8360, 2170, 718, 1805, 1801
8361, 2439, 2285, 1474, 1475
8362, 2439, 1474, 2285, 2171
8363, 2448, 619, 1017, 1013
8364, 2448, 1017, 619, 2229
8365, 2367, 2496, 1794, 1821
8366, 1794, 2496, 2367, 2183
8367, 1010, 2560, 2563, 1068
8368, 933, 2563, 2560, 1068
8369, 933, 2560, 2563, 2152
8370, 2541, 625, 793, 2340
8371, 2541, 793, 625, 989
8372, 2181, 1945, 653, 1870
8373, 2181, 653, 1945, 2443
8374, 1891, 653, 1945, 1870
8375, 1891, 1945, 653, 2443
8376, 2400, 2387, 2544, 1379
8377, 2400, 2544, 2387, 2238
8378, 2568, 602, 2436, 2185
8379, 2568, 2436, 602, 503
8380, 2545, 1787, 1806, 2191
8381, 2545, 1806, 1787, 1824
8382, 2490, 1369, 2220, 2325
8383, 2490, 2220, 1369, 1361
8384, 2490, 1369, 1363, 1361
8385, 2490, 1363, 1369, 2225
8386, 2523, 1415, 2243, 2326
8387, 2523, 2243, 1415, 2007
8388, 2417, 1674, 1758, 1757
8389, 2417, 1758, 1674, 2206
8390, 670, 2534, 969, 974
8391, 969, 2534, 670, 2199
8392, 1881, 2411, 1949, 1938
8393, 1949, 2411, 1881, 2224
8394, 707, 569, 2359, 878
8395, 2359, 569, 707, 507
8396, 544, 1368, 69, 489
8397, 69, 1368, 544, 1237
8398, 2461, 1410, 2250, 1259
8399, 2461, 2250, 1410, 2123
8400, 2565, 611, 2245, 2184
8401, 2565, 2245, 611, 549
8402, 1613, 2064, 2266, 2008
8403, 1613, 2266, 2064, 1182
8404, 1052, 2063, 2266, 621
8405, 2266, 2063, 1052, 2060
8406, 622, 505, 57, 562
8407, 622, 57, 505, 1051
8408, 555, 1183, 103, 521
8409, 555, 103, 1183, 1612
8410, 1125, 2573, 2259, 1167
8411, 2259, 2573, 1125, 2167
8412, 1879, 1558, 392, 1202
8413, 392, 1558, 1879, 1888
8414, 2558, 1014, 2298, 2144
8415, 2558, 2298, 1014, 669
8416, 2546, 990, 2487, 1721
8417, 2487, 990, 2546, 2137
8418, 2487, 1777, 2546, 1721
8419, 2546, 1777, 2487, 2137
8420, 505, 756, 56, 526
8421, 56, 756, 505, 1051
8422, 2027, 1613, 2266, 2008
8423, 2266, 1613, 2027, 1318
8424, 1052, 1986, 2266, 2060
8425, 2266, 1986, 1052, 757
8426, 555, 1317, 102, 1612
8427, 555, 102, 1317, 484
8428, 2517, 2333, 2105, 1984
8429, 2517, 2105, 2333, 2160
8430, 2538, 1708, 1770, 2151
8431, 2538, 1770, 1708, 1755
8432, 2524, 1155, 2315, 2141
8433, 2524, 2315, 1155, 1094
8434, 2555, 2089, 2451, 1999
8435, 2555, 2451, 2089, 2138
8436, 2503, 1879, 2147, 1951
8437, 2503, 2147, 1879, 2268
8438, 2153, 1254, 2102, 2523
8439, 2007, 1254, 2102, 2049
8440, 2007, 2102, 1254, 2523
8441, 2506, 1870, 1945, 2181
8442, 2506, 1945, 1870, 1953
8443, 1714, 1188, 466, 1549
8444, 466, 1188, 1714, 1665
8445, 1223, 1129, 295, 1329
8446, 295, 1129, 1223, 1096
8447, 2422, 798, 799, 800
8448, 2422, 799, 798, 2416
8449, 2528, 1244, 2530, 1993
8450, 2530, 1244, 2528, 2140
8451, 2530, 2091, 2528, 1993
8452, 2528, 2091, 2530, 2140
8453, 2506, 2443, 1945, 1899
8454, 2506, 1945, 2443, 2181
8455, 2535, 2102, 1254, 2049
8456, 2535, 1254, 2102, 2153
8457, 2547, 592, 2294, 550
8458, 2547, 2294, 592, 2148
8459, 916, 2042, 149, 1990
8460, 916, 149, 2042, 677
8461, 2406, 2515, 2282, 2162
8462, 2282, 2515, 2406, 2212
8463, 2362, 705, 1066, 2317
8464, 2362, 1066, 705, 935
8465, 2529, 719, 966, 965
8466, 2529, 966, 719, 2191
8467, 2582, 964, 2298, 671
8468, 2582, 2298, 964, 2141
8469, 2486, 1493, 1598, 1483
8470, 2486, 1598, 1493, 2439
8471, 2305, 2450, 2452, 2143
8472, 2452, 2450, 2305, 2173
8473, 2550, 1796, 1831, 1816
8474, 2550, 1831, 1796, 2545
8475, 2494, 2033, 2085, 2020
8476, 2494, 2085, 2033, 2451
8477, 2493, 1437, 2484, 1427
8478, 2493, 2484, 1437, 2230
8479, 2577, 1617, 2360, 1389
8480, 2577, 2360, 1617, 2119
8481, 1143, 1623, 2234, 1176
8482, 1143, 2234, 1623, 1584
8483, 1062, 1142, 2234, 1175
8484, 1062, 2234, 1142, 1023
8485, 1140, 1061, 2213, 1174
8486, 1140, 2213, 1061, 1022
8487, 1177, 1583, 320, 1622
8488, 1177, 320, 1583, 1141
8489, 553, 2468, 590, 515
8490, 590, 2468, 553, 2531
8491, 2397, 706, 1065, 936
8492, 2397, 1065, 706, 2338
8493, 2569, 1310, 2314, 1225
8494, 2569, 2314, 1310, 2155
8495, 2379, 1619, 1436, 2211
8496, 2379, 1436, 1619, 1438
8497, 2371, 2466, 2243, 2131
8498, 2243, 2466, 2371, 2216
8499, 2390, 1933, 2410, 2239
8500, 2390, 2410, 1933, 1850
8501, 2486, 1240, 2215, 2375
8502, 2486, 2215, 1240, 1598
8503, 2524, 2582, 2298, 1161
8504, 2298, 2582, 2524, 2141
8505, 2384, 2211, 1436, 2269
8506, 2384, 1436, 2211, 2379
8507, 2538, 1506, 1706, 2417
8508, 2538, 1706, 1506, 1201
8509, 768, 1128, 2175, 1108
8510, 768, 2175, 1128, 662
8511, 2538, 1457, 1506, 2226
8512, 2538, 1506, 1457, 1201
8513, 1550, 1718, 462, 1193
8514, 462, 1718, 1550, 1689
8515, 972, 1789, 236, 1840
8516, 236, 1789, 972, 717
8517, 2485, 679, 2215, 1037
8518, 2485, 2215, 679, 2414
8519, 1066, 2472, 2317, 820
8520, 2317, 2472, 1066, 2127
8521, 2311, 2327, 2383, 2159
8522, 2383, 2327, 2311, 2203
8523, 1553, 2413, 1343, 1185
8524, 1343, 2413, 1553, 2237
8525, 860, 1860, 204, 1959
8526, 860, 204, 1860, 645
8527, 1127, 2569, 2155, 1149
8528, 2155, 2569, 1127, 2398
8529, 2155, 1099, 1127, 1149
8530, 1127, 1099, 2155, 2398
8531, 2362, 2400, 2473, 2185
8532, 2473, 2400, 2362, 2127
8533, 1335, 2428, 1336, 1184
8534, 1336, 2428, 1335, 2345
8535, 2557, 2183, 728, 2288
8536, 2557, 728, 2183, 2367
8537, 2331, 1930, 1886, 1871
8538, 2331, 1886, 1930, 2330
8539, 1096, 1331, 296, 1170
8540, 1096, 296, 1331, 1223
8541, 714, 2389, 1804, 1803
8542, 714, 1804, 2389, 2242
8543, 1837, 1804, 2389, 1803
8544, 1837, 2389, 1804, 2242
8545, 2509, 2288, 2536, 2183
8546, 2509, 2536, 2288, 2167
8547, 2482, 1050, 2193, 2271
8548, 2482, 2193, 1050, 804
8549, 2421, 1639, 1400, 2402
8550, 2421, 1400, 1639, 1404
8551, 2066, 1061, 2213, 732
8552, 2066, 2213, 1061, 2115
8553, 2114, 1293, 368, 2065
8554, 2114, 368, 1293, 1622
8555, 1062, 564, 2234, 733
8556, 1062, 2234, 564, 614
8557, 563, 1623, 2234, 1294
8558, 563, 2234, 1623, 613
8559, 2419, 183, 621, 2063
8560, 2419, 621, 183, 942
8561, 837, 2553, 845, 651
8562, 845, 2553, 837, 2442
8563, 1662, 1582, 2253, 1631
8564, 1662, 2253, 1582, 1651
8565, 2490, 1364, 1363, 2405
8566, 2490, 1363, 1364, 1362
8567, 2551, 818, 1054, 2472
8568, 2551, 1054, 818, 1035
8569, 2554, 1335, 1337, 1338
8570, 2554, 1337, 1335, 2345
8571, 1981, 1020, 2236, 1069
8572, 2236, 1020, 1981, 1974
8573, 2558, 1150, 1154, 1119
8574, 2558, 1154, 1150, 2297
8575, 2536, 2259, 2369, 2471
8576, 2536, 2369, 2259, 2167
8577, 2515, 2148, 900, 2380
8578, 2515, 900, 2148, 2308
8579, 2525, 1681, 2253, 1780
8580, 2525, 2253, 1681, 2357
8581, 2540, 2166, 915, 2290
8582, 2540, 915, 2166, 2381
8583, 2567, 2113, 2096, 2017
8584, 2567, 2096, 2113, 2419
8585, 2551, 1702, 1746, 1670
8586, 2551, 1746, 1702, 2387
8587, 2421, 2401, 2402, 2207
8588, 2421, 2402, 2401, 2186
8589, 2394, 2416, 2378, 2150
8590, 2378, 2416, 2394, 2198
8591, 2563, 2392, 2531, 2152
8592, 2563, 2531, 2392, 2202
8593, 2307, 2478, 2382, 2195
8594, 2382, 2478, 2307, 2213
8595, 2467, 2171, 913, 2404
8596, 2467, 913, 2171, 2303
8597, 2431, 2442, 2548, 2208
8598, 2548, 2442, 2431, 2168
8599, 2352, 2468, 2505, 2202
8600, 2505, 2468, 2352, 2133
8601, 2528, 1474, 1470, 1513
8602, 2528, 1470, 1474, 2285
8603, 2530, 1469, 1476, 1468
8604, 2530, 1476, 1469, 2275
8605, 402, 2489, 1873, 1634
8606, 1873, 2489, 402, 1903
8607, 2343, 1648, 1209, 1637
8608, 2343, 1209, 1648, 2331
8609, 2452, 2534, 2450, 2199
8610, 2450, 2534, 2452, 2143
8611, 2393, 403, 1873, 1634
8612, 2393, 1873, 403, 1927
8613, 2527, 898, 895, 937
8614, 2527, 895, 898, 2280
8615, 2517, 843, 834, 853
8616, 2517, 834, 843, 2278
8617, 1321, 2562, 1577, 1515
8618, 1577, 2562, 1321, 2305
8619, 1463, 2547, 1461, 1502
8620, 1461, 2547, 1463, 2282
8621, 2557, 729, 956, 727
8622, 2557, 956, 729, 2455
8623, 2559, 525, 610, 2493
8624, 2559, 610, 525, 524
8625, 1422, 2535, 1417, 1511
8626, 1417, 2535, 1422, 2332
8627, 488, 680, 2325, 551
8628, 488, 2325, 680, 808
8629, 2435, 860, 1087, 2330
8630, 2435, 1087, 860, 1042
8631, 2225, 1241, 2325, 512
8632, 2225, 2325, 1241, 1369
8633, 546, 2325, 1241, 512
8634, 546, 1241, 2325, 1369
8635, 16, 2480, 1844, 1272
8636, 1844, 2480, 16, 476
8637, 2555, 159, 1999, 687
8638, 2555, 1999, 159, 2070
8639, 1967, 734, 229, 1069
8640, 229, 734, 1967, 1920
8641, 541, 1368, 70, 1239
8642, 70, 1368, 541, 489
8643, 1740, 1624, 2425, 1785
8644, 1740, 2425, 1624, 1220
8645, 1221, 1969, 373, 1922
8646, 1221, 373, 1969, 1625
8647, 1784, 660, 250, 1063
8648, 250, 660, 1784, 1739
8649, 1064, 1921, 2429, 659
8650, 2429, 1921, 1064, 1968
8651, 1592, 2483, 1647, 1328
8652, 1647, 2483, 1592, 2120
8653, 2560, 2563, 2385, 1010
8654, 2560, 2385, 2563, 2152

*NSET, NSET=CONSTRAINT_1
1, 3, 5, 7, 8, 12, 13, 14, 61, 62, 109, 110, 111, 112, 186, 187
188, 189, 321, 322, 323, 324, 369, 370, 371, 372, 473, 474, 479, 480, 481, 482
1650, 1651, 1652, 1653, 1654, 1655, 1656, 1657, 1658, 1659, 1660, 1661, 1662, 1663, 1970, 1971
1972, 1973, 1974, 1975, 1976, 1977, 1978, 1979, 1980, 1981, 1982, 1983

*NSET, NSET=DLOAD_1
4, 11, 15, 16, 89, 90, 91, 92, 93, 94, 95, 96, 97, 98, 99, 100
101, 102, 103, 104, 105, 106, 292, 293, 294, 295, 296, 297, 298, 299, 300, 301
302, 303, 304, 305, 306, 307, 308, 309, 310, 311, 312, 313, 314, 315, 316, 317
318, 319, 320, 351, 352, 353, 354, 355, 356, 357, 358, 359, 360, 361, 362, 363
364, 365, 366, 367, 368, 373, 374, 375, 376, 377, 378, 379, 380, 381, 382, 383
384, 385, 413, 414, 415, 416, 417, 418, 419, 420, 421, 422, 423, 424, 425, 426
427, 428, 429, 430, 431, 432, 433, 434, 435, 436, 437, 438, 439, 440, 441, 442
443, 444, 445, 1178, 1179, 1182, 1183, 1208, 1209, 1210, 1211, 1212, 1213, 1214, 1215, 1216
1217, 1218, 1219, 1220, 1221, 1222, 1223, 1224, 1225, 1226, 1227, 1228, 1229, 1230, 1231, 1232
1233, 1258, 1259, 1260, 1261, 1262, 1263, 1264, 1265, 1266, 1267, 1268, 1269, 1270, 1271, 1272
1273, 1274, 1275, 1276, 1277, 1278, 1279, 1280, 1283, 1284, 1285, 1286, 1287, 1288, 1289, 1290
1291, 1292, 1293, 1294, 1297, 1298, 1299, 1300, 1301, 1302, 1303, 1304, 1305, 1306, 1307, 1308
1309, 1310, 1311, 1312, 1313, 1314, 1315, 1316, 1317, 1318, 1319, 1320, 1321, 1322, 1323, 1324
1325, 1326, 1327, 1328, 1329, 1330, 1331, 1332, 1333, 1370, 1371, 1372, 1373, 1374, 1375, 1376
1377, 1378, 1379, 1380, 1381, 1382, 1383, 1384, 1385, 1386, 1387, 1388, 1389, 1390, 1391, 1392
1393, 1394, 1395, 1396, 1397, 1398, 1399, 1400, 1401, 1402, 1403, 1404, 1405, 1406, 1407, 1408
1409, 1410, 1411, 1412, 1413, 1414, 1439, 1440, 1441, 1442, 1496, 1497, 1503, 1504, 1507, 1508
1515, 1516, 1517, 1518, 1519, 1520, 1521, 1522, 1523, 1524, 1525, 1526, 1527, 1528, 1529, 1530
1531, 1532, 1533, 1534, 1535, 1536, 1537, 1538, 1539, 1540, 1541, 1542, 1551, 1557, 1559, 1560
1561, 1562, 1563, 1564, 1565, 1566, 1567, 1568, 1569, 1572, 1573, 1575, 1576, 1577, 1583, 1584
1585, 1586, 1587, 1588, 1589, 1590, 1591, 1592, 1595, 1596, 1597, 1599, 1600, 1601, 1602, 1604
1605, 1607, 1608, 1612, 1613, 1615, 1616, 1622, 1623, 1624, 1625, 1626, 1627, 1635, 1636, 1637
1638, 1639, 1645, 1647

*MATERIAL, NAME=STRUCTURAL_STEEL
*ELASTIC
200000.000000, 0.300000

*SOLID SECTION, ELSET=ALL_ELEMENTS, MATERIAL=STRUCTURAL_STEEL

*BOUNDARY
CONSTRAINT_1, 1, 3

*STEP, NLGEOM=NO
*STATIC
0.1, 1.0

*CLOAD
DLOAD_1, 2, -30000.000000

*NODE FILE
U, RF
*EL FILE
S, E

*END STEP
