*HEADING
Gravity Dam / Retaining Wall with hydrostatic pressure varying linearly with depth.

*NODE, NSET=ALL_NODES
1, 0.000000, 0.000000, 0.000000
2, 0.000000, 0.000000, 100.000000
3, 66.666702, 0.000000, 100.000000
4, 66.666702, 0.000000, 0.000000
5, 66.666702, 66.666702, 100.000000
6, 66.666702, 66.666702, 0.000000
7, 0.000000, 66.666702, 100.000000
8, 0.000000, 66.666702, 0.000000
9, 0.000000, 0.000000, 7.692307
10, 0.000000, 0.000000, 15.384615
11, 0.000000, 0.000000, 23.076923
12, 0.000000, 0.000000, 30.769230
13, 0.000000, 0.000000, 38.461540
14, 0.000000, 0.000000, 46.153847
15, 0.000000, 0.000000, 53.846153
16, 0.000000, 0.000000, 61.538460
17, 0.000000, 0.000000, 69.230766
18, 0.000000, 0.000000, 76.923080
19, 0.000000, 0.000000, 84.615387
20, 0.000000, 0.000000, 92.307693
21, 7.407411, 0.000000, 100.000000
22, 14.814822, 0.000000, 100.000000
23, 22.222233, 0.000000, 100.000000
24, 29.629644, 0.000000, 100.000000
25, 37.037056, 0.000000, 100.000000
26, 44.444466, 0.000000, 100.000000
27, 51.851879, 0.000000, 100.000000
28, 59.259289, 0.000000, 100.000000
29, 66.666702, 0.000000, 7.692307
30, 66.666702, 0.000000, 15.384615
31, 66.666702, 0.000000, 23.076923
32, 66.666702, 0.000000, 30.769230
33, 66.666702, 0.000000, 38.461540
34, 66.666702, 0.000000, 46.153847
35, 66.666702, 0.000000, 53.846153
36, 66.666702, 0.000000, 61.538460
37, 66.666702, 0.000000, 69.230766
38, 66.666702, 0.000000, 76.923080
39, 66.666702, 0.000000, 84.615387
40, 66.666702, 0.000000, 92.307693
41, 7.407411, 0.000000, 0.000000
42, 14.814822, 0.000000, 0.000000
43, 22.222233, 0.000000, 0.000000
44, 29.629644, 0.000000, 0.000000
45, 37.037056, 0.000000, 0.000000
46, 44.444466, 0.000000, 0.000000
47, 51.851879, 0.000000, 0.000000
48, 59.259289, 0.000000, 0.000000
49, 66.666702, 7.407411, 100.000000
50, 66.666702, 14.814822, 100.000000
51, 66.666702, 22.222233, 100.000000
52, 66.666702, 29.629644, 100.000000
53, 66.666702, 37.037056, 100.000000
54, 66.666702, 44.444466, 100.000000
55, 66.666702, 51.851879, 100.000000
56, 66.666702, 59.259289, 100.000000
57, 66.666702, 66.666702, 7.692307
58, 66.666702, 66.666702, 15.384615
59, 66.666702, 66.666702, 23.076923
60, 66.666702, 66.666702, 30.769230
61, 66.666702, 66.666702, 38.461540
62, 66.666702, 66.666702, 46.153847
63, 66.666702, 66.666702, 53.846153
64, 66.666702, 66.666702, 61.538460
65, 66.666702, 66.666702, 69.230766
66, 66.666702, 66.666702, 76.923080
67, 66.666702, 66.666702, 84.615387
68, 66.666702, 66.666702, 92.307693
69, 66.666702, 7.407411, 0.000000
70, 66.666702, 14.814822, 0.000000
71, 66.666702, 22.222233, 0.000000
72, 66.666702, 29.629644, 0.000000
73, 66.666702, 37.037056, 0.000000
74, 66.666702, 44.444466, 0.000000
75, 66.666702, 51.851879, 0.000000
76, 66.666702, 59.259289, 0.000000
77, 59.259289, 66.666702, 100.000000
78, 51.851879, 66.666702, 100.000000
79, 44.444466, 66.666702, 100.000000
80, 37.037056, 66.666702, 100.000000
81, 29.629644, 66.666702, 100.000000
82, 22.222233, 66.666702, 100.000000
83, 14.814822, 66.666702, 100.000000
84, 7.407411, 66.666702, 100.000000
85, 0.000000, 66.666702, 7.692307
86, 0.000000, 66.666702, 15.384615
87, 0.000000, 66.666702, 23.076923
88, 0.000000, 66.666702, 30.769230
89, 0.000000, 66.666702, 38.461540
90, 0.000000, 66.666702, 46.153847
91, 0.000000, 66.666702, 53.846153
92, 0.000000, 66.666702, 61.538460
93, 0.000000, 66.666702, 69.230766
94, 0.000000, 66.666702, 76.923080
95, 0.000000, 66.666702, 84.615387
96, 0.000000, 66.666702, 92.307693
97, 59.259289, 66.666702, 0.000000
98, 51.851879, 66.666702, 0.000000
99, 44.444466, 66.666702, 0.000000
100, 37.037056, 66.666702, 0.000000
101, 29.629644, 66.666702, 0.000000
102, 22.222233, 66.666702, 0.000000
103, 14.814822, 66.666702, 0.000000
104, 7.407411, 66.666702, 0.000000
105, 0.000000, 59.259289, 100.000000
106, 0.000000, 51.851879, 100.000000
107, 0.000000, 44.444466, 100.000000
108, 0.000000, 37.037056, 100.000000
109, 0.000000, 29.629644, 100.000000
110, 0.000000, 22.222233, 100.000000
111, 0.000000, 14.814822, 100.000000
112, 0.000000, 7.407411, 100.000000
113, 0.000000, 59.259289, 0.000000
114, 0.000000, 51.851879, 0.000000
115, 0.000000, 44.444466, 0.000000
116, 0.000000, 37.037056, 0.000000
117, 0.000000, 29.629644, 0.000000
118, 0.000000, 22.222233, 0.000000
119, 0.000000, 14.814822, 0.000000
120, 0.000000, 7.407411, 0.000000
121, 33.836918, 0.000000, 93.978035
122, 32.728500, 0.000000, 6.135161
123, 59.906540, 0.000000, 42.345142
124, 6.701330, 0.000000, 57.733379
125, 6.686187, 0.000000, 34.688190
126, 59.840042, 0.000000, 65.469055
127, 6.648246, 0.000000, 73.101974
128, 59.995449, 0.000000, 26.999342
129, 59.901783, 0.000000, 80.794907
130, 6.791416, 0.000000, 19.300488
131, 18.362427, 0.000000, 93.925591
132, 48.148170, 0.000000, 6.415006
133, 48.287678, 0.000000, 94.087517
134, 18.518528, 0.000000, 6.415006
135, 7.386855, 0.000000, 88.598152
136, 59.277542, 0.000000, 11.410249
137, 6.761349, 0.000000, 80.801208
138, 13.293301, 0.000000, 76.962189
139, 13.301661, 0.000000, 69.301781
140, 19.920740, 0.000000, 73.163147
141, 19.950506, 0.000000, 65.521652
142, 26.558409, 0.000000, 69.381035
143, 26.587637, 0.000000, 61.738781
144, 33.186630, 0.000000, 65.598579
145, 33.230736, 0.000000, 57.946133
146, 26.634146, 0.000000, 54.080917
147, 33.279598, 0.000000, 50.286858
148, 26.673164, 0.000000, 46.418648
149, 33.315853, 0.000000, 42.623207
150, 26.717354, 0.000000, 38.752159
151, 33.344967, 0.000000, 34.966980
152, 26.767653, 0.000000, 31.108736
153, 39.816238, 0.000000, 54.255051
154, 33.386684, 0.000000, 27.328510
155, 33.152000, 0.000000, 73.230530
156, 39.764706, 0.000000, 69.453659
157, 39.957195, 0.000000, 31.179853
158, 40.000462, 0.000000, 23.569010
159, 26.821787, 0.000000, 23.501026
160, 39.717552, 0.000000, 77.067909
161, 20.048382, 0.000000, 42.550961
162, 46.327217, 0.000000, 73.311897
163, 20.206522, 0.000000, 27.258812
164, 46.377708, 0.000000, 65.713737
165, 20.331474, 0.000000, 19.794939
166, 20.023220, 0.000000, 80.614166
167, 33.007004, 0.000000, 80.631882
168, 46.612720, 0.000000, 27.307100
169, 46.521709, 0.000000, 34.944183
170, 46.587078, 0.000000, 19.795977
171, 46.262005, 0.000000, 80.704826
172, 40.168560, 0.000000, 15.924033
173, 27.403004, 0.000000, 16.644585
174, 13.660460, 0.000000, 23.410305
175, 53.022591, 0.000000, 69.464867
176, 53.289970, 0.000000, 30.967073
177, 13.955067, 0.000000, 16.240887
178, 7.551151, 0.000000, 11.564224
179, 52.950687, 0.000000, 61.806408
180, 59.635738, 0.000000, 57.824368
181, 52.662430, 0.000000, 54.233707
182, 13.448825, 0.000000, 30.971571
183, 26.533936, 0.000000, 76.935379
184, 26.409054, 0.000000, 84.387199
185, 59.346695, 0.000000, 50.104324
186, 52.734463, 0.000000, 46.470623
187, 13.333319, 0.000000, 61.631489
188, 6.789393, 0.000000, 26.980751
189, 13.287663, 0.000000, 38.663212
190, 59.816296, 0.000000, 73.076920
191, 33.535019, 0.000000, 19.831104
192, 39.049374, 0.000000, 83.764893
193, 59.909679, 0.000000, 19.224035
194, 52.866467, 0.000000, 16.130201
195, 13.815460, 0.000000, 84.000801
196, 59.262573, 0.000000, 88.597923
197, 52.616566, 0.000000, 84.063370
198, 53.136703, 0.000000, 38.603237
199, 6.660776, 0.000000, 65.416595
200, 13.385279, 0.000000, 53.959171
201, 6.685750, 0.000000, 50.069996
202, 39.882370, 0.000000, 46.498196
203, 59.968098, 0.000000, 34.669342
204, 53.210228, 0.000000, 23.403955
205, 39.893417, 0.000000, 38.748241
206, 40.390251, 0.000000, 7.786763
207, 26.203499, 0.000000, 92.406799
208, 39.787399, 0.000000, 61.867874
209, 19.989944, 0.000000, 57.857925
210, 20.079399, 0.000000, 34.884243
211, 41.085327, 0.000000, 94.170700
212, 25.476639, 0.000000, 6.054059
213, 20.027264, 0.000000, 50.193195
214, 13.338260, 0.000000, 46.312065
215, 52.991077, 0.000000, 76.902802
216, 6.645998, 0.000000, 42.404156
217, 46.313431, 0.000000, 58.104595
218, 46.338394, 0.000000, 42.277031
219, 11.395112, 0.000000, 94.435982
220, 55.245209, 0.000000, 5.623103
221, 55.267010, 0.000000, 94.464333
222, 46.291222, 0.000000, 50.306534
223, 11.468629, 0.000000, 5.695495
224, 46.424496, 0.000000, 12.844228
225, 21.191879, 0.000000, 12.506129
226, 34.025787, 0.000000, 13.066297
227, 45.405437, 0.000000, 87.745979
228, 20.247375, 0.000000, 87.419876
229, 32.403835, 0.000000, 87.226105
230, 5.633503, 0.000000, 5.704478
231, 5.455073, 0.000000, 94.569351
232, 61.210133, 0.000000, 5.434164
233, 61.214218, 0.000000, 94.574402
234, 29.011812, 0.000000, 10.914660
235, 14.759059, 0.000000, 10.487472
236, 37.284267, 0.000000, 89.472115
237, 51.799187, 0.000000, 10.307099
238, 14.241446, 0.000000, 89.676079
239, 52.167854, 0.000000, 89.791824
240, 66.666702, 33.836918, 93.978035
241, 66.666702, 32.728500, 6.135161
242, 66.666702, 59.906540, 42.345142
243, 66.666702, 6.701330, 57.733379
244, 66.666702, 6.686187, 34.688190
245, 66.666702, 59.840042, 65.469055
246, 66.666702, 6.648246, 73.101974
247, 66.666702, 59.995449, 26.999342
248, 66.666702, 59.901783, 80.794907
249, 66.666702, 6.791416, 19.300488
250, 66.666702, 18.362427, 93.925591
251, 66.666702, 48.148170, 6.415006
252, 66.666702, 48.287678, 94.087517
253, 66.666702, 18.518528, 6.415006
254, 66.666702, 7.386855, 88.598152
255, 66.666702, 59.277542, 11.410249
256, 66.666702, 6.761349, 80.801208
257, 66.666702, 13.293301, 76.962189
258, 66.666702, 13.301661, 69.301781
259, 66.666702, 19.920740, 73.163147
260, 66.666702, 19.950506, 65.521652
261, 66.666702, 26.558409, 69.381035
262, 66.666702, 26.587637, 61.738781
263, 66.666702, 33.186630, 65.598579
264, 66.666702, 33.230736, 57.946133
265, 66.666702, 26.634146, 54.080917
266, 66.666702, 33.279598, 50.286858
267, 66.666702, 26.673164, 46.418648
268, 66.666702, 33.315853, 42.623207
269, 66.666702, 26.717354, 38.752159
270, 66.666702, 33.344967, 34.966980
271, 66.666702, 26.767653, 31.108736
272, 66.666702, 39.816238, 54.255051
273, 66.666702, 33.386684, 27.328510
274, 66.666702, 33.152000, 73.230530
275, 66.666702, 39.764706, 69.453659
276, 66.666702, 39.957195, 31.179853
277, 66.666702, 40.000462, 23.569010
278, 66.666702, 26.821787, 23.501026
279, 66.666702, 39.717552, 77.067909
280, 66.666702, 20.048382, 42.550961
281, 66.666702, 46.327217, 73.311897
282, 66.666702, 20.206522, 27.258812
283, 66.666702, 46.377708, 65.713737
284, 66.666702, 20.331474, 19.794939
285, 66.666702, 20.023220, 80.614166
286, 66.666702, 33.007004, 80.631882
287, 66.666702, 46.612720, 27.307100
288, 66.666702, 46.521709, 34.944183
289, 66.666702, 46.587078, 19.795977
290, 66.666702, 46.262005, 80.704826
291, 66.666702, 40.168560, 15.924033
292, 66.666702, 27.403004, 16.644585
293, 66.666702, 13.660460, 23.410305
294, 66.666702, 53.022591, 69.464867
295, 66.666702, 53.289970, 30.967073
296, 66.666702, 13.955067, 16.240887
297, 66.666702, 7.551151, 11.564224
298, 66.666702, 52.950687, 61.806408
299, 66.666702, 59.635738, 57.824368
300, 66.666702, 52.662430, 54.233707
301, 66.666702, 13.448825, 30.971571
302, 66.666702, 26.533936, 76.935379
303, 66.666702, 26.409054, 84.387199
304, 66.666702, 59.346695, 50.104324
305, 66.666702, 52.734463, 46.470623
306, 66.666702, 13.333319, 61.631489
307, 66.666702, 6.789393, 26.980751
308, 66.666702, 13.287663, 38.663212
309, 66.666702, 59.816296, 73.076920
310, 66.666702, 33.535019, 19.831104
311, 66.666702, 39.049374, 83.764893
312, 66.666702, 59.909679, 19.224035
313, 66.666702, 52.866467, 16.130201
314, 66.666702, 13.815460, 84.000801
315, 66.666702, 59.262573, 88.597923
316, 66.666702, 52.616566, 84.063370
317, 66.666702, 53.136703, 38.603237
318, 66.666702, 6.660776, 65.416595
319, 66.666702, 13.385279, 53.959171
320, 66.666702, 6.685750, 50.069996
321, 66.666702, 39.882370, 46.498196
322, 66.666702, 59.968098, 34.669342
323, 66.666702, 53.210228, 23.403955
324, 66.666702, 39.893417, 38.748241
325, 66.666702, 40.390251, 7.786763
326, 66.666702, 26.203499, 92.406799
327, 66.666702, 39.787399, 61.867874
328, 66.666702, 19.989944, 57.857925
329, 66.666702, 20.079399, 34.884243
330, 66.666702, 41.085327, 94.170700
331, 66.666702, 25.476639, 6.054059
332, 66.666702, 20.027264, 50.193195
333, 66.666702, 13.338260, 46.312065
334, 66.666702, 52.991077, 76.902802
335, 66.666702, 6.645998, 42.404156
336, 66.666702, 46.313431, 58.104595
337, 66.666702, 46.338394, 42.277031
338, 66.666702, 11.395112, 94.435982
339, 66.666702, 55.245209, 5.623103
340, 66.666702, 55.267010, 94.464333
341, 66.666702, 46.291222, 50.306534
342, 66.666702, 11.468629, 5.695495
343, 66.666702, 46.424496, 12.844228
344, 66.666702, 21.191879, 12.506129
345, 66.666702, 34.025787, 13.066297
346, 66.666702, 45.405437, 87.745979
347, 66.666702, 20.247375, 87.419876
348, 66.666702, 32.403835, 87.226105
349, 66.666702, 5.633503, 5.704478
350, 66.666702, 5.455073, 94.569351
351, 66.666702, 61.210133, 5.434164
352, 66.666702, 61.214218, 94.574402
353, 66.666702, 29.011812, 10.914660
354, 66.666702, 14.759059, 10.487472
355, 66.666702, 37.284267, 89.472115
356, 66.666702, 51.799187, 10.307099
357, 66.666702, 14.241446, 89.676079
358, 66.666702, 52.167854, 89.791824
359, 32.829784, 66.666702, 93.978035
360, 33.938202, 66.666702, 6.135161
361, 6.760159, 66.666702, 42.345142
362, 59.965370, 66.666702, 57.733379
363, 59.980515, 66.666702, 34.688190
364, 6.826657, 66.666702, 65.469055
365, 60.018456, 66.666702, 73.101974
366, 6.671250, 66.666702, 26.999342
367, 6.764918, 66.666702, 80.794907
368, 59.875282, 66.666702, 19.300488
369, 48.304272, 66.666702, 93.925591
370, 18.518528, 66.666702, 6.415006
371, 18.379023, 66.666702, 94.087517
372, 48.148170, 66.666702, 6.415006
373, 59.279846, 66.666702, 88.598152
374, 7.389157, 66.666702, 11.410249
375, 59.905350, 66.666702, 80.801208
376, 53.373398, 66.666702, 76.962189
377, 53.365040, 66.666702, 69.301781
378, 46.745960, 66.666702, 73.163147
379, 46.716194, 66.666702, 65.521652
380, 40.108292, 66.666702, 69.381035
381, 40.079063, 66.666702, 61.738781
382, 33.480072, 66.666702, 65.598579
383, 33.435963, 66.666702, 57.946133
384, 40.032555, 66.666702, 54.080917
385, 33.387104, 66.666702, 50.286858
386, 39.993534, 66.666702, 46.418648
387, 33.350845, 66.666702, 42.623207
388, 39.949345, 66.666702, 38.752159
389, 33.321732, 66.666702, 34.966980
390, 39.899048, 66.666702, 31.108736
391, 26.850464, 66.666702, 54.255051
392, 33.280018, 66.666702, 27.328510
393, 33.514698, 66.666702, 73.230530
394, 26.901995, 66.666702, 69.453659
395, 26.709505, 66.666702, 31.179853
396, 26.666239, 66.666702, 23.569010
397, 39.844913, 66.666702, 23.501026
398, 26.949148, 66.666702, 77.067909
399, 46.618317, 66.666702, 42.550961
400, 20.339481, 66.666702, 73.311897
401, 46.460178, 66.666702, 27.258812
402, 20.288992, 66.666702, 65.713737
403, 46.335228, 66.666702, 19.794939
404, 46.643478, 66.666702, 80.614166
405, 33.659695, 66.666702, 80.631882
406, 20.053978, 66.666702, 27.307100
407, 20.144989, 66.666702, 34.944183
408, 20.079620, 66.666702, 19.795977
409, 20.404694, 66.666702, 80.704826
410, 26.498140, 66.666702, 15.924033
411, 39.263695, 66.666702, 16.644585
412, 53.006241, 66.666702, 23.410305
413, 13.644110, 66.666702, 69.464867
414, 13.376728, 66.666702, 30.967073
415, 52.711632, 66.666702, 16.240887
416, 59.115547, 66.666702, 11.564224
417, 13.716014, 66.666702, 61.806408
418, 7.030961, 66.666702, 57.824368
419, 14.004271, 66.666702, 54.233707
420, 53.217876, 66.666702, 30.971571
421, 40.132767, 66.666702, 76.935379
422, 40.257648, 66.666702, 84.387199
423, 7.320005, 66.666702, 50.104324
424, 13.932239, 66.666702, 46.470623
425, 53.333382, 66.666702, 61.631489
426, 59.877308, 66.666702, 26.980751
427, 53.379036, 66.666702, 38.663212
428, 6.850404, 66.666702, 73.076920
429, 33.131683, 66.666702, 19.831104
430, 27.617327, 66.666702, 83.764893
431, 6.757020, 66.666702, 19.224035
432, 13.800233, 66.666702, 16.130201
433, 52.851238, 66.666702, 84.000801
434, 7.404125, 66.666702, 88.597923
435, 14.050133, 66.666702, 84.063370
436, 13.529996, 66.666702, 38.603237
437, 60.005924, 66.666702, 65.416595
438, 53.281422, 66.666702, 53.959171
439, 59.980949, 66.666702, 50.069996
440, 26.784328, 66.666702, 46.498196
441, 6.698604, 66.666702, 34.669342
442, 13.456471, 66.666702, 23.403955
443, 26.773285, 66.666702, 38.748241
444, 26.276447, 66.666702, 7.786763
445, 40.463200, 66.666702, 92.406799
446, 26.879303, 66.666702, 61.867874
447, 46.676754, 66.666702, 57.857925
448, 46.587299, 66.666702, 34.884243
449, 25.581373, 66.666702, 94.170700
450, 41.190060, 66.666702, 6.054059
451, 46.639435, 66.666702, 50.193195
452, 53.328442, 66.666702, 46.312065
453, 13.675623, 66.666702, 76.902802
454, 60.020702, 66.666702, 42.404156
455, 20.353271, 66.666702, 58.104595
456, 20.328304, 66.666702, 42.277031
457, 55.271587, 66.666702, 94.435982
458, 11.421490, 66.666702, 5.623103
459, 11.399689, 66.666702, 94.464333
460, 20.375479, 66.666702, 50.306534
461, 55.198071, 66.666702, 5.695495
462, 20.242205, 66.666702, 12.844228
463, 45.474819, 66.666702, 12.506129
464, 32.640911, 66.666702, 13.066297
465, 21.261263, 66.666702, 87.745979
466, 46.419327, 66.666702, 87.419876
467, 34.262863, 66.666702, 87.226105
468, 61.033195, 66.666702, 5.704478
469, 61.211628, 66.666702, 94.569351
470, 5.456566, 66.666702, 5.434164
471, 5.452482, 66.666702, 94.574402
472, 37.654888, 66.666702, 10.914660
473, 51.907642, 66.666702, 10.487472
474, 29.382433, 66.666702, 89.472115
475, 14.867515, 66.666702, 10.307099
476, 52.425255, 66.666702, 89.676079
477, 14.498846, 66.666702, 89.791824
478, 0.000000, 33.801151, 93.984573
479, 0.000000, 32.708088, 6.149295
480, 0.000000, 6.707951, 50.048218
481, 0.000000, 59.863960, 42.141369
482, 0.000000, 59.816147, 65.475853
483, 0.000000, 6.667630, 26.889782
484, 0.000000, 6.645265, 73.104889
485, 0.000000, 59.990677, 27.008293
486, 0.000000, 59.883343, 80.800377
487, 0.000000, 18.518528, 6.415006
488, 0.000000, 18.346519, 93.923553
489, 0.000000, 48.148170, 6.415006
490, 0.000000, 48.282131, 94.090935
491, 0.000000, 7.386222, 88.598106
492, 0.000000, 7.388087, 11.412064
493, 0.000000, 59.277542, 11.410249
494, 0.000000, 6.758650, 80.801750
495, 0.000000, 13.268914, 76.953575
496, 0.000000, 13.291088, 69.310562
497, 0.000000, 19.898941, 73.170067
498, 0.000000, 19.934528, 65.542160
499, 0.000000, 26.530060, 69.398521
500, 0.000000, 26.567347, 61.766121
501, 0.000000, 33.151764, 65.624275
502, 0.000000, 33.201046, 57.981884
503, 0.000000, 26.605618, 54.120823
504, 0.000000, 33.189960, 50.328968
505, 0.000000, 26.636471, 46.456459
506, 0.000000, 33.216393, 42.668957
507, 0.000000, 26.680641, 38.798000
508, 0.000000, 33.307293, 35.018402
509, 0.000000, 26.742868, 31.166876
510, 0.000000, 39.704636, 54.086731
511, 0.000000, 33.355263, 27.398006
512, 0.000000, 33.113190, 73.247040
513, 0.000000, 39.721760, 69.477417
514, 0.000000, 39.928413, 31.236403
515, 0.000000, 39.961109, 23.631521
516, 0.000000, 26.807013, 23.566616
517, 0.000000, 39.673195, 77.092667
518, 0.000000, 20.077507, 34.879612
519, 0.000000, 46.277313, 73.334335
520, 0.000000, 46.329777, 65.744308
521, 0.000000, 19.963053, 80.616814
522, 0.000000, 32.939659, 80.649971
523, 0.000000, 46.587677, 27.354370
524, 0.000000, 46.637512, 34.887146
525, 0.000000, 46.558796, 19.852955
526, 0.000000, 13.345004, 61.670399
527, 0.000000, 20.007847, 50.221313
528, 0.000000, 46.228298, 80.721863
529, 0.000000, 40.129692, 15.968515
530, 0.000000, 52.976013, 69.485481
531, 0.000000, 53.445560, 30.872360
532, 0.000000, 52.898033, 61.828636
533, 0.000000, 59.592468, 57.834846
534, 0.000000, 52.618752, 54.152401
535, 0.000000, 59.715214, 49.901627
536, 0.000000, 53.050377, 45.832798
537, 0.000000, 46.241089, 49.875584
538, 0.000000, 26.474344, 76.950081
539, 0.000000, 26.335115, 84.391953
540, 0.000000, 59.779804, 73.076920
541, 0.000000, 33.512310, 19.944826
542, 0.000000, 27.380005, 16.698694
543, 0.000000, 20.278736, 19.813511
544, 0.000000, 6.763790, 19.196985
545, 0.000000, 13.886603, 16.106882
546, 0.000000, 13.521850, 23.328638
547, 0.000000, 13.426096, 30.908171
548, 0.000000, 6.706262, 34.613232
549, 0.000000, 59.908772, 19.225527
550, 0.000000, 52.859547, 16.144424
551, 0.000000, 38.985596, 83.783943
552, 0.000000, 13.778543, 83.997032
553, 0.000000, 6.685028, 42.309025
554, 0.000000, 13.359601, 46.252178
555, 0.000000, 59.257015, 88.598785
556, 0.000000, 52.593002, 84.072449
557, 0.000000, 6.676703, 65.432961
558, 0.000000, 6.693789, 57.771755
559, 0.000000, 20.142345, 27.277237
560, 0.000000, 60.102852, 34.590794
561, 0.000000, 53.225174, 23.409655
562, 0.000000, 39.819237, 38.773731
563, 0.000000, 26.148909, 92.407135
564, 0.000000, 25.463354, 6.068509
565, 0.000000, 40.371353, 7.805133
566, 0.000000, 39.733990, 61.866550
567, 0.000000, 19.983604, 57.925747
568, 0.000000, 13.384262, 38.586803
569, 0.000000, 41.059387, 94.179855
570, 0.000000, 20.044130, 42.551785
571, 0.000000, 13.349632, 53.981602
572, 0.000000, 52.956295, 76.915237
573, 0.000000, 46.254379, 57.925701
574, 0.000000, 39.684113, 46.395042
575, 0.000000, 11.421298, 5.623974
576, 0.000000, 11.392352, 94.435509
577, 0.000000, 55.245209, 5.623103
578, 0.000000, 55.264080, 94.464241
579, 0.000000, 46.569305, 42.342712
580, 0.000000, 53.278263, 38.444530
581, 0.000000, 46.410881, 12.868787
582, 0.000000, 21.168161, 12.496181
583, 0.000000, 33.964424, 13.109397
584, 0.000000, 45.376427, 87.759796
585, 0.000000, 20.161400, 87.411949
586, 0.000000, 32.280907, 87.235573
587, 0.000000, 5.454896, 94.569321
588, 0.000000, 5.456501, 5.434303
589, 0.000000, 61.210133, 5.434164
590, 0.000000, 61.210049, 94.570854
591, 0.000000, 28.950693, 10.956363
592, 0.000000, 37.192612, 89.501892
593, 0.000000, 14.867433, 10.310516
594, 0.000000, 51.799187, 10.307099
595, 0.000000, 14.213007, 89.673233
596, 0.000000, 52.154530, 89.797241
597, 33.236191, 6.560800, 0.000000
598, 32.800747, 60.004513, 0.000000
599, 6.748343, 33.310867, 0.000000
600, 60.251694, 33.333351, 0.000000
601, 6.062506, 18.793070, 0.000000
602, 18.798637, 60.184963, 0.000000
603, 48.293415, 6.276416, 0.000000
604, 60.251694, 48.148170, 0.000000
605, 48.790585, 60.027466, 0.000000
606, 19.532171, 6.447675, 0.000000
607, 60.502113, 18.949293, 0.000000
608, 7.510714, 48.192242, 0.000000
609, 60.394310, 55.524197, 0.000000
610, 53.223526, 53.002899, 0.000000
611, 53.734493, 44.636303, 0.000000
612, 47.421680, 48.148170, 0.000000
613, 47.404648, 40.772736, 0.000000
614, 41.003838, 44.449795, 0.000000
615, 41.003365, 37.043274, 0.000000
616, 34.590645, 40.742687, 0.000000
617, 34.659248, 33.468128, 0.000000
618, 41.233227, 30.057180, 0.000000
619, 27.986408, 36.761646, 0.000000
620, 28.496986, 29.213392, 0.000000
621, 28.144783, 44.398888, 0.000000
622, 21.523289, 40.389072, 0.000000
623, 21.793379, 47.949005, 0.000000
624, 40.954956, 51.600441, 0.000000
625, 28.681879, 52.835503, 0.000000
626, 15.016295, 44.360001, 0.000000
627, 14.808960, 36.814438, 0.000000
628, 15.146399, 53.183540, 0.000000
629, 6.751249, 55.746361, 0.000000
630, 7.698730, 40.706772, 0.000000
631, 13.338065, 29.259472, 0.000000
632, 20.553579, 31.544197, 0.000000
633, 23.059944, 24.062771, 0.000000
634, 30.040834, 22.150892, 0.000000
635, 24.998119, 17.127401, 0.000000
636, 17.681683, 18.694187, 0.000000
637, 31.821636, 14.900343, 0.000000
638, 37.037827, 20.060345, 0.000000
639, 38.999889, 13.290234, 0.000000
640, 43.962055, 18.647223, 0.000000
641, 26.076460, 10.269634, 0.000000
642, 6.326433, 25.870707, 0.000000
643, 53.816818, 37.074356, 0.000000
644, 7.029258, 11.692668, 0.000000
645, 55.533016, 6.263971, 0.000000
646, 52.441166, 11.894459, 0.000000
647, 25.725895, 60.186035, 0.000000
648, 60.231350, 40.778950, 0.000000
649, 53.833374, 29.635860, 0.000000
650, 47.452187, 33.418224, 0.000000
651, 47.446167, 25.138866, 0.000000
652, 54.512760, 22.471926, 0.000000
653, 34.591667, 48.148170, 0.000000
654, 40.857086, 59.081520, 0.000000
655, 60.405556, 26.040384, 0.000000
656, 40.740761, 6.243062, 0.000000
657, 11.502921, 6.015512, 0.000000
658, 14.687468, 11.979766, 0.000000
659, 59.946453, 11.624178, 0.000000
660, 55.622059, 60.504696, 0.000000
661, 22.222233, 54.757839, 0.000000
662, 35.560005, 26.465979, 0.000000
663, 11.984867, 22.360651, 0.000000
664, 45.608246, 12.345930, 0.000000
665, 11.658669, 60.681007, 0.000000
666, 35.577267, 54.334030, 0.000000
667, 46.566013, 54.293922, 0.000000
668, 20.595181, 12.903733, 0.000000
669, 5.590441, 61.076260, 0.000000
670, 41.461266, 23.962250, 0.000000
671, 61.244099, 61.244099, 0.000000
672, 61.244099, 5.422601, 0.000000
673, 5.422601, 5.422601, 0.000000
674, 17.323627, 25.184256, 0.000000
675, 49.913738, 18.145420, 0.000000
676, 25.981489, 4.339599, 0.000000
677, 11.434072, 16.675356, 0.000000
678, 55.299770, 16.822334, 0.000000
679, 33.236191, 6.560800, 100.000000
680, 32.800747, 60.004513, 100.000000
681, 6.748343, 33.310867, 100.000000
682, 60.251694, 33.333351, 100.000000
683, 48.293415, 6.276416, 100.000000
684, 60.251694, 48.148170, 100.000000
685, 18.798637, 60.184963, 100.000000
686, 6.062506, 18.793070, 100.000000
687, 48.790585, 60.027466, 100.000000
688, 19.532171, 6.447675, 100.000000
689, 60.502113, 18.949293, 100.000000
690, 7.510714, 48.192242, 100.000000
691, 60.394310, 55.524197, 100.000000
692, 53.223526, 53.002899, 100.000000
693, 53.734493, 44.636303, 100.000000
694, 47.421680, 48.148170, 100.000000
695, 47.404648, 40.772736, 100.000000
696, 41.003838, 44.449795, 100.000000
697, 41.003365, 37.043274, 100.000000
698, 34.590645, 40.742687, 100.000000
699, 34.659248, 33.468128, 100.000000
700, 41.233227, 30.057180, 100.000000
701, 27.986408, 36.761646, 100.000000
702, 28.496986, 29.213392, 100.000000
703, 28.144783, 44.398888, 100.000000
704, 21.523289, 40.389072, 100.000000
705, 21.793379, 47.949005, 100.000000
706, 40.954956, 51.600441, 100.000000
707, 28.681879, 52.835503, 100.000000
708, 15.016295, 44.360001, 100.000000
709, 14.808960, 36.814438, 100.000000
710, 15.146399, 53.183540, 100.000000
711, 6.751249, 55.746361, 100.000000
712, 7.698730, 40.706772, 100.000000
713, 13.338065, 29.259472, 100.000000
714, 20.553579, 31.544197, 100.000000
715, 23.059944, 24.062771, 100.000000
716, 30.040834, 22.150892, 100.000000
717, 24.998119, 17.127401, 100.000000
718, 17.681683, 18.694187, 100.000000
719, 31.821636, 14.900343, 100.000000
720, 37.037827, 20.060345, 100.000000
721, 38.999889, 13.290234, 100.000000
722, 43.962055, 18.647223, 100.000000
723, 26.076460, 10.269634, 100.000000
724, 6.326433, 25.870707, 100.000000
725, 53.816818, 37.074356, 100.000000
726, 7.029258, 11.692668, 100.000000
727, 55.533016, 6.263971, 100.000000
728, 52.441166, 11.894459, 100.000000
729, 25.725895, 60.186035, 100.000000
730, 60.231350, 40.778950, 100.000000
731, 53.833374, 29.635860, 100.000000
732, 47.452187, 33.418224, 100.000000
733, 47.446167, 25.138866, 100.000000
734, 54.512760, 22.471926, 100.000000
735, 40.857086, 59.081520, 100.000000
736, 34.591667, 48.148170, 100.000000
737, 60.405556, 26.040384, 100.000000
738, 40.740761, 6.243062, 100.000000
739, 11.502921, 6.015512, 100.000000
740, 14.687468, 11.979766, 100.000000
741, 59.946453, 11.624178, 100.000000
742, 55.622059, 60.504696, 100.000000
743, 22.222233, 54.757839, 100.000000
744, 35.560005, 26.465979, 100.000000
745, 11.984867, 22.360651, 100.000000
746, 45.608246, 12.345930, 100.000000
747, 11.658669, 60.681007, 100.000000
748, 35.577267, 54.334030, 100.000000
749, 46.566013, 54.293922, 100.000000
750, 20.595181, 12.903733, 100.000000
751, 5.590441, 61.076260, 100.000000
752, 41.461266, 23.962250, 100.000000
753, 61.244099, 5.422601, 100.000000
754, 61.244099, 61.244099, 100.000000
755, 5.422601, 5.422601, 100.000000
756, 17.323627, 25.184256, 100.000000
757, 49.913738, 18.145420, 100.000000
758, 25.981489, 4.339599, 100.000000
759, 11.434072, 16.675356, 100.000000
760, 55.299770, 16.822334, 100.000000
761, 33.331795, 33.334919, 61.804100
762, 35.908257, 31.059177, 30.938084
763, 44.530300, 22.160429, 77.877327
764, 44.244499, 44.564354, 77.830093
765, 22.114346, 22.121132, 77.645508
766, 22.678234, 43.967319, 44.506466
767, 21.965620, 44.402477, 77.451378
768, 22.613573, 21.825474, 46.133575
769, 44.852711, 44.418880, 46.324127
770, 21.497133, 45.180050, 22.826843
771, 45.163685, 21.513134, 48.038918
772, 45.953003, 45.946671, 20.568432
773, 19.940960, 24.408836, 20.183781
774, 47.042065, 19.631811, 19.373631
775, 17.510340, 49.214027, 60.808414
776, 16.992182, 16.988400, 61.851208
777, 49.991833, 29.906597, 63.635403
778, 36.529869, 16.665476, 63.809052
779, 34.668602, 49.473351, 33.242222
780, 49.181187, 49.892185, 62.141605
781, 33.245224, 33.231815, 83.336418
782, 16.720116, 33.127911, 66.256241
783, 33.249481, 50.125362, 66.733200
784, 16.587517, 32.121773, 34.538113
785, 28.492994, 16.370810, 31.743904
786, 33.467239, 36.665028, 15.885084
787, 50.839264, 36.999580, 33.193111
788, 51.108742, 15.545321, 34.364235
789, 32.209732, 15.302291, 16.513420
790, 32.924240, 51.585293, 85.242325
791, 33.545193, 32.931236, 46.227242
792, 51.527889, 14.915517, 66.345551
793, 33.551426, 51.485363, 14.471636
794, 50.330986, 52.086926, 33.653893
795, 52.121914, 33.474014, 83.999298
796, 33.271351, 14.526242, 83.980759
797, 14.636170, 51.989235, 34.487427
798, 14.524413, 33.267921, 84.008553
799, 14.855364, 33.371437, 51.474796
800, 33.081558, 51.795994, 51.869884
801, 14.197451, 16.027327, 35.462952
802, 51.614422, 33.246582, 14.562379
803, 13.801399, 14.840714, 86.292175
804, 52.934990, 14.901056, 86.360901
805, 53.151287, 32.964981, 46.453457
806, 33.506927, 14.037768, 50.352753
807, 13.376250, 14.546144, 13.363391
808, 14.146277, 36.197834, 14.346282
809, 53.561947, 49.414268, 86.694336
810, 13.106696, 49.388405, 86.706192
811, 13.027830, 13.043265, 49.610897
812, 16.584558, 53.719769, 13.631166
813, 38.783829, 25.858030, 12.169612
814, 13.106598, 53.563290, 72.858009
815, 33.369507, 26.050980, 72.535957
816, 53.501888, 53.864288, 50.136829
817, 53.070229, 53.729767, 74.194237
818, 12.616307, 12.612789, 73.418564
819, 53.738171, 40.595135, 69.943886
820, 13.396869, 53.172523, 48.415947
821, 40.275631, 12.545855, 27.881491
822, 54.477905, 12.144398, 12.451974
823, 53.563072, 13.064518, 53.522507
824, 25.988029, 12.752756, 69.872009
825, 53.571609, 53.834301, 13.187828
826, 54.356522, 25.984486, 27.725016
827, 26.725622, 39.583107, 32.942898
828, 27.367533, 22.945400, 57.786839
829, 39.033730, 24.047276, 88.308716
830, 43.775372, 39.286549, 57.842823
831, 19.050888, 12.259562, 24.420454
832, 38.850616, 20.683254, 37.273003
833, 26.947474, 24.302017, 88.511421
834, 34.347706, 39.288563, 72.603271
835, 24.371948, 39.906765, 56.164688
836, 40.949745, 9.317552, 73.291039
837, 40.873528, 40.746544, 88.639717
838, 55.339260, 24.743114, 73.152367
839, 44.645920, 33.357010, 73.736740
840, 11.306417, 24.903290, 73.162506
841, 40.274261, 55.089546, 42.583656
842, 27.420015, 54.795425, 41.487297
843, 11.434634, 40.393230, 27.435890
844, 11.446884, 25.115761, 42.923523
845, 11.249569, 41.100578, 73.293991
846, 25.996857, 55.318241, 27.378359
847, 42.529762, 11.729731, 11.569451
848, 54.817474, 42.402679, 53.895039
849, 24.937557, 55.364189, 73.606453
850, 39.086060, 54.973003, 75.768394
851, 11.571181, 40.069553, 42.041679
852, 43.132938, 40.746399, 10.691330
853, 26.490580, 41.873428, 88.331940
854, 24.692623, 33.261059, 75.430473
855, 31.393087, 26.469828, 21.192911
856, 43.314930, 31.160645, 40.012226
857, 43.559830, 55.310688, 88.659721
858, 43.023914, 34.747627, 22.389553
859, 23.688753, 11.153300, 41.188553
860, 41.914909, 55.429104, 26.185621
861, 10.974915, 24.297970, 27.770550
862, 55.114647, 24.649614, 54.488003
863, 42.420658, 11.103428, 43.183918
864, 24.943676, 43.771515, 11.483994
865, 13.732034, 25.516140, 10.702294
866, 24.246304, 30.881083, 11.281953
867, 55.167702, 11.529414, 24.132553
868, 26.681982, 26.783319, 36.486706
869, 40.939285, 25.570847, 57.967026
870, 26.159834, 10.983769, 58.571648
871, 55.227459, 44.468258, 40.999969
872, 55.355606, 22.286566, 42.700447
873, 55.957851, 43.381100, 25.306259
874, 22.950905, 11.003214, 80.705536
875, 10.850193, 23.125698, 54.464455
876, 42.724602, 10.835756, 56.231560
877, 11.390375, 55.278809, 23.866220
878, 33.961788, 43.856857, 43.103928
879, 22.669256, 55.356358, 88.595207
880, 55.635067, 10.964756, 76.111099
881, 43.287186, 55.850670, 54.554722
882, 24.698063, 40.831459, 67.263695
883, 55.667652, 23.283443, 11.185101
884, 23.818916, 34.300140, 23.564787
885, 10.998841, 40.133957, 59.583080
886, 23.300907, 19.122280, 10.893942
887, 32.595703, 44.859222, 23.344635
888, 26.481609, 55.725658, 59.912636
889, 42.695053, 10.916441, 89.140472
890, 56.345413, 10.799332, 42.975784
891, 55.593609, 55.630898, 24.225574
892, 40.489594, 40.295376, 34.655785
893, 56.041237, 43.017986, 10.959745
894, 14.188033, 24.653954, 89.996941
895, 43.150784, 54.217316, 10.274228
896, 43.811264, 24.259399, 28.478188
897, 23.910152, 25.337608, 67.612801
898, 22.928944, 33.182755, 44.320362
899, 41.739155, 56.797527, 65.553619
900, 49.673233, 24.614790, 89.523277
901, 23.207972, 14.586787, 90.268578
902, 10.666934, 45.778488, 18.052788
903, 42.520100, 43.591541, 67.431480
904, 10.026152, 56.628265, 63.011475
905, 34.056141, 43.395031, 58.610153
906, 56.786594, 42.003204, 79.932396
907, 42.488327, 24.455084, 68.067596
908, 9.685565, 9.692766, 60.278320
909, 56.664570, 56.874737, 59.708282
910, 56.685238, 56.854870, 40.559662
911, 43.035416, 32.219707, 50.309647
912, 33.488422, 9.877767, 38.083366
913, 25.776136, 56.308781, 9.608904
914, 56.254292, 40.259556, 90.529922
915, 9.768891, 9.844337, 28.395529
916, 21.029524, 9.516674, 9.383381
917, 32.733990, 22.805237, 45.171848
918, 30.560787, 9.394899, 24.631691
919, 57.285938, 29.991779, 36.496723
920, 20.550762, 22.243599, 29.965036
921, 57.248852, 36.455578, 61.551247
922, 57.185863, 23.359095, 82.947105
923, 22.791149, 56.718243, 50.414520
924, 14.934690, 43.424599, 50.919262
925, 31.136034, 47.965206, 76.181442
926, 42.733418, 31.271978, 83.008698
927, 56.003761, 57.792568, 90.767174
928, 9.702225, 26.715054, 63.590317
929, 46.458595, 20.440344, 9.322599
930, 57.316444, 22.439438, 63.806347
931, 46.183807, 9.807570, 20.502748
932, 9.449527, 9.415575, 41.112911
933, 57.218517, 33.956543, 22.656874
934, 33.701126, 16.516314, 74.462982
935, 18.699802, 27.548691, 58.404224
936, 23.940472, 48.866993, 34.482662
937, 9.524318, 28.799530, 19.057222
938, 57.823685, 8.929448, 61.642033
939, 9.219988, 22.200335, 82.145309
940, 10.708043, 57.849632, 90.641525
941, 56.972984, 20.274340, 20.322447
942, 9.816809, 40.207321, 89.953773
943, 57.468029, 49.004604, 67.014992
944, 26.825567, 31.203918, 52.887684
945, 19.202497, 57.103512, 66.066978
946, 9.619725, 47.468761, 66.166275
947, 16.582348, 57.587299, 81.163597
948, 8.958145, 16.964369, 21.694242
949, 48.201927, 19.306282, 58.477253
950, 57.438145, 33.729694, 75.341179
951, 47.444267, 9.465656, 80.765511
952, 38.080288, 19.895283, 22.361132
953, 17.541948, 41.721455, 34.715347
954, 37.651772, 32.593212, 91.365013
955, 23.958513, 32.988544, 85.739136
956, 32.857624, 23.429781, 81.417496
957, 33.581482, 57.380890, 21.971851
958, 57.835388, 30.108322, 91.133049
959, 21.752502, 9.343910, 50.314167
960, 34.125809, 43.298370, 9.128792
961, 34.307880, 8.834757, 68.350784
962, 9.075098, 48.927750, 56.198334
963, 49.290852, 25.063520, 36.075188
964, 33.094799, 19.617790, 8.367637
965, 23.114082, 8.634487, 32.119392
966, 9.322984, 57.408127, 40.623978
967, 49.870384, 57.883621, 82.081970
968, 18.023836, 9.063636, 66.682709
969, 9.041612, 17.924610, 66.636642
970, 30.506962, 10.412176, 8.473594
971, 57.702690, 8.973384, 32.850491
972, 37.806225, 39.959049, 50.680664
973, 23.440426, 57.896866, 18.640150
974, 30.853218, 8.116807, 76.887589
975, 8.511556, 32.906143, 76.945686
976, 37.376961, 58.310863, 34.344666
977, 35.560604, 41.825150, 81.291382
978, 8.426297, 55.726032, 9.586465
979, 50.875977, 33.919796, 55.358677
980, 46.931194, 44.536358, 29.618671
981, 41.883522, 33.929394, 65.024719
982, 26.124567, 18.071161, 22.940413
983, 35.411915, 57.730816, 58.933609
984, 56.869541, 8.345672, 91.261925
985, 15.445452, 44.610210, 9.689791
986, 44.748367, 8.955686, 64.939499
987, 32.949360, 19.131012, 92.289291
988, 8.961603, 8.962461, 81.070869
989, 46.635220, 57.422028, 18.350643
990, 37.699326, 33.957172, 8.438663
991, 7.920554, 15.634668, 92.351402
992, 8.032881, 28.945929, 35.070709
993, 38.394608, 48.729122, 91.896202
994, 35.273441, 57.700256, 91.554337
995, 57.441921, 20.599218, 91.688622
996, 15.098282, 32.214394, 25.489475
997, 20.136196, 48.691238, 69.567673
998, 50.740047, 58.299461, 66.577866
999, 30.638113, 8.604738, 91.020592
1000, 12.149776, 8.139479, 91.656273
1001, 24.368914, 8.582536, 17.892063
1002, 31.398674, 58.084301, 79.227554
1003, 18.615931, 57.670002, 40.677803
1004, 48.295010, 44.458416, 91.922058
1005, 48.306736, 8.653331, 29.248690
1006, 16.960104, 58.225258, 57.282894
1007, 32.186813, 58.635696, 69.420502
1008, 17.690651, 19.309103, 70.432243
1009, 24.869364, 48.777512, 54.295086
1010, 46.539158, 32.832218, 90.904091
1011, 33.302181, 36.066605, 37.863972
1012, 58.226810, 18.066475, 29.489399
1013, 21.258223, 17.565092, 53.946072
1014, 46.177605, 29.527588, 8.195473
1015, 40.363583, 49.589565, 60.331379
1016, 8.766185, 48.038677, 78.745911
1017, 48.767838, 51.777073, 42.630310
1018, 58.080528, 31.538626, 8.544467
1019, 8.917392, 44.952972, 34.867592
1020, 58.657764, 49.168346, 31.700560
1021, 34.711998, 8.653379, 59.454014
1022, 10.670334, 8.274796, 19.436693
1023, 17.879782, 41.711880, 85.200294
1024, 37.432514, 8.123009, 18.863539
1025, 8.318892, 58.295422, 54.126385
1026, 32.387894, 36.129227, 24.628826
1027, 24.477148, 33.229092, 61.982368
1028, 42.770367, 48.623249, 36.847385
1029, 48.771412, 28.120592, 21.196800
1030, 8.330403, 35.837112, 66.826630
1031, 33.373600, 24.829201, 63.868820
1032, 58.631035, 55.669674, 81.115181
1033, 9.181500, 8.287860, 8.410654
1034, 34.480049, 22.485575, 29.906891
1035, 8.188037, 31.361429, 90.988411
1036, 35.183826, 57.656380, 8.256897
1037, 38.667011, 8.304220, 80.909012
1038, 45.039803, 18.451422, 85.651169
1039, 8.334197, 58.332092, 31.742905
1040, 58.805748, 17.165033, 70.587555
1041, 45.343781, 51.036316, 71.075684
1042, 48.655296, 47.421200, 8.759605
1043, 17.838875, 58.287727, 29.143475
1044, 8.237547, 32.810417, 45.714157
1045, 41.776047, 7.663363, 34.979645
1046, 58.730923, 30.207182, 67.356995
1047, 18.796398, 23.527878, 38.443336
1048, 8.350971, 19.285126, 8.261840
1049, 33.381626, 58.813190, 46.454971
1050, 58.095039, 47.951122, 18.024920
1051, 38.265743, 44.570538, 16.777691
1052, 34.401024, 27.057232, 52.511189
1053, 17.935198, 8.388360, 58.070629
1054, 7.650462, 37.760208, 19.997864
1055, 59.076237, 57.354549, 68.996040
1056, 48.304180, 38.130295, 41.424664
1057, 47.685997, 48.320957, 53.646511
1058, 58.407021, 58.417244, 32.078140
1059, 8.160659, 31.067274, 56.343586
1060, 16.190470, 41.723610, 66.267891
1061, 52.214386, 18.513508, 78.030464
1062, 28.899778, 39.760021, 48.796486
1063, 25.124203, 51.453651, 81.298668
1064, 59.011585, 36.120869, 30.756153
1065, 7.904980, 56.142551, 82.223366
1066, 8.002594, 17.334604, 44.118313
1067, 8.059680, 32.100807, 9.546620
1068, 49.387592, 8.057543, 47.612728
1069, 59.126450, 32.164524, 54.109539
1070, 49.300102, 41.519066, 83.982552
1071, 58.626255, 58.606674, 7.947332
1072, 15.046966, 7.498234, 34.852566
1073, 8.580219, 48.257988, 42.982002
1074, 49.777100, 7.929983, 38.182827
1075, 44.235535, 32.476730, 30.449734
1076, 17.445148, 29.193478, 77.158379
1077, 46.556744, 58.586090, 37.850647
1078, 30.134558, 7.765421, 45.644569
1079, 49.489010, 15.993943, 42.802219
1080, 27.478222, 18.674622, 39.885788
1081, 58.935791, 36.774540, 41.437195
1082, 31.610384, 28.004919, 8.101336
1083, 26.677794, 27.757256, 28.089735
1084, 20.035986, 20.696396, 85.582611
1085, 39.764427, 41.493622, 26.314531
1086, 50.380619, 38.716927, 20.930843
1087, 46.538750, 58.671177, 47.168144
1088, 28.937494, 59.128571, 34.358864
1089, 58.442421, 48.598083, 58.533947
1090, 7.855598, 7.845672, 68.318321
1091, 50.607891, 41.593372, 62.190628
1092, 18.050386, 35.741482, 91.788757
1093, 40.753895, 49.064697, 83.911980
1094, 26.294798, 47.690453, 62.567623
1095, 58.984043, 16.942335, 48.236134
1096, 34.718567, 27.846458, 38.576668
1097, 39.869308, 18.357887, 53.767750
1098, 49.229912, 7.694372, 71.870064
1099, 20.232714, 47.428455, 91.400497
1100, 49.208015, 58.827274, 28.711735
1101, 14.744545, 48.157825, 26.951681
1102, 49.778973, 28.482073, 77.908005
1103, 29.838522, 48.506447, 92.646233
1104, 8.054796, 38.626537, 51.822277
1105, 27.331503, 50.721050, 20.507750
1106, 50.371544, 37.803127, 7.621307
1107, 29.356430, 31.541109, 91.990395
1108, 58.288940, 7.174192, 7.462872
1109, 27.796867, 38.917755, 80.672348
1110, 47.279766, 16.873978, 27.161257
1111, 49.995773, 7.480950, 58.609486
1112, 8.166589, 40.033966, 81.598129
1113, 30.240000, 32.953320, 69.393845
1114, 7.165510, 17.724001, 31.265642
1115, 59.082016, 16.698332, 37.703854
1116, 36.926292, 32.424992, 76.127121
1117, 19.118813, 8.115265, 87.347168
1118, 39.453342, 27.691433, 20.152851
1119, 17.317415, 16.125238, 43.178547
1120, 38.146805, 7.146630, 50.362106
1121, 40.121239, 38.280224, 42.876060
1122, 58.321098, 16.858149, 7.344680
1123, 17.716831, 37.399437, 76.764282
1124, 48.935741, 8.022583, 8.002543
1125, 33.474648, 39.612957, 91.964867
1126, 28.530222, 18.260628, 64.387978
1127, 46.377159, 58.524944, 74.341438
1128, 58.561504, 47.385109, 48.192692
1129, 20.018850, 37.619907, 8.445510
1130, 59.243645, 16.426493, 58.484428
1131, 59.197823, 10.270049, 83.552803
1132, 27.090347, 40.421379, 19.295033
1133, 15.307113, 17.908598, 78.938499
1134, 7.280469, 36.998756, 33.652481
1135, 59.203724, 50.594177, 92.270638
1136, 29.798277, 36.308861, 8.511204
1137, 45.891396, 17.903973, 71.212578
1138, 38.633438, 58.730724, 83.053406
1139, 58.513828, 27.784653, 17.418228
1140, 16.899616, 7.454082, 43.962185
1141, 59.456520, 48.960396, 76.366173
1142, 7.764346, 41.154453, 11.411949
1143, 50.628784, 37.794510, 76.846329
1144, 59.255276, 7.444664, 69.610649
1145, 50.595764, 59.149582, 7.927024
1146, 7.675451, 7.680568, 52.633038
1147, 40.754772, 17.708620, 92.786972
1148, 58.911137, 50.390068, 7.970453
1149, 7.697004, 15.670386, 55.149288
1150, 40.404991, 52.170506, 18.854216
1151, 17.424809, 6.911261, 76.489296
1152, 43.086510, 33.604885, 14.416462
1153, 15.619252, 59.021458, 7.460337
1154, 16.751345, 49.174381, 41.984417
1155, 48.831306, 51.346046, 25.786592
1156, 38.490376, 47.467426, 73.124924
1157, 9.914075, 59.399605, 16.847206
1158, 39.879326, 15.950210, 79.349052
1159, 48.293362, 15.202493, 92.801056
1160, 6.851580, 17.299906, 76.316460
1161, 58.774719, 7.902199, 17.851721
1162, 19.786953, 16.723639, 17.744745
1163, 35.911503, 15.801016, 42.911346
1164, 49.684551, 7.329792, 88.065620
1165, 17.775446, 35.960052, 58.496029
1166, 16.357008, 25.793879, 49.251789
1167, 58.743900, 58.760380, 17.288801
1168, 7.126237, 50.129486, 28.893347
1169, 40.548698, 18.635216, 14.929950
1170, 29.161116, 23.434721, 14.162383
1171, 39.663815, 26.748278, 45.573883
1172, 7.632722, 59.038025, 70.392494
1173, 35.012291, 6.995574, 30.802080
1174, 51.658794, 46.003990, 75.374695
1175, 58.827423, 27.489027, 47.652546
1176, 49.519886, 52.242046, 92.918816
1177, 59.391136, 7.320341, 53.769501
1178, 59.114479, 36.597462, 15.094263
1179, 29.733278, 59.259594, 53.538708
1180, 39.785057, 47.474590, 52.625854
1181, 50.368538, 23.033360, 67.356163
1182, 50.108757, 59.675888, 56.128216
1183, 16.591930, 38.984509, 21.457773
1184, 47.489368, 26.592146, 53.644657
1185, 15.356665, 31.974937, 42.356052
1186, 7.490755, 50.651009, 92.334312
1187, 40.602634, 47.386555, 7.296246
1188, 48.857868, 26.958286, 43.708672
1189, 45.730682, 52.152699, 78.775673
1190, 7.591762, 31.377993, 27.621880
1191, 27.193907, 20.035326, 72.193344
1192, 26.501572, 27.781441, 80.598511
1193, 59.334652, 30.873007, 82.386269
1194, 31.881004, 16.586758, 57.544521
1195, 24.179293, 59.698708, 82.118530
1196, 26.891624, 18.676046, 82.646584
1197, 7.258379, 21.934870, 15.699438
1198, 15.170394, 15.789239, 93.702126
1199, 16.480515, 49.922657, 79.064819
1200, 27.584682, 6.940689, 65.016174
1201, 59.459141, 38.228401, 49.134350
1202, 40.108654, 17.436497, 6.432818
1203, 37.953293, 58.936783, 15.560025
1204, 43.719681, 26.506432, 93.451599
1205, 30.213816, 6.866191, 53.368034
1206, 26.299549, 15.045466, 47.461830
1207, 51.571415, 33.227966, 70.391418
1208, 36.215588, 39.734646, 65.093117
1209, 59.850952, 17.116026, 78.284286
1210, 18.394596, 52.331043, 21.249863
1211, 20.924671, 28.445005, 91.379990
1212, 6.931850, 22.537653, 89.368622
1213, 21.140015, 49.982750, 8.289224
1214, 29.097963, 49.327324, 7.439897
1215, 15.930900, 19.348909, 24.462980
1216, 28.666161, 48.694263, 46.213360
1217, 16.277246, 18.872850, 7.622018
1218, 59.046577, 59.111076, 52.436146
1219, 41.509945, 37.636906, 79.119995
1220, 37.238800, 33.715378, 55.168255
1221, 33.820023, 42.077354, 31.203392
1222, 43.412407, 15.171690, 34.411503
1223, 48.081264, 38.058914, 49.406353

*ELEMENT, TYPE=C3D4, ELSET=ALL_ELEMENTS
1, 275, 921, 819, 943
2, 324, 871, 288, 1064
3, 871, 1020, 288, 1064
4, 835, 898, 799, 924
5, 766, 898, 835, 924
6, 826, 787, 933, 1075
7, 400, 849, 814, 945
8, 826, 933, 1029, 1075
9, 674, 865, 633, 866
10, 770, 884, 827, 953
11, 674, 633, 865, 1217
12, 801, 859, 785, 1080
13, 766, 898, 827, 1011
14, 770, 887, 846, 936
15, 814, 849, 400, 947
16, 281, 819, 275, 906
17, 770, 884, 953, 1183
18, 183, 824, 140, 1151
19, 279, 281, 275, 906
20, 518, 992, 844, 1114
21, 933, 1075, 787, 1086
22, 140, 183, 142, 824
23, 1029, 1075, 933, 1086
24, 518, 844, 1066, 1114
25, 633, 886, 865, 1217
26, 183, 974, 824, 1151
27, 846, 887, 770, 1105
28, 928, 935, 897, 1008
29, 770, 827, 887, 936
30, 801, 785, 920, 1080
31, 539, 939, 975, 1035
32, 801, 785, 859, 965
33, 784, 868, 827, 898
34, 778, 986, 949, 1137
35, 1084, 1198, 901, 1211
36, 773, 866, 808, 884
37, 729, 879, 449, 994
38, 774, 929, 813, 1029
39, 675, 822, 646, 1122
40, 822, 929, 675, 1124
41, 779, 887, 860, 1085
42, 646, 822, 675, 1124
43, 841, 842, 779, 878
44, 675, 929, 822, 1122
45, 633, 866, 865, 886
46, 771, 823, 876, 1068
47, 819, 906, 281, 1141
48, 772, 852, 1042, 1086
49, 860, 887, 779, 957
50, 782, 928, 897, 1008
51, 142, 824, 183, 974
52, 784, 953, 884, 996
53, 784, 827, 884, 953
54, 776, 935, 928, 1008
55, 771, 876, 863, 1068
56, 464, 957, 973, 1203
57, 766, 898, 1011, 1062
58, 871, 787, 980, 1020
59, 884, 996, 953, 1183
60, 929, 1014, 813, 1029
61, 844, 875, 505, 1066
62, 771, 863, 876, 1097
63, 883, 1014, 929, 1029
64, 773, 884, 808, 996
65, 464, 973, 913, 1203
66, 779, 846, 887, 936
67, 779, 860, 980, 1085
68, 527, 505, 875, 1066
69, 783, 983, 800, 1094
70, 408, 877, 973, 1043
71, 206, 847, 656, 970
72, 408, 973, 877, 1157
73, 851, 898, 799, 1185
74, 801, 920, 1047, 1080
75, 787, 1020, 871, 1064
76, 800, 905, 783, 1094
77, 324, 871, 1064, 1081
78, 798, 975, 939, 1035
79, 800, 983, 888, 1094
80, 408, 442, 877, 1043
81, 871, 1028, 980, 1056
82, 783, 888, 983, 1094
83, 799, 898, 851, 924
84, 177, 1001, 916, 1022
85, 324, 288, 276, 1064
86, 766, 878, 827, 936
87, 371, 879, 685, 940
88, 408, 877, 442, 1157
89, 211, 738, 889, 999
90, 921, 943, 327, 1089
91, 893, 1042, 852, 1086
92, 874, 1008, 824, 1151
93, 784, 827, 868, 1083
94, 851, 898, 766, 924
95, 507, 844, 518, 992
96, 783, 905, 800, 983
97, 782, 840, 928, 1008
98, 766, 827, 898, 953
99, 771, 862, 823, 1095
100, 688, 723, 758, 1117
101, 477, 879, 371, 940
102, 723, 999, 758, 1117
103, 860, 1085, 887, 1150
104, 394, 945, 888, 1007
105, 897, 928, 782, 935
106, 784, 898, 827, 953
107, 631, 1067, 865, 1129
108, 505, 875, 844, 1044
109, 394, 446, 888, 945
110, 400, 814, 413, 945
111, 766, 827, 878, 1011
112, 778, 949, 907, 1137
113, 784, 884, 827, 1083
114, 446, 394, 888, 1007
115, 774, 883, 929, 1029
116, 921, 1046, 777, 1069
117, 523, 843, 515, 902
118, 570, 518, 507, 844
119, 875, 1044, 505, 1059
120, 474, 449, 879, 994
121, 846, 779, 887, 957
122, 503, 875, 505, 1059
123, 570, 518, 844, 1066
124, 271, 329, 919, 1012
125, 772, 1042, 893, 1086
126, 329, 919, 1012, 1115
127, 357, 984, 338, 995
128, 466, 476, 927, 967
129, 887, 936, 827, 1221
130, 400, 453, 814, 947
131, 916, 1022, 807, 1033
132, 586, 539, 522, 975
133, 776, 897, 935, 1008
134, 785, 801, 920, 965
135, 822, 941, 296, 1122
136, 786, 866, 855, 884
137, 288, 1020, 276, 1064
138, 766, 835, 898, 1062
139, 842, 878, 841, 1216
140, 489, 978, 594, 1142
141, 894, 1198, 1084, 1211
142, 413, 400, 453, 814
143, 821, 918, 785, 952
144, 159, 918, 831, 965
145, 121, 738, 211, 999
146, 963, 1012, 919, 1115
147, 525, 523, 515, 902
148, 840, 499, 975, 1030
149, 771, 872, 862, 1095
150, 715, 833, 901, 1211
151, 547, 932, 915, 1114
152, 905, 983, 783, 1015
153, 547, 568, 932, 1114
154, 548, 915, 547, 932
155, 548, 547, 568, 932
156, 827, 898, 868, 1011
157, 608, 985, 978, 1142
158, 792, 949, 986, 1137
159, 365, 1032, 376, 1055
160, 873, 980, 787, 1020
161, 763, 815, 907, 934
162, 586, 539, 975, 1035
163, 317, 871, 910, 1020
164, 768, 917, 898, 944
165, 163, 159, 831, 965
166, 831, 918, 159, 1001
167, 771, 876, 823, 949
168, 787, 873, 1020, 1064
169, 552, 595, 988, 991
170, 718, 1198, 894, 1211
171, 901, 999, 723, 1117
172, 163, 831, 915, 1072
173, 869, 979, 830, 981
174, 766, 1011, 878, 1062
175, 785, 821, 952, 1034
176, 327, 943, 283, 1089
177, 994, 1002, 790, 1195
178, 281, 275, 819, 943
179, 523, 843, 902, 1168
180, 424, 820, 923, 1006
181, 194, 931, 822, 1124
182, 552, 803, 939, 991
183, 779, 957, 846, 976
184, 802, 1014, 883, 1029
185, 779, 936, 887, 1221
186, 882, 925, 783, 997
187, 851, 953, 898, 1185
188, 262, 930, 1046, 1069
189, 608, 978, 489, 1142
190, 376, 1032, 817, 1055
191, 800, 983, 905, 1015
192, 766, 898, 851, 953
193, 779, 878, 842, 936
194, 184, 974, 874, 999
195, 794, 871, 980, 1020
196, 779, 980, 860, 1028
197, 386, 881, 384, 1049
198, 211, 889, 236, 999
199, 791, 898, 868, 917
200, 773, 865, 808, 866
201, 841, 1017, 1087, 1180
202, 898, 917, 791, 944
203, 762, 856, 832, 896
204, 824, 874, 765, 1008
205, 840, 928, 499, 1030
206, 879, 994, 790, 1195
207, 787, 871, 980, 1056
208, 916, 1001, 807, 1022
209, 794, 980, 871, 1028
210, 567, 928, 969, 1149
211, 762, 868, 827, 1083
212, 347, 995, 922, 1131
213, 877, 902, 550, 1157
214, 763, 956, 926, 1116
215, 762, 827, 868, 1011
216, 847, 970, 226, 1024
217, 768, 944, 828, 1052
218, 829, 744, 954, 1107
219, 766, 1009, 923, 1154
220, 1057, 1087, 1017, 1180
221, 357, 995, 347, 1131
222, 777, 979, 869, 981
223, 140, 824, 142, 968
224, 515, 902, 843, 1054
225, 768, 828, 917, 1052
226, 785, 952, 918, 982
227, 275, 819, 921, 1046
228, 881, 983, 384, 1049
229, 925, 977, 790, 1109
230, 833, 1084, 901, 1211
231, 887, 957, 860, 1150
232, 782, 897, 840, 1008
233, 163, 915, 182, 1072
234, 771, 876, 949, 1097
235, 801, 861, 992, 1047
236, 489, 594, 581, 1142
237, 758, 999, 207, 1117
238, 893, 1086, 852, 1106
239, 881, 1087, 1057, 1180
240, 844, 992, 801, 1114
241, 567, 875, 928, 1149
242, 842, 936, 878, 1216
243, 826, 919, 963, 1012
244, 271, 919, 826, 1012
245, 474, 1002, 994, 1195
246, 823, 1079, 771, 1095
247, 275, 950, 819, 1046
248, 923, 1009, 820, 1154
249, 424, 923, 460, 1006
250, 902, 978, 550, 1157
251, 386, 881, 1049, 1087
252, 140, 824, 968, 1151
253, 783, 882, 997, 1094
254, 841, 1087, 881, 1180
255, 688, 901, 723, 1117
256, 768, 868, 898, 917
257, 491, 988, 595, 991
258, 369, 857, 927, 1176
259, 768, 917, 944, 1052
260, 163, 831, 174, 915
261, 347, 1131, 922, 1209
262, 787, 963, 919, 1056
263, 978, 985, 902, 1142
264, 163, 831, 159, 1001
265, 763, 934, 907, 1137
266, 829, 987, 744, 1107
267, 808, 1129, 1067, 1142
268, 477, 879, 940, 947
269, 966, 1019, 580, 1168
270, 768, 917, 828, 1206
271, 767, 834, 882, 925
272, 763, 815, 956, 1116
273, 271, 273, 278, 826
274, 970, 1001, 226, 1024
275, 819, 281, 943, 1141
276, 770, 985, 902, 1210
277, 919, 1056, 963, 1188
278, 820, 1006, 419, 1025
279, 922, 995, 804, 1131
280, 278, 826, 273, 933
281, 121, 211, 236, 999
282, 464, 410, 913, 973
283, 844, 801, 1066, 1114
284, 290, 906, 809, 1141
285, 936, 1043, 1003, 1088
286, 530, 946, 814, 1016
287, 229, 167, 974, 1037
288, 773, 855, 866, 884
289, 832, 856, 762, 1096
290, 856, 896, 762, 1075
291, 869, 911, 830, 979
292, 273, 826, 271, 1064
293, 787, 856, 963, 1056
294, 767, 882, 834, 1109
295, 424, 419, 820, 1006
296, 688, 758, 207, 1117
297, 474, 994, 879, 1195
298, 831, 920, 801, 965
299, 226, 847, 206, 970
300, 512, 975, 499, 1030
301, 801, 992, 844, 1047
302, 327, 272, 921, 1089
303, 761, 835, 882, 905
304, 768, 828, 944, 1166
305, 849, 888, 783, 1094
306, 707, 879, 729, 994
307, 963, 1056, 856, 1188
308, 466, 927, 857, 967
309, 550, 877, 561, 902
310, 939, 1076, 894, 1084
311, 808, 996, 884, 1183
312, 935, 944, 828, 1166
313, 530, 519, 946, 1016
314, 772, 893, 1042, 1050
315, 820, 962, 536, 1073
316, 782, 840, 897, 1076
317, 344, 296, 941, 1122
318, 771, 1079, 872, 1095
319, 981, 1091, 903, 1207
320, 771, 963, 832, 1188
321, 813, 1029, 1014, 1152
322, 586, 975, 522, 1112
323, 160, 836, 961, 974
324, 820, 1006, 775, 1009
325, 290, 809, 316, 1141
326, 770, 985, 864, 1183
327, 853, 790, 977, 1109
328, 974, 999, 229, 1037
329, 491, 988, 991, 1000
330, 765, 1008, 874, 1133
331, 775, 924, 820, 1009
332, 149, 863, 912, 1120
333, 226, 1001, 173, 1024
334, 829, 833, 781, 956
335, 798, 1076, 955, 1084
336, 771, 832, 963, 1079
337, 763, 829, 926, 956
338, 314, 357, 347, 1131
339, 763, 815, 934, 956
340, 338, 984, 741, 995
341, 953, 996, 843, 1183
342, 346, 809, 290, 906
343, 366, 485, 549, 1157
344, 848, 921, 272, 1089
345, 828, 917, 1052, 1194
346, 163, 174, 182, 915
347, 366, 877, 485, 1157
348, 273, 933, 826, 1064
349, 552, 991, 939, 1212
350, 586, 1035, 975, 1112
351, 815, 763, 907, 1116
352, 785, 952, 982, 1034
353, 819, 903, 1091, 1207
354, 656, 847, 639, 970
355, 718, 894, 756, 1211
356, 841, 769, 1017, 1180
357, 823, 1068, 771, 1079
358, 767, 834, 925, 1109
359, 392, 957, 860, 976
360, 981, 1031, 815, 1113
361, 835, 1062, 905, 1220
362, 783, 888, 849, 1007
363, 876, 949, 778, 986
364, 846, 957, 887, 1105
365, 371, 449, 685, 879
366, 771, 1079, 963, 1188
367, 778, 907, 934, 1137
368, 864, 1105, 812, 1210
369, 142, 968, 824, 1200
370, 424, 820, 419, 1025
371, 800, 878, 841, 1180
372, 835, 905, 761, 1220
373, 973, 1043, 877, 1210
374, 774, 822, 867, 931
375, 799, 898, 835, 944
376, 485, 877, 549, 1157
377, 772, 1042, 825, 1050
378, 822, 847, 774, 929
379, 877, 1157, 973, 1210
380, 200, 811, 959, 1140
381, 781, 833, 829, 1107
382, 392, 860, 390, 976
383, 431, 366, 549, 1157
384, 763, 956, 934, 1158
385, 761, 882, 835, 1027
386, 830, 911, 869, 1220
387, 797, 1019, 966, 1168
388, 872, 963, 919, 1115
389, 769, 1057, 1017, 1180
390, 160, 836, 974, 1037
391, 149, 912, 1078, 1120
392, 773, 808, 865, 937
393, 262, 862, 930, 1069
394, 194, 822, 931, 1161
395, 783, 882, 834, 925
396, 938, 179, 1098, 1111
397, 772, 980, 860, 1085
398, 779, 842, 841, 976
399, 864, 812, 1105, 1213
400, 835, 761, 944, 1220
401, 323, 287, 1020, 1050
402, 780, 903, 819, 1041
403, 846, 976, 957, 1088
404, 149, 202, 863, 1120
405, 874, 974, 796, 999
406, 774, 867, 822, 941
407, 772, 1085, 860, 1150
408, 357, 984, 995, 1131
409, 683, 133, 211, 889
410, 863, 771, 1068, 1079
411, 424, 923, 820, 1003
412, 337, 871, 317, 1020
413, 796, 999, 974, 1037
414, 849, 945, 888, 1094
415, 779, 976, 846, 1088
416, 523, 902, 525, 1168
417, 773, 808, 937, 996
418, 801, 859, 1080, 1119
419, 835, 944, 1062, 1220
420, 839, 907, 763, 1116
421, 397, 390, 392, 860
422, 750, 901, 1117, 1198
423, 194, 224, 931, 1124
424, 865, 1162, 773, 1197
425, 149, 863, 205, 912
426, 766, 878, 936, 1216
427, 839, 981, 903, 1207
428, 125, 915, 548, 932
429, 813, 774, 1029, 1118
430, 717, 715, 833, 901
431, 329, 269, 919, 1115
432, 314, 1131, 347, 1209
433, 157, 158, 821, 1005
434, 537, 536, 962, 1073
435, 812, 902, 985, 1210
436, 774, 847, 822, 931
437, 801, 992, 861, 1114
438, 537, 1073, 962, 1104
439, 966, 580, 1039, 1168
440, 200, 959, 811, 1053
441, 822, 774, 883, 929
442, 911, 979, 869, 1184
443, 779, 860, 957, 976
444, 160, 961, 155, 974
445, 338, 250, 357, 995
446, 841, 878, 769, 1180
447, 820, 923, 1006, 1009
448, 819, 839, 903, 1207
449, 424, 460, 419, 1006
450, 750, 1117, 688, 1198
451, 893, 1050, 772, 1086
452, 815, 981, 907, 1031
453, 907, 981, 815, 1116
454, 977, 993, 790, 1125
455, 809, 1032, 316, 1141
456, 819, 780, 1041, 1174
457, 768, 1013, 828, 1166
458, 770, 1105, 864, 1210
459, 477, 465, 371, 879
460, 809, 906, 346, 914
461, 981, 1113, 815, 1116
462, 205, 149, 202, 863
463, 873, 1020, 287, 1050
464, 346, 316, 290, 809
465, 184, 229, 974, 999
466, 801, 1080, 1047, 1119
467, 632, 865, 674, 866
468, 763, 900, 1061, 1102
469, 323, 1020, 891, 1050
470, 632, 631, 865, 1129
471, 1129, 1132, 864, 1183
472, 397, 860, 392, 957
473, 955, 1084, 1076, 1192
474, 866, 886, 633, 1082
475, 1042, 1051, 772, 1150
476, 344, 941, 883, 1122
477, 158, 931, 821, 1005
478, 282, 826, 278, 941
479, 828, 1013, 935, 1166
480, 1003, 1039, 436, 1043
481, 337, 317, 288, 1020
482, 477, 465, 879, 947
483, 831, 1001, 165, 1022
484, 823, 862, 771, 949
485, 947, 1065, 453, 1172
486, 962, 1073, 924, 1104
487, 447, 381, 881, 899
488, 634, 633, 886, 1082
489, 824, 974, 874, 1151
490, 849, 783, 925, 997
491, 177, 165, 1001, 1022
492, 773, 1197, 1162, 1215
493, 695, 1004, 725, 1010
494, 827, 770, 887, 1132
495, 369, 687, 857, 1176
496, 819, 943, 780, 1174
497, 718, 756, 715, 1211
498, 424, 966, 820, 1025
499, 337, 288, 871, 1020
500, 957, 976, 392, 1088
501, 902, 985, 770, 1183
502, 580, 1019, 966, 1073
503, 311, 914, 906, 1193
504, 819, 903, 839, 1143
505, 536, 820, 534, 962
506, 869, 981, 830, 1220
507, 552, 988, 803, 991
508, 467, 994, 474, 1002
509, 798, 1084, 955, 1211
510, 384, 1049, 983, 1179
511, 786, 866, 884, 1132
512, 534, 962, 820, 1025
513, 774, 822, 883, 941
514, 649, 652, 883, 1014
515, 277, 873, 1050, 1178
516, 791, 917, 868, 1096
517, 804, 922, 1131, 1209
518, 761, 1031, 981, 1113
519, 750, 901, 688, 1117
520, 772, 1050, 825, 1155
521, 336, 272, 327, 1089
522, 780, 819, 903, 1091
523, 157, 168, 158, 1005
524, 869, 907, 778, 949
525, 376, 817, 377, 1055
526, 975, 1035, 798, 1112
527, 430, 1002, 474, 1195
528, 495, 818, 988, 1090
529, 894, 939, 798, 1076
530, 225, 916, 177, 1001
531, 536, 820, 966, 1025
532, 138, 988, 818, 1090
533, 793, 960, 1051, 1132
534, 282, 826, 941, 1012
535, 525, 550, 561, 902
536, 761, 905, 882, 1208
537, 772, 852, 1086, 1152
538, 464, 913, 1036, 1203
539, 769, 871, 848, 1223
540, 848, 871, 769, 1128
541, 683, 133, 889, 1164
542, 725, 1004, 914, 1010
543, 807, 1022, 1001, 1162
544, 495, 988, 484, 1090
545, 1067, 1129, 627, 1142
546, 648, 893, 643, 1018
547, 834, 882, 854, 1109
548, 394, 849, 945, 1007
549, 138, 127, 988, 1090
550, 872, 919, 269, 1115
551, 855, 866, 786, 1170
552, 835, 775, 924, 1165
553, 632, 865, 866, 1129
554, 697, 837, 695, 1010
555, 777, 869, 979, 1184
556, 516, 861, 948, 1197
557, 821, 912, 785, 1173
558, 806, 1052, 917, 1194
559, 800, 841, 878, 1216
560, 886, 964, 634, 1082
561, 525, 902, 515, 1054
562, 447, 899, 881, 1182
563, 152, 150, 912, 965
564, 840, 1008, 897, 1076
565, 770, 827, 936, 953
566, 184, 229, 167, 974
567, 798, 894, 1076, 1084
568, 874, 934, 824, 1191
569, 763, 900, 1038, 1061
570, 561, 902, 877, 1168
571, 163, 965, 831, 1072
572, 491, 552, 595, 988
573, 384, 881, 386, 1087
574, 200, 811, 1140, 1146
575, 264, 262, 1046, 1069
576, 385, 1049, 384, 1179
577, 376, 377, 817, 1127
578, 561, 525, 902, 1168
579, 152, 150, 151, 912
580, 936, 846, 1043, 1088
581, 664, 675, 929, 1124
582, 853, 977, 790, 1125
583, 631, 627, 1067, 1129
584, 516, 937, 861, 1197
585, 814, 1065, 947, 1172
586, 534, 820, 536, 1025
587, 787, 1075, 980, 1086
588, 772, 1086, 858, 1152
589, 826, 919, 271, 1064
590, 797, 966, 1039, 1168
591, 871, 1017, 1028, 1056
592, 764, 839, 903, 1143
593, 530, 814, 572, 1016
594, 879, 994, 707, 1103
595, 865, 1067, 808, 1129
596, 1017, 1057, 769, 1128
597, 807, 1022, 545, 1033
598, 785, 920, 831, 965
599, 814, 947, 453, 1172
600, 262, 862, 328, 930
601, 662, 670, 813, 1202
602, 769, 1028, 1017, 1056
603, 858, 980, 1075, 1086
604, 868, 898, 791, 1011
605, 849, 997, 945, 1094
606, 160, 836, 156, 961
607, 934, 1191, 874, 1196
608, 822, 296, 941, 1161
609, 832, 896, 856, 963
610, 834, 882, 783, 1208
611, 721, 889, 738, 999
612, 256, 246, 129, 880
613, 446, 888, 983, 1007
614, 789, 1001, 970, 1024
615, 264, 1046, 921, 1069
616, 717, 718, 715, 901
617, 943, 1041, 780, 1174
618, 440, 842, 923, 1003
619, 495, 818, 1090, 1160
620, 125, 915, 932, 1072
621, 807, 1162, 865, 1197
622, 976, 1028, 860, 1077
623, 784, 898, 953, 1185
624, 190, 129, 246, 880
625, 858, 1075, 1029, 1086
626, 765, 874, 824, 1191
627, 818, 495, 988, 1160
628, 282, 271, 278, 826
629, 1001, 1022, 831, 1162
630, 152, 965, 912, 1173
631, 265, 328, 262, 862
632, 446, 983, 382, 1007
633, 786, 855, 813, 1118
634, 879, 940, 810, 1099
635, 776, 897, 828, 935
636, 365, 309, 1032, 1055
637, 770, 936, 846, 1101
638, 685, 449, 729, 879
639, 773, 866, 855, 1170
640, 738, 683, 211, 889
641, 379, 899, 447, 1182
642, 794, 860, 1028, 1077
643, 423, 535, 966, 1025
644, 152, 912, 151, 1173
645, 760, 995, 984, 1159
646, 778, 934, 836, 1137
647, 335, 123, 320, 890
648, 764, 1143, 903, 1174
649, 204, 931, 867, 1161
650, 848, 769, 1057, 1128
651, 763, 934, 1137, 1158
652, 134, 916, 606, 1033
653, 762, 827, 1026, 1083
654, 871, 769, 1017, 1056
655, 827, 884, 770, 1132
656, 824, 934, 874, 974
657, 781, 829, 954, 1107
658, 184, 999, 874, 1117
659, 980, 1028, 892, 1056
660, 717, 901, 833, 987
661, 424, 423, 966, 1025
662, 766, 1154, 923, 1216
663, 744, 752, 720, 829
664, 393, 380, 850, 1007
665, 408, 432, 973, 1157
666, 335, 123, 890, 971
667, 903, 1143, 819, 1174
668, 593, 807, 545, 1033
669, 922, 1061, 900, 1102
670, 369, 927, 687, 1176
671, 662, 638, 670, 1202
672, 226, 172, 847, 1024
673, 200, 1053, 811, 1146
674, 986, 1098, 179, 1111
675, 204, 194, 931, 1161
676, 380, 421, 393, 850
677, 710, 940, 879, 1099
678, 725, 914, 958, 1010
679, 643, 1018, 893, 1106
680, 813, 1118, 1029, 1152
681, 782, 854, 897, 1027
682, 763, 926, 900, 1102
683, 380, 899, 850, 1007
684, 812, 864, 985, 1213
685, 766, 923, 1009, 1216
686, 782, 840, 975, 1030
687, 793, 864, 960, 1132
688, 885, 924, 775, 1165
689, 305, 910, 317, 1128
690, 452, 1077, 910, 1087
691, 800, 972, 905, 1062
692, 536, 966, 535, 1025
693, 779, 841, 878, 1028
694, 377, 998, 817, 1127
695, 338, 741, 250, 995
696, 503, 527, 505, 875
697, 854, 897, 815, 1192
698, 837, 1004, 695, 1010
699, 685, 879, 710, 940
700, 670, 618, 662, 813
701, 379, 998, 899, 1182
702, 897, 1191, 815, 1192
703, 407, 1003, 1043, 1088
704, 865, 866, 773, 886
705, 427, 910, 452, 1077
706, 835, 775, 1060, 1094
707, 675, 652, 929, 1122
708, 359, 729, 449, 994
709, 866, 1082, 786, 1170
710, 553, 216, 932, 1146
711, 943, 1089, 921, 1091
712, 615, 852, 990, 1014
713, 840, 782, 975, 1076
714, 769, 878, 841, 1028
715, 752, 829, 744, 1204
716, 265, 862, 262, 1069
717, 860, 980, 772, 1155
718, 453, 1065, 367, 1172
719, 174, 831, 165, 1022
720, 649, 651, 652, 1014
721, 792, 938, 1098, 1111
722, 717, 833, 716, 987
723, 200, 1140, 214, 1146
724, 436, 1003, 966, 1039
725, 432, 812, 973, 1157
726, 976, 1049, 387, 1088
727, 805, 1056, 919, 1188
728, 897, 1027, 854, 1113
729, 537, 536, 534, 962
730, 627, 1129, 985, 1142
731, 782, 882, 854, 1027
732, 767, 925, 882, 997
733, 827, 887, 1026, 1132
734, 782, 845, 975, 1123
735, 880, 951, 197, 1131
736, 791, 868, 1011, 1096
737, 835, 1060, 882, 1094
738, 816, 1057, 1017, 1128
739, 871, 1017, 769, 1128
740, 812, 978, 628, 985
741, 632, 674, 633, 866
742, 770, 953, 843, 1183
743, 1162, 1197, 948, 1215
744, 271, 329, 269, 919
745, 763, 900, 926, 1038
746, 1023, 1123, 845, 1199
747, 567, 928, 498, 969
748, 767, 854, 882, 1109
749, 825, 989, 772, 1155
750, 394, 402, 446, 945
751, 888, 945, 849, 1007
752, 568, 1066, 932, 1114
753, 717, 715, 716, 833
754, 782, 975, 1076, 1123
755, 812, 985, 628, 1213
756, 657, 134, 606, 1033
757, 800, 905, 1009, 1062
758, 765, 824, 1008, 1191
759, 648, 325, 893, 1018
760, 615, 852, 1014, 1106
761, 845, 1112, 1023, 1199
762, 776, 824, 870, 1126
763, 138, 1090, 818, 1151
764, 841, 1049, 842, 1216
765, 413, 814, 453, 1172
766, 810, 584, 1016, 1112
767, 793, 1051, 887, 1132
768, 776, 875, 1013, 1149
769, 936, 1043, 846, 1101
770, 335, 244, 123, 971
771, 414, 436, 1039, 1043
772, 846, 957, 392, 1088
773, 923, 1154, 842, 1216
774, 183, 874, 974, 1151
775, 828, 897, 776, 1126
776, 787, 826, 963, 1075
777, 675, 646, 678, 1122
778, 430, 467, 474, 1002
779, 200, 959, 213, 1140
780, 802, 852, 1086, 1106
781, 138, 818, 988, 1151
782, 819, 1041, 903, 1174
783, 829, 833, 987, 1107
784, 839, 903, 834, 1219
785, 771, 863, 832, 1079
786, 553, 480, 216, 1146
787, 776, 870, 824, 968
788, 572, 814, 530, 1172
789, 282, 271, 826, 1012
790, 687, 735, 369, 857
791, 316, 809, 346, 1135
792, 365, 375, 376, 1032
793, 545, 807, 593, 1048
794, 987, 999, 796, 1147
795, 173, 1001, 191, 1024
796, 861, 784, 992, 1047
797, 160, 156, 155, 961
798, 798, 894, 1084, 1211
799, 792, 1098, 986, 1111
800, 889, 796, 999, 1147
801, 800, 881, 841, 1049
802, 839, 1102, 907, 1181
803, 845, 1016, 1112, 1199
804, 832, 863, 771, 1163
805, 913, 793, 1036, 1203
806, 787, 826, 933, 1064
807, 811, 1066, 875, 1166
808, 277, 1050, 291, 1178
809, 158, 168, 931, 1005
810, 179, 986, 164, 1098
811, 305, 910, 816, 1218
812, 128, 867, 307, 1161
813, 559, 516, 861, 948
814, 452, 399, 1077, 1087
815, 688, 1117, 1000, 1198
816, 750, 723, 688, 901
817, 839, 981, 907, 1116
818, 810, 942, 584, 1112
819, 1076, 1084, 939, 1133
820, 804, 995, 984, 1131
821, 786, 884, 855, 1026
822, 236, 999, 889, 1037
823, 388, 387, 976, 1049
824, 296, 344, 354, 1122
825, 556, 810, 584, 1016
826, 782, 975, 845, 1030
827, 720, 829, 752, 1147
828, 185, 320, 890, 1177
829, 817, 998, 377, 1055
830, 427, 452, 399, 1077
831, 973, 1105, 812, 1213
832, 157, 821, 158, 1173
833, 913, 1105, 973, 1213
834, 163, 165, 831, 1001
835, 837, 993, 977, 1125
836, 784, 920, 996, 1083
837, 400, 947, 849, 1195
838, 854, 1027, 882, 1113
839, 456, 443, 440, 842
840, 784, 996, 884, 1083
841, 859, 912, 150, 965
842, 902, 978, 812, 985
843, 556, 584, 810, 1186
844, 440, 456, 842, 1003
845, 852, 772, 1042, 1051
846, 216, 480, 201, 1146
847, 516, 948, 543, 1197
848, 776, 1013, 811, 1149
849, 888, 923, 455, 1179
850, 420, 1058, 427, 1077
851, 835, 1060, 775, 1165
852, 390, 1077, 976, 1100
853, 123, 244, 203, 971
854, 891, 1020, 873, 1050
855, 452, 910, 816, 1087
856, 883, 941, 822, 1122
857, 657, 223, 134, 1033
858, 388, 976, 841, 1049
859, 497, 499, 840, 969
860, 881, 899, 381, 983
861, 883, 929, 652, 1122
862, 812, 978, 902, 1157
863, 788, 1012, 963, 1115
864, 913, 973, 812, 1213
865, 763, 829, 956, 1158
866, 779, 980, 1028, 1085
867, 513, 519, 845, 946
868, 320, 123, 185, 890
869, 428, 453, 367, 1172
870, 813, 929, 670, 1014
871, 1058, 1077, 420, 1100
872, 455, 888, 446, 945
873, 993, 1103, 790, 1125
874, 394, 849, 400, 945
875, 841, 1049, 881, 1087
876, 850, 899, 380, 1127
877, 635, 886, 668, 916
878, 800, 841, 881, 1180
879, 615, 852, 614, 960
880, 697, 696, 695, 837
881, 452, 816, 910, 1218
882, 811, 1119, 1066, 1166
883, 738, 121, 679, 999
884, 1102, 1181, 839, 1207
885, 567, 875, 500, 928
886, 305, 816, 910, 1128
887, 520, 946, 513, 1030
888, 864, 1105, 913, 1213
889, 853, 790, 1103, 1125
890, 913, 1105, 864, 1214
891, 811, 1013, 875, 1149
892, 774, 941, 883, 1029
893, 838, 950, 302, 1046
894, 127, 484, 988, 1090
895, 763, 926, 829, 1038
896, 499, 928, 840, 969
897, 972, 1062, 800, 1216
898, 566, 885, 573, 946
899, 157, 1005, 821, 1045
900, 455, 923, 888, 1006
901, 849, 783, 997, 1094
902, 834, 903, 839, 981
903, 721, 889, 999, 1147
904, 293, 867, 941, 1161
905, 278, 941, 826, 1139
906, 773, 937, 1197, 1215
907, 913, 864, 1213, 1214
908, 809, 914, 346, 1135
909, 275, 921, 263, 1046
910, 829, 926, 900, 1038
911, 248, 375, 365, 1032
912, 445, 369, 735, 857
913, 744, 987, 716, 1107
914, 649, 1014, 883, 1018
915, 874, 974, 934, 1196
916, 248, 365, 309, 1032
917, 819, 943, 921, 1091
918, 158, 821, 931, 1024
919, 797, 1003, 936, 1043
920, 566, 946, 520, 1030
921, 277, 933, 873, 1178
922, 939, 1035, 539, 1212
923, 658, 1033, 916, 1217
924, 376, 967, 817, 1032
925, 587, 576, 755, 1000
926, 566, 520, 513, 1030
927, 811, 1053, 776, 1149
928, 797, 1039, 1003, 1043
929, 800, 983, 881, 1049
930, 782, 854, 882, 1123
931, 963, 1079, 832, 1222
932, 785, 912, 832, 1163
933, 794, 871, 1017, 1028
934, 985, 1129, 808, 1142
935, 862, 872, 771, 1188
936, 513, 845, 517, 975
937, 278, 826, 933, 1139
938, 390, 976, 860, 1100
939, 305, 317, 337, 1128
940, 174, 163, 165, 831
941, 685, 743, 710, 879
942, 396, 846, 406, 973
943, 367, 1065, 486, 1172
944, 235, 916, 134, 1033
945, 770, 953, 936, 1101
946, 845, 1023, 1112, 1123
947, 827, 1026, 884, 1132
948, 242, 454, 910, 1218
949, 207, 131, 688, 1117
950, 392, 846, 396, 957
951, 829, 752, 1147, 1204
952, 460, 923, 424, 1003
953, 782, 897, 854, 1076
954, 397, 403, 401, 860
955, 658, 677, 1033, 1217
956, 864, 1132, 770, 1183
957, 296, 354, 822, 1122
958, 741, 984, 760, 995
959, 545, 807, 1048, 1197
960, 785, 832, 1080, 1163
961, 809, 1004, 857, 1093
962, 566, 885, 946, 1030
963, 847, 931, 224, 1124
964, 787, 826, 919, 963
965, 332, 328, 862, 1130
966, 825, 1050, 891, 1155
967, 307, 867, 128, 971
968, 539, 939, 538, 975
969, 133, 683, 221, 984
970, 765, 1191, 897, 1192
971, 848, 871, 1201, 1223
972, 886, 916, 635, 970
973, 618, 813, 670, 1014
974, 777, 907, 949, 1181
975, 841, 976, 842, 1049
976, 486, 540, 428, 1172
977, 160, 951, 836, 1037
978, 807, 948, 1162, 1197
979, 815, 1031, 934, 1191
980, 122, 226, 206, 970
981, 787, 1064, 871, 1081
982, 876, 1097, 863, 1120
983, 355, 914, 311, 1193
984, 632, 631, 674, 865
985, 803, 991, 988, 1000
986, 506, 562, 1044, 1134
987, 215, 197, 880, 951
988, 841, 800, 1049, 1216
989, 932, 1066, 801, 1114
990, 764, 903, 839, 1219
991, 677, 1048, 1033, 1217
992, 513, 845, 975, 1030
993, 655, 331, 883, 1122
994, 835, 944, 898, 1062
995, 452, 910, 454, 1218
996, 128, 867, 176, 971
997, 725, 958, 731, 1010
998, 882, 1094, 783, 1208
999, 931, 1024, 952, 1169
1000, 190, 880, 246, 1144
1001, 797, 966, 1019, 1073
1002, 907, 1137, 949, 1181
1003, 777, 907, 869, 949
1004, 307, 301, 867, 971
1005, 861, 920, 784, 1047
1006, 1061, 1137, 951, 1158
1007, 807, 1033, 593, 1048
1008, 845, 946, 519, 1016
1009, 771, 832, 1171, 1188
1010, 851, 1044, 562, 1134
1011, 462, 913, 973, 1153
1012, 778, 934, 1031, 1126
1013, 846, 406, 973, 1043
1014, 852, 1042, 893, 1106
1015, 878, 972, 800, 1216
1016, 391, 455, 923, 1179
1017, 428, 367, 486, 1172
1018, 499, 538, 840, 975
1019, 820, 924, 775, 962
1020, 839, 1181, 907, 1207
1021, 559, 543, 516, 948
1022, 777, 862, 979, 1069
1023, 807, 948, 545, 1022
1024, 1031, 1126, 934, 1191
1025, 642, 564, 1048, 1067
1026, 615, 852, 960, 990
1027, 574, 851, 1073, 1104
1028, 359, 680, 729, 994
1029, 519, 530, 572, 1016
1030, 857, 1004, 809, 1176
1031, 789, 918, 952, 982
1032, 881, 899, 780, 1182
1033, 395, 396, 392, 846
1034, 402, 455, 446, 945
1035, 936, 1003, 842, 1088
1036, 765, 897, 854, 1192
1037, 165, 225, 177, 1001
1038, 502, 885, 1030, 1059
1039, 440, 923, 456, 1003
1040, 191, 1001, 918, 1024
1041, 452, 1087, 816, 1182
1042, 456, 443, 842, 1003
1043, 265, 332, 328, 862
1044, 775, 835, 924, 1009
1045, 710, 810, 940, 1099
1046, 778, 949, 876, 1097
1047, 728, 760, 984, 1159
1048, 197, 215, 880, 1131
1049, 491, 991, 576, 1000
1050, 293, 941, 296, 1161
1051, 918, 952, 821, 1024
1052, 878, 1062, 972, 1216
1053, 226, 172, 206, 847
1054, 513, 517, 512, 975
1055, 235, 177, 225, 916
1056, 763, 926, 839, 1116
1057, 770, 843, 953, 1101
1058, 820, 966, 424, 1003
1059, 916, 1033, 807, 1217
1060, 407, 1003, 436, 1043
1061, 915, 932, 801, 1114
1062, 845, 513, 946, 1030
1063, 608, 628, 978, 985
1064, 885, 782, 1030, 1059
1065, 1034, 1080, 832, 1096
1066, 176, 128, 204, 867
1067, 670, 929, 813, 1202
1068, 174, 915, 831, 1022
1069, 261, 838, 302, 1046
1070, 397, 403, 860, 989
1071, 664, 929, 847, 1124
1072, 247, 891, 426, 1167
1073, 235, 134, 223, 1033
1074, 492, 545, 1022, 1033
1075, 393, 850, 421, 1002
1076, 572, 1065, 814, 1172
1077, 561, 877, 550, 1157
1078, 834, 1113, 981, 1116
1079, 639, 970, 847, 1202
1080, 274, 950, 275, 1046
1081, 696, 695, 837, 1004
1082, 994, 1002, 467, 1138
1083, 899, 998, 780, 1182
1084, 794, 910, 871, 1020
1085, 224, 847, 172, 931
1086, 474, 359, 449, 994
1087, 142, 824, 974, 1200
1088, 332, 862, 1095, 1130
1089, 785, 1080, 912, 1163
1090, 787, 980, 892, 1056
1091, 513, 975, 512, 1030
1092, 802, 1086, 893, 1106
1093, 814, 413, 945, 1172
1094, 664, 646, 675, 1124
1095, 812, 973, 913, 1153
1096, 856, 963, 896, 1075
1097, 276, 1020, 873, 1064
1098, 606, 916, 658, 1033
1099, 163, 159, 165, 1001
1100, 552, 585, 991, 1212
1101, 791, 1011, 898, 1062
1102, 390, 448, 1077, 1100
1103, 852, 1051, 1042, 1187
1104, 768, 828, 1013, 1206
1105, 635, 964, 886, 970
1106, 887, 1105, 793, 1132
1107, 502, 885, 566, 1030
1108, 1061, 1098, 951, 1137
1109, 179, 164, 175, 1098
1110, 773, 937, 865, 1197
1111, 281, 283, 275, 943
1112, 628, 978, 812, 1153
1113, 567, 503, 500, 875
1114, 770, 1101, 846, 1210
1115, 481, 361, 535, 966
1116, 397, 989, 860, 1203
1117, 616, 615, 614, 960
1118, 939, 991, 803, 1212
1119, 335, 890, 308, 971
1120, 500, 928, 875, 1059
1121, 782, 1059, 885, 1165
1122, 864, 793, 1105, 1132
1123, 1013, 1119, 811, 1166
1124, 450, 895, 654, 1145
1125, 932, 1066, 554, 1146
1126, 392, 395, 846, 1088
1127, 427, 1058, 910, 1077
1128, 842, 1049, 976, 1088
1129, 858, 1051, 786, 1085
1130, 361, 423, 535, 966
1131, 875, 1013, 811, 1166
1132, 821, 952, 931, 1024
1133, 240, 682, 730, 914
1134, 450, 895, 463, 1203
1135, 808, 866, 865, 1129
1136, 801, 920, 861, 1047
1137, 774, 813, 929, 1169
1138, 1031, 1052, 869, 1194
1139, 1070, 1093, 809, 1189
1140, 380, 421, 850, 1127
1141, 452, 1182, 816, 1218
1142, 330, 914, 730, 1135
1143, 566, 573, 520, 946
1144, 503, 500, 875, 1059
1145, 683, 727, 221, 984
1146, 951, 197, 1131, 1164
1147, 906, 914, 795, 1193
1148, 809, 1070, 1004, 1093
1149, 798, 939, 894, 1035
1150, 871, 805, 1201, 1223
1151, 286, 906, 279, 950
1152, 530, 814, 946, 1172
1153, 301, 293, 307, 867
1154, 868, 1080, 1034, 1096
1155, 642, 1048, 865, 1067
1156, 777, 979, 921, 1069
1157, 376, 377, 365, 1055
1158, 311, 346, 906, 914
1159, 537, 574, 1073, 1104
1160, 129, 256, 880, 1131
1161, 781, 926, 829, 956
1162, 813, 952, 855, 1170
1163, 776, 811, 1013, 1053
1164, 778, 869, 949, 1097
1165, 716, 987, 833, 1107
1166, 552, 939, 585, 1212
1167, 813, 1169, 952, 1170
1168, 860, 1028, 980, 1155
1169, 891, 989, 412, 1167
1170, 832, 963, 856, 1188
1171, 824, 776, 1008, 1126
1172, 335, 308, 244, 971
1173, 928, 969, 776, 1008
1174, 773, 996, 920, 1083
1175, 777, 1091, 981, 1207
1176, 789, 886, 970, 1001
1177, 226, 173, 191, 1024
1178, 763, 907, 1102, 1181
1179, 701, 1092, 853, 1107
1180, 796, 1038, 829, 1147
1181, 778, 836, 986, 1137
1182, 408, 442, 432, 1157
1183, 506, 1044, 992, 1134
1184, 274, 302, 950, 1046
1185, 906, 950, 286, 1193
1186, 572, 1016, 814, 1065
1187, 797, 1043, 936, 1101
1188, 662, 813, 964, 1202
1189, 832, 856, 1171, 1188
1190, 450, 1036, 895, 1203
1191, 835, 882, 905, 1094
1192, 371, 465, 449, 879
1193, 277, 289, 291, 1050
1194, 721, 999, 987, 1147
1195, 780, 816, 909, 1089
1196, 683, 984, 133, 1164
1197, 782, 928, 840, 1030
1198, 843, 1134, 515, 1190
1199, 567, 500, 498, 928
1200, 511, 515, 1134, 1190
1201, 447, 379, 381, 899
1202, 771, 1097, 917, 1163
1203, 814, 945, 775, 946
1204, 472, 450, 463, 1203
1205, 272, 1069, 921, 1201
1206, 873, 933, 787, 1086
1207, 210, 859, 1072, 1140
1208, 538, 939, 840, 975
1209, 455, 888, 945, 1006
1210, 844, 1044, 875, 1166
1211, 657, 606, 658, 1033
1212, 992, 1134, 1044, 1185
1213, 302, 922, 838, 1209
1214, 776, 1053, 908, 1149
1215, 666, 653, 1187, 1214
1216, 928, 1030, 782, 1059
1217, 306, 938, 1040, 1130
1218, 584, 942, 810, 1186
1219, 272, 921, 848, 1201
1220, 973, 1157, 812, 1210
1221, 158, 821, 1024, 1173
1222, 776, 875, 928, 935
1223, 827, 766, 936, 953
1224, 775, 945, 814, 997
1225, 763, 1137, 1061, 1158
1226, 771, 863, 1097, 1163
1227, 826, 774, 941, 1110
1228, 300, 1128, 1089, 1218
1229, 789, 964, 847, 970
1230, 573, 946, 885, 962
1231, 408, 432, 462, 973
1232, 634, 886, 635, 964
1233, 472, 1036, 450, 1203
1234, 556, 810, 1016, 1065
1235, 905, 972, 800, 1180
1236, 789, 952, 918, 1024
1237, 689, 250, 741, 995
1238, 816, 780, 1057, 1089
1239, 328, 930, 862, 1130
1240, 463, 895, 450, 1145
1241, 523, 514, 843, 1019
1242, 726, 755, 576, 1000
1243, 903, 1041, 1015, 1156
1244, 786, 1051, 960, 1132
1245, 628, 1153, 812, 1213
1246, 568, 518, 1066, 1114
1247, 775, 945, 904, 946
1248, 775, 814, 946, 997
1249, 816, 780, 909, 1182
1250, 354, 296, 822, 1161
1251, 668, 916, 886, 1217
1252, 836, 951, 1137, 1158
1253, 662, 813, 618, 990
1254, 831, 918, 785, 965
1255, 905, 1062, 972, 1220
1256, 381, 384, 447, 881
1257, 845, 997, 814, 1199
1258, 545, 948, 807, 1197
1259, 838, 930, 261, 1040
1260, 301, 867, 971, 1012
1261, 242, 910, 305, 1218
1262, 138, 139, 1090, 1151
1263, 366, 485, 877, 1039
1264, 871, 1056, 805, 1223
1265, 829, 954, 744, 1204
1266, 129, 880, 215, 1131
1267, 800, 1062, 1009, 1216
1268, 1066, 1119, 844, 1166
1269, 858, 1075, 980, 1085
1270, 800, 1009, 905, 1094
1271, 707, 743, 729, 879
1272, 341, 848, 272, 1089
1273, 814, 904, 945, 946
1274, 883, 1029, 941, 1139
1275, 635, 668, 886, 1217
1276, 740, 750, 688, 1198
1277, 800, 888, 1009, 1094
1278, 388, 399, 386, 841
1279, 683, 889, 1159, 1164
1280, 210, 161, 859, 1140
1281, 785, 918, 831, 982
1282, 784, 843, 953, 996
1283, 799, 1044, 875, 1059
1284, 896, 1034, 821, 1222
1285, 274, 261, 302, 1046
1286, 597, 656, 639, 970
1287, 790, 993, 977, 1093
1288, 860, 794, 1028, 1155
1289, 491, 135, 988, 1000
1290, 384, 881, 381, 983
1291, 782, 882, 1060, 1123
1292, 806, 863, 1097, 1120
1293, 176, 971, 867, 1005
1294, 1044, 1134, 851, 1185
1295, 858, 786, 1026, 1085
1296, 796, 901, 874, 999
1297, 587, 491, 576, 1000
1298, 966, 1003, 797, 1039
1299, 123, 198, 890, 971
1300, 679, 721, 738, 999
1301, 286, 311, 279, 906
1302, 354, 822, 297, 1161
1303, 306, 938, 258, 1040
1304, 774, 952, 931, 1110
1305, 443, 440, 842, 1049
1306, 866, 864, 1129, 1132
1307, 440, 923, 842, 1049
1308, 809, 1093, 857, 1189
1309, 208, 961, 986, 1021
1310, 341, 272, 336, 1089
1311, 916, 970, 886, 1001
1312, 826, 788, 963, 1110
1313, 831, 801, 920, 1215
1314, 355, 958, 914, 1193
1315, 728, 683, 1159, 1164
1316, 875, 1044, 799, 1166
1317, 779, 842, 976, 1088
1318, 452, 454, 439, 1218
1319, 942, 708, 1092, 1099
1320, 775, 820, 962, 1006
1321, 870, 1013, 776, 1126
1322, 237, 822, 194, 1108
1323, 809, 817, 1174, 1189
1324, 799, 944, 835, 1165
1325, 838, 922, 302, 1193
1326, 214, 1140, 932, 1146
1327, 780, 816, 1057, 1182
1328, 662, 964, 638, 1202
1329, 838, 302, 950, 1193
1330, 666, 1187, 1036, 1214
1331, 206, 656, 847, 1124
1332, 812, 902, 877, 1157
1333, 726, 576, 991, 1000
1334, 771, 917, 1097, 1171
1335, 923, 1003, 842, 1154
1336, 554, 1146, 1066, 1149
1337, 286, 311, 906, 1193
1338, 787, 933, 873, 1064
1339, 647, 370, 602, 913
1340, 172, 931, 847, 1024
1341, 635, 634, 633, 886
1342, 779, 1028, 892, 1085
1343, 495, 1090, 496, 1160
1344, 527, 1066, 875, 1149
1345, 743, 1099, 879, 1103
1346, 415, 412, 989, 1167
1347, 845, 946, 814, 997
1348, 210, 859, 965, 1072
1349, 772, 873, 1050, 1155
1350, 315, 375, 248, 1032
1351, 847, 970, 964, 1202
1352, 204, 176, 867, 1005
1353, 269, 919, 872, 1175
1354, 697, 696, 837, 1125
1355, 397, 860, 957, 1203
1356, 775, 1060, 885, 1165
1357, 931, 952, 821, 1110
1358, 873, 1086, 1050, 1178
1359, 728, 984, 683, 1164
1360, 438, 1182, 452, 1218
1361, 766, 924, 835, 1009
1362, 148, 959, 859, 1140
1363, 921, 1069, 848, 1201
1364, 782, 928, 1059, 1165
1365, 615, 960, 616, 990
1366, 810, 1065, 556, 1186
1367, 884, 1026, 827, 1083
1368, 354, 297, 822, 1108
1369, 903, 1015, 783, 1156
1370, 682, 914, 240, 958
1371, 200, 213, 214, 1140
1372, 781, 926, 956, 1116
1373, 800, 972, 878, 1180
1374, 897, 1008, 776, 1126
1375, 302, 838, 259, 1209
1376, 393, 850, 1002, 1007
1377, 790, 994, 879, 1103
1378, 386, 388, 841, 1049
1379, 825, 891, 989, 1155
1380, 354, 1108, 822, 1122
1381, 806, 1097, 1052, 1194
1382, 768, 944, 898, 1166
1383, 370, 602, 913, 1153
1384, 801, 831, 965, 1072
1385, 641, 635, 668, 916
1386, 501, 499, 928, 1030
1387, 984, 995, 804, 1159
1388, 939, 975, 798, 1076
1389, 761, 828, 944, 1052
1390, 771, 1163, 917, 1171
1391, 847, 929, 822, 1124
1392, 1089, 1128, 816, 1218
1393, 536, 966, 820, 1073
1394, 935, 1059, 928, 1165
1395, 685, 729, 743, 879
1396, 526, 567, 969, 1149
1397, 889, 999, 796, 1037
1398, 825, 1042, 893, 1050
1399, 210, 859, 150, 965
1400, 301, 293, 867, 1012
1401, 268, 919, 269, 1175
1402, 630, 1067, 627, 1142
1403, 804, 1038, 900, 1061
1404, 641, 635, 916, 970
1405, 868, 898, 784, 1047
1406, 767, 997, 845, 1199
1407, 514, 511, 515, 1134
1408, 767, 1060, 882, 1123
1409, 197, 129, 215, 1131
1410, 847, 964, 789, 1169
1411, 763, 907, 839, 1102
1412, 774, 931, 952, 1169
1413, 816, 1128, 305, 1218
1414, 762, 896, 832, 1034
1415, 789, 970, 847, 1024
1416, 386, 841, 399, 1087
1417, 822, 931, 847, 1124
1418, 276, 287, 873, 1020
1419, 821, 785, 918, 1173
1420, 801, 831, 915, 1215
1421, 386, 1049, 841, 1087
1422, 811, 1066, 932, 1146
1423, 874, 803, 1133, 1151
1424, 210, 161, 150, 859
1425, 796, 829, 1038, 1158
1426, 280, 872, 269, 1115
1427, 320, 333, 890, 1177
1428, 809, 817, 1141, 1174
1429, 407, 436, 414, 1043
1430, 779, 860, 976, 1028
1431, 499, 512, 538, 975
1432, 663, 865, 642, 1048
1433, 878, 1011, 827, 1221
1434, 744, 829, 720, 987
1435, 803, 1117, 988, 1151
1436, 874, 1191, 765, 1196
1437, 655, 883, 331, 1018
1438, 188, 483, 915, 1022
1439, 777, 862, 930, 949
1440, 514, 515, 523, 843
1441, 828, 776, 1013, 1126
1442, 408, 973, 406, 1043
1443, 382, 983, 899, 1007
1444, 786, 1051, 858, 1152
1445, 648, 643, 600, 1018
1446, 240, 730, 330, 914
1447, 277, 873, 289, 1050
1448, 194, 1108, 822, 1161
1449, 130, 178, 544, 1022
1450, 731, 1010, 900, 1204
1451, 847, 929, 664, 1202
1452, 164, 986, 179, 1111
1453, 523, 1019, 843, 1168
1454, 514, 515, 843, 1134
1455, 186, 890, 1068, 1177
1456, 793, 1105, 913, 1214
1457, 316, 1032, 809, 1135
1458, 1023, 1099, 1063, 1199
1459, 862, 771, 1184, 1188
1460, 399, 841, 388, 1077
1461, 767, 845, 997, 1060
1462, 188, 130, 483, 1022
1463, 545, 1048, 593, 1197
1464, 648, 893, 325, 1148
1465, 804, 900, 922, 1061
1466, 870, 959, 146, 1053
1467, 652, 883, 655, 1018
1468, 815, 1116, 854, 1192
1469, 784, 868, 920, 1083
1470, 761, 944, 828, 1027
1471, 826, 941, 1012, 1110
1472, 208, 961, 156, 986
1473, 867, 931, 822, 1161
1474, 826, 1029, 774, 1110
1475, 812, 432, 1153, 1157
1476, 875, 1066, 844, 1166
1477, 782, 935, 928, 1165
1478, 925, 1002, 850, 1007
1479, 242, 439, 454, 1218
1480, 988, 1133, 803, 1151
1481, 882, 905, 1094, 1208
1482, 864, 1132, 866, 1136
1483, 860, 1077, 794, 1100
1484, 907, 981, 869, 1031
1485, 376, 817, 967, 1127
1486, 803, 874, 1117, 1151
1487, 502, 510, 885, 1104
1488, 785, 832, 1034, 1080
1489, 229, 999, 236, 1037
1490, 836, 951, 1098, 1137
1491, 125, 188, 548, 915
1492, 157, 1045, 821, 1173
1493, 871, 1081, 321, 1128
1494, 332, 862, 265, 1175
1495, 785, 831, 920, 982
1496, 251, 648, 325, 1148
1497, 834, 854, 882, 1113
1498, 773, 884, 996, 1083
1499, 389, 976, 387, 1088
1500, 964, 1169, 847, 1202
1501, 852, 614, 960, 1187
1502, 697, 954, 837, 1010
1503, 743, 710, 879, 1099
1504, 874, 999, 901, 1117
1505, 161, 148, 859, 1140
1506, 156, 986, 836, 1098
1507, 303, 958, 922, 995
1508, 887, 1085, 1051, 1150
1509, 505, 844, 507, 1044
1510, 786, 1051, 1026, 1085
1511, 862, 771, 949, 1184
1512, 1066, 1146, 811, 1149
1513, 549, 485, 561, 877
1514, 566, 502, 510, 885
1515, 767, 845, 1060, 1123
1516, 783, 925, 850, 1007
1517, 867, 931, 204, 1005
1518, 205, 912, 863, 1045
1519, 806, 1097, 863, 1163
1520, 429, 957, 464, 1203
1521, 247, 426, 368, 1167
1522, 139, 968, 1090, 1151
1523, 394, 400, 402, 945
1524, 663, 631, 642, 865
1525, 886, 1001, 789, 1162
1526, 903, 981, 834, 1208
1527, 846, 1101, 1043, 1210
1528, 655, 607, 331, 1122
1529, 792, 1098, 938, 1144
1530, 194, 822, 237, 1124
1531, 507, 844, 992, 1044
1532, 865, 886, 773, 1162
1533, 837, 1010, 926, 1070
1534, 807, 1001, 916, 1162
1535, 546, 915, 483, 1022
1536, 1076, 1084, 765, 1192
1537, 898, 944, 799, 1166
1538, 501, 1030, 928, 1059
1539, 961, 1126, 1021, 1200
1540, 373, 927, 433, 1032
1541, 544, 483, 130, 1022
1542, 141, 143, 1053, 1200
1543, 968, 969, 908, 1090
1544, 828, 1052, 1031, 1194
1545, 873, 772, 1050, 1086
1546, 170, 194, 224, 931
1547, 813, 855, 952, 1118
1548, 830, 1015, 903, 1091
1549, 977, 993, 837, 1093
1550, 615, 1014, 650, 1106
1551, 337, 321, 871, 1081
1552, 499, 498, 928, 969
1553, 133, 984, 221, 1164
1554, 333, 1095, 890, 1177
1555, 539, 538, 522, 975
1556, 809, 967, 817, 1189
1557, 892, 1028, 980, 1085
1558, 826, 896, 1029, 1110
1559, 834, 1109, 854, 1116
1560, 137, 127, 484, 988
1561, 502, 885, 1059, 1104
1562, 710, 940, 810, 1186
1563, 1052, 1097, 869, 1194
1564, 382, 381, 899, 983
1565, 407, 443, 1003, 1088
1566, 133, 227, 889, 1164
1567, 261, 930, 838, 1046
1568, 396, 429, 957, 973
1569, 780, 903, 1015, 1091
1570, 1038, 1061, 951, 1158
1571, 395, 407, 1043, 1088
1572, 483, 548, 188, 915
1573, 630, 627, 985, 1142
1574, 395, 406, 396, 846
1575, 875, 935, 776, 1013
1576, 917, 1052, 806, 1097
1577, 801, 915, 831, 1072
1578, 828, 761, 1031, 1052
1579, 492, 544, 178, 1022
1580, 442, 877, 366, 1157
1581, 321, 1128, 1081, 1201
1582, 762, 896, 1034, 1118
1583, 280, 269, 872, 1175
1584, 773, 886, 866, 1170
1585, 585, 595, 552, 991
1586, 790, 925, 850, 1093
1587, 517, 845, 519, 1016
1588, 662, 813, 990, 1082
1589, 375, 315, 373, 1032
1590, 822, 929, 883, 1122
1591, 156, 961, 836, 986
1592, 649, 652, 655, 1018
1593, 247, 368, 312, 1167
1594, 818, 1090, 968, 1151
1595, 209, 870, 146, 1053
1596, 1050, 1086, 893, 1178
1597, 787, 919, 826, 1064
1598, 712, 942, 569, 1186
1599, 513, 520, 519, 946
1600, 817, 780, 943, 1041
1601, 796, 956, 829, 1158
1602, 813, 786, 990, 1082
1603, 573, 962, 885, 1104
1604, 763, 1061, 1038, 1158
1605, 573, 885, 510, 1104
1606, 337, 871, 321, 1128
1607, 809, 1174, 1070, 1189
1608, 834, 981, 839, 1116
1609, 819, 780, 943, 1091
1610, 209, 141, 143, 1053
1611, 840, 939, 538, 1160
1612, 802, 1014, 1029, 1152
1613, 133, 227, 211, 889
1614, 835, 882, 1060, 1165
1615, 784, 920, 861, 996
1616, 842, 1003, 443, 1088
1617, 332, 1095, 862, 1175
1618, 763, 1038, 829, 1158
1619, 776, 935, 828, 1013
1620, 375, 373, 433, 1032
1621, 394, 398, 849, 1007
1622, 981, 1113, 834, 1208
1623, 813, 774, 1118, 1169
1624, 859, 959, 148, 1078
1625, 762, 1026, 858, 1118
1626, 746, 683, 889, 1159
1627, 137, 484, 494, 988
1628, 767, 1123, 1023, 1199
1629, 980, 1028, 794, 1155
1630, 740, 688, 1000, 1198
1631, 580, 1019, 524, 1168
1632, 515, 1054, 843, 1190
1633, 123, 203, 198, 971
1634, 799, 835, 924, 1165
1635, 724, 713, 745, 894
1636, 491, 587, 231, 1000
1637, 765, 1084, 1076, 1133
1638, 562, 851, 574, 1044
1639, 914, 1010, 1004, 1070
1640, 362, 299, 437, 909
1641, 150, 912, 859, 1078
1642, 492, 1022, 178, 1033
1643, 186, 185, 890, 1177
1644, 234, 970, 916, 1001
1645, 242, 305, 304, 1218
1646, 765, 854, 897, 1076
1647, 745, 991, 894, 1198
1648, 871, 910, 794, 1017
1649, 778, 1021, 961, 1126
1650, 395, 1043, 846, 1088
1651, 204, 867, 128, 1161
1652, 390, 860, 401, 1100
1653, 853, 1063, 1099, 1103
1654, 399, 841, 1077, 1087
1655, 450, 605, 372, 1145
1656, 826, 963, 788, 1012
1657, 501, 512, 499, 1030
1658, 781, 854, 1116, 1192
1659, 442, 366, 431, 1157
1660, 835, 1009, 905, 1062
1661, 649, 883, 652, 1018
1662, 497, 969, 840, 1160
1663, 200, 213, 959, 1053
1664, 761, 1027, 828, 1031
1665, 687, 749, 857, 1176
1666, 780, 817, 943, 998
1667, 287, 323, 289, 1050
1668, 728, 1159, 984, 1164
1669, 896, 952, 821, 1034
1670, 908, 968, 776, 969
1671, 259, 838, 261, 1040
1672, 809, 817, 1032, 1141
1673, 828, 1027, 897, 1031
1674, 805, 1081, 871, 1201
1675, 466, 967, 857, 1138
1676, 767, 845, 1123, 1199
1677, 261, 259, 302, 838
1678, 195, 988, 1117, 1151
1679, 826, 963, 896, 1110
1680, 892, 1056, 1028, 1121
1681, 828, 1194, 1013, 1206
1682, 505, 570, 507, 844
1683, 398, 1002, 849, 1007
1684, 910, 1017, 871, 1128
1685, 396, 957, 846, 973
1686, 924, 962, 820, 1073
1687, 887, 1026, 786, 1051
1688, 421, 1002, 850, 1138
1689, 762, 856, 892, 1011
1690, 894, 991, 745, 1212
1691, 853, 1063, 1023, 1099
1692, 904, 945, 413, 1172
1693, 664, 847, 656, 1124
1694, 787, 963, 856, 1075
1695, 791, 944, 917, 1052
1696, 823, 949, 792, 1130
1697, 1050, 1148, 825, 1167
1698, 765, 897, 1008, 1076
1699, 306, 1040, 260, 1130
1700, 767, 882, 854, 1123
1701, 842, 779, 936, 1088
1702, 781, 926, 837, 954
1703, 280, 267, 269, 1175
1704, 988, 1000, 195, 1117
1705, 561, 549, 877, 1157
1706, 268, 1081, 919, 1175
1707, 497, 498, 499, 969
1708, 778, 1031, 869, 1194
1709, 459, 371, 747, 940
1710, 395, 406, 846, 1043
1711, 768, 898, 1047, 1185
1712, 1026, 1051, 887, 1085
1713, 561, 550, 549, 1157
1714, 919, 1056, 805, 1081
1715, 832, 1079, 863, 1222
1716, 152, 918, 159, 965
1717, 768, 898, 868, 1047
1718, 477, 435, 465, 947
1719, 654, 895, 450, 1036
1720, 497, 499, 538, 840
1721, 802, 1029, 883, 1139
1722, 951, 1061, 880, 1098
1723, 496, 1090, 969, 1160
1724, 819, 1143, 839, 1207
1725, 810, 1099, 710, 1186
1726, 780, 817, 998, 1041
1727, 846, 936, 779, 1088
1728, 952, 1169, 789, 1170
1729, 385, 386, 384, 1049
1730, 227, 889, 951, 1037
1731, 386, 387, 388, 1049
1732, 156, 836, 162, 1098
1733, 799, 944, 935, 1166
1734, 631, 642, 865, 1067
1735, 544, 546, 483, 1022
1736, 738, 746, 683, 889
1737, 530, 946, 904, 1172
1738, 313, 1148, 1050, 1167
1739, 762, 1034, 855, 1118
1740, 792, 949, 823, 1111
1741, 858, 1026, 786, 1118
1742, 487, 575, 601, 1048
1743, 477, 940, 435, 947
1744, 620, 866, 633, 1082
1745, 811, 908, 1053, 1149
1746, 324, 337, 288, 871
1747, 781, 837, 926, 1219
1748, 724, 894, 745, 1212
1749, 762, 1075, 896, 1118
1750, 852, 802, 1086, 1152
1751, 713, 894, 1035, 1092
1752, 792, 949, 1137, 1181
1753, 204, 194, 170, 931
1754, 792, 986, 949, 1111
1755, 258, 1040, 938, 1144
1756, 793, 957, 887, 1150
1757, 781, 854, 1109, 1116
1758, 160, 162, 156, 836
1759, 825, 989, 415, 1145
1760, 299, 245, 437, 909
1761, 976, 1077, 860, 1100
1762, 865, 1067, 1048, 1197
1763, 655, 883, 652, 1122
1764, 400, 849, 398, 1195
1765, 443, 387, 440, 1049
1766, 837, 1070, 926, 1219
1767, 433, 967, 376, 1032
1768, 785, 912, 965, 1173
1769, 761, 869, 981, 1031
1770, 848, 1089, 341, 1128
1771, 768, 1166, 898, 1185
1772, 687, 749, 735, 857
1773, 762, 855, 1026, 1118
1774, 880, 1098, 1061, 1137
1775, 927, 967, 433, 1032
1776, 773, 855, 884, 1083
1777, 303, 922, 347, 995
1778, 886, 1082, 866, 1170
1779, 942, 1092, 1023, 1099
1780, 815, 897, 854, 1113
1781, 482, 533, 364, 904
1782, 784, 1047, 898, 1185
1783, 774, 1029, 896, 1110
1784, 787, 1056, 919, 1081
1785, 768, 1119, 1013, 1166
1786, 356, 1071, 1148, 1167
1787, 793, 864, 1105, 1214
1788, 949, 986, 876, 1111
1789, 696, 993, 837, 1125
1790, 501, 928, 500, 1059
1791, 662, 964, 813, 1082
1792, 557, 199, 558, 908
1793, 731, 958, 900, 1010
1794, 763, 1102, 838, 1181
1795, 822, 941, 867, 1161
1796, 412, 989, 891, 1100
1797, 208, 986, 876, 1021
1798, 466, 369, 445, 857
1799, 375, 433, 376, 1032
1800, 307, 867, 293, 1161
1801, 222, 1068, 876, 1111
1802, 315, 927, 373, 1032
1803, 823, 792, 938, 1130
1804, 293, 941, 867, 1012
1805, 777, 839, 907, 1207
1806, 508, 506, 992, 1134
1807, 980, 1020, 873, 1155
1808, 840, 975, 939, 1076
1809, 695, 725, 732, 1010
1810, 413, 904, 417, 945
1811, 848, 871, 1128, 1201
1812, 456, 923, 460, 1003
1813, 199, 124, 558, 908
1814, 570, 844, 505, 1066
1815, 813, 786, 1118, 1152
1816, 142, 974, 961, 1200
1817, 792, 880, 1061, 1137
1818, 404, 967, 466, 1138
1819, 706, 857, 993, 994
1820, 766, 842, 936, 1154
1821, 446, 983, 888, 1179
1822, 768, 1047, 1166, 1185
1823, 425, 909, 437, 998
1824, 832, 1163, 771, 1171
1825, 801, 915, 1114, 1215
1826, 857, 1004, 993, 1093
1827, 548, 553, 125, 932
1828, 382, 899, 380, 1007
1829, 495, 484, 496, 1090
1830, 379, 380, 899, 1127
1831, 295, 891, 323, 1020
1832, 800, 983, 1049, 1179
1833, 783, 899, 850, 1156
1834, 773, 861, 920, 996
1835, 1028, 1056, 769, 1121
1836, 826, 1012, 788, 1110
1837, 720, 987, 829, 1147
1838, 335, 320, 333, 890
1839, 356, 1148, 313, 1167
1840, 796, 889, 1038, 1147
1841, 141, 1053, 968, 1200
1842, 408, 406, 442, 1043
1843, 733, 731, 900, 1204
1844, 442, 1039, 877, 1043
1845, 125, 553, 216, 932
1846, 776, 969, 968, 1008
1847, 849, 1002, 925, 1007
1848, 446, 383, 983, 1179
1849, 492, 545, 544, 1022
1850, 818, 968, 969, 1008
1851, 853, 767, 1023, 1063
1852, 792, 823, 938, 1111
1853, 143, 870, 1053, 1200
1854, 532, 904, 530, 946
1855, 777, 949, 930, 1181
1856, 874, 901, 796, 1196
1857, 217, 876, 208, 986
1858, 818, 969, 968, 1090
1859, 138, 139, 127, 1090
1860, 792, 1098, 880, 1137
1861, 325, 893, 1018, 1178
1862, 414, 1039, 442, 1043
1863, 141, 140, 142, 968
1864, 454, 363, 242, 910
1865, 519, 517, 513, 845
1866, 680, 707, 729, 994
1867, 209, 146, 959, 1053
1868, 850, 1093, 925, 1156
1869, 394, 398, 400, 849
1870, 757, 900, 995, 1159
1871, 859, 801, 965, 1072
1872, 757, 900, 734, 995
1873, 473, 1145, 1071, 1167
1874, 287, 289, 873, 1050
1875, 734, 900, 958, 995
1876, 1051, 1085, 772, 1150
1877, 776, 968, 824, 1008
1878, 894, 1035, 939, 1212
1879, 722, 733, 1159, 1204
1880, 851, 1019, 562, 1073
1881, 833, 1084, 955, 1192
1882, 801, 932, 915, 1072
1883, 446, 383, 382, 983
1884, 397, 401, 390, 860
1885, 794, 1077, 1058, 1100
1886, 187, 968, 908, 1090
1887, 778, 836, 961, 986
1888, 783, 1094, 905, 1208
1889, 263, 264, 262, 1046
1890, 404, 1127, 967, 1138
1891, 731, 734, 900, 958
1892, 257, 246, 256, 880
1893, 767, 849, 925, 997
1894, 133, 221, 239, 1164
1895, 777, 907, 1181, 1207
1896, 862, 1175, 872, 1188
1897, 348, 958, 355, 1193
1898, 497, 840, 538, 1160
1899, 418, 364, 533, 904
1900, 689, 741, 760, 995
1901, 787, 980, 873, 1086
1902, 810, 940, 879, 947
1903, 586, 592, 1035, 1112
1904, 761, 835, 944, 1027
1905, 817, 1041, 943, 1174
1906, 263, 921, 264, 1046
1907, 501, 502, 1030, 1059
1908, 1021, 1126, 870, 1200
1909, 855, 786, 1026, 1118
1910, 779, 878, 892, 1028
1911, 900, 926, 795, 1102
1912, 879, 1099, 1063, 1103
1913, 747, 371, 685, 940
1914, 822, 1108, 646, 1122
1915, 762, 892, 856, 1075
1916, 863, 1068, 876, 1120
1917, 785, 1034, 868, 1080
1918, 154, 158, 1024, 1173
1919, 850, 899, 783, 1007
1920, 437, 998, 909, 1055
1921, 891, 1058, 420, 1100
1922, 209, 143, 146, 870
1923, 767, 997, 882, 1060
1924, 618, 990, 813, 1014
1925, 562, 574, 506, 1044
1926, 697, 698, 696, 1125
1927, 198, 890, 971, 1074
1928, 767, 1063, 853, 1109
1929, 684, 330, 730, 1135
1930, 910, 1058, 794, 1077
1931, 825, 415, 989, 1167
1932, 707, 743, 879, 1103
1933, 526, 567, 498, 969
1934, 855, 982, 952, 1034
1935, 932, 1140, 811, 1146
1936, 793, 887, 957, 1105
1937, 161, 148, 150, 859
1938, 840, 969, 928, 1008
1939, 604, 648, 251, 1148
1940, 781, 977, 1109, 1125
1941, 580, 531, 1039, 1168
1942, 817, 967, 809, 1032
1943, 794, 1020, 980, 1155
1944, 882, 1113, 761, 1208
1945, 421, 1127, 404, 1138
1946, 459, 477, 371, 940
1947, 322, 242, 363, 910
1948, 456, 460, 424, 1003
1949, 836, 934, 778, 961
1950, 462, 432, 475, 1153
1951, 826, 941, 774, 1029
1952, 336, 327, 283, 1089
1953, 942, 1035, 592, 1112
1954, 231, 587, 755, 1000
1955, 341, 272, 848, 1201
1956, 412, 420, 891, 1058
1957, 934, 974, 796, 1196
1958, 969, 1090, 818, 1160
1959, 344, 296, 284, 941
1960, 409, 947, 400, 1195
1961, 762, 858, 1075, 1118
1962, 184, 183, 874, 974
1963, 526, 969, 908, 1149
1964, 897, 1031, 1027, 1113
1965, 412, 426, 420, 1058
1966, 649, 1014, 1018, 1106
1967, 856, 892, 787, 1075
1968, 764, 1093, 1070, 1189
1969, 810, 1099, 1023, 1199
1970, 867, 1012, 941, 1110
1971, 222, 876, 1068, 1120
1972, 778, 869, 1097, 1194
1973, 209, 143, 870, 1053
1974, 777, 907, 839, 981
1975, 396, 410, 429, 973
1976, 297, 822, 1108, 1161
1977, 668, 658, 916, 1217
1978, 924, 1073, 851, 1104
1979, 412, 891, 420, 1100
1980, 904, 962, 532, 1025
1981, 323, 891, 295, 1058
1982, 854, 1113, 834, 1116
1983, 242, 304, 439, 1218
1984, 867, 941, 774, 1110
1985, 815, 1113, 854, 1116
1986, 790, 1002, 994, 1138
1987, 769, 878, 1028, 1121
1988, 908, 969, 526, 1090
1989, 415, 1145, 473, 1167
1990, 792, 1061, 1040, 1181
1991, 785, 912, 859, 965
1992, 812, 1105, 973, 1210
1993, 853, 1092, 955, 1107
1994, 778, 961, 934, 1126
1995, 652, 675, 678, 1122
1996, 247, 891, 323, 1058
1997, 1081, 1128, 871, 1201
1998, 831, 1022, 948, 1162
1999, 528, 556, 584, 1016
2000, 135, 137, 494, 988
2001, 904, 946, 532, 962
2002, 713, 894, 1092, 1211
2003, 366, 877, 442, 1039
2004, 795, 958, 914, 1010
2005, 869, 1097, 1052, 1171
2006, 142, 155, 961, 974
2007, 771, 1097, 869, 1171
2008, 426, 891, 247, 1058
2009, 832, 1034, 896, 1222
2010, 274, 275, 263, 1046
2011, 317, 1020, 910, 1058
2012, 647, 444, 370, 913
2013, 701, 704, 853, 1092
2014, 412, 891, 426, 1058
2015, 517, 845, 1016, 1112
2016, 615, 613, 852, 1106
2017, 713, 894, 724, 1035
2018, 777, 862, 949, 1184
2019, 708, 710, 1099, 1186
2020, 168, 204, 931, 1005
2021, 762, 1026, 827, 1221
2022, 722, 1159, 1147, 1204
2023, 792, 1137, 1061, 1181
2024, 900, 1159, 733, 1204
2025, 918, 1001, 789, 1024
2026, 896, 963, 826, 1075
2027, 131, 1000, 688, 1117
2028, 569, 712, 478, 942
2029, 470, 669, 458, 978
2030, 501, 500, 502, 1059
2031, 886, 1162, 865, 1217
2032, 724, 1035, 894, 1212
2033, 694, 1004, 993, 1176
2034, 295, 891, 1020, 1058
2035, 217, 222, 876, 1111
2036, 146, 959, 870, 1205
2037, 152, 918, 965, 1173
2038, 871, 805, 1056, 1081
2039, 150, 859, 148, 1078
2040, 787, 892, 856, 1056
2041, 863, 202, 1068, 1120
2042, 706, 694, 993, 1176
2043, 767, 925, 1063, 1109
2044, 783, 849, 925, 1007
2045, 208, 876, 153, 1021
2046, 154, 1024, 918, 1173
2047, 380, 382, 381, 899
2048, 829, 900, 926, 1204
2049, 914, 1004, 693, 1135
2050, 207, 999, 184, 1117
2051, 788, 963, 872, 1115
2052, 346, 914, 330, 1135
2053, 946, 997, 845, 1060
2054, 128, 307, 249, 1161
2055, 816, 1017, 910, 1128
2056, 684, 252, 330, 1135
2057, 824, 934, 961, 1126
2058, 858, 772, 1051, 1085
2059, 858, 1085, 980, 1086
2060, 247, 323, 295, 1058
2061, 763, 839, 926, 1102
2062, 862, 1184, 805, 1188
2063, 287, 277, 276, 873
2064, 809, 857, 967, 1189
2065, 303, 326, 958, 995
2066, 785, 1034, 982, 1083
2067, 866, 1129, 864, 1136
2068, 536, 481, 535, 966
2069, 715, 702, 716, 833
2070, 608, 630, 985, 1142
2071, 795, 922, 900, 1102
2072, 821, 912, 1045, 1222
2073, 837, 993, 696, 1004
2074, 869, 907, 777, 981
2075, 843, 1101, 902, 1168
2076, 261, 930, 260, 1040
2077, 826, 1029, 896, 1075
2078, 964, 1082, 886, 1170
2079, 139, 968, 187, 1090
2080, 227, 951, 171, 1037
2081, 573, 532, 946, 962
2082, 462, 370, 913, 1153
2083, 735, 445, 857, 994
2084, 887, 827, 1026, 1221
2085, 725, 731, 732, 1010
2086, 719, 987, 721, 999
2087, 507, 992, 506, 1044
2088, 792, 1040, 938, 1130
2089, 276, 873, 277, 1064
2090, 862, 805, 1175, 1188
2091, 782, 1076, 854, 1123
2092, 781, 829, 926, 954
2093, 598, 444, 913, 1036
2094, 777, 949, 869, 1184
2095, 836, 1137, 934, 1158
2096, 813, 990, 786, 1152
2097, 160, 171, 951, 1037
2098, 790, 1063, 853, 1103
2099, 372, 463, 450, 1145
2100, 344, 883, 941, 1139
2101, 227, 951, 889, 1164
2102, 784, 1134, 992, 1185
2103, 646, 1108, 822, 1124
2104, 717, 719, 901, 987
2105, 955, 1084, 833, 1211
2106, 231, 135, 491, 1000
2107, 552, 521, 939, 1160
2108, 341, 848, 1128, 1201
2109, 300, 305, 1128, 1218
2110, 682, 725, 914, 958
2111, 784, 851, 1134, 1185
2112, 435, 453, 947, 1065
2113, 837, 954, 697, 1125
2114, 396, 406, 408, 973
2115, 786, 884, 1026, 1132
2116, 901, 987, 719, 999
2117, 779, 892, 878, 1221
2118, 857, 967, 927, 1176
2119, 948, 1022, 807, 1162
2120, 786, 866, 1132, 1136
2121, 566, 510, 573, 885
2122, 528, 1016, 584, 1112
2123, 309, 334, 1032, 1055
2124, 762, 858, 1026, 1085
2125, 397, 411, 989, 1203
2126, 896, 1110, 963, 1222
2127, 249, 193, 128, 1161
2128, 212, 676, 916, 970
2129, 785, 965, 918, 1173
2130, 796, 829, 987, 1147
2131, 224, 172, 170, 931
2132, 793, 957, 973, 1105
2133, 141, 968, 142, 1200
2134, 735, 857, 706, 994
2135, 873, 933, 277, 1064
2136, 607, 253, 331, 1122
2137, 702, 716, 833, 1107
2138, 397, 411, 403, 989
2139, 822, 1108, 237, 1124
2140, 170, 168, 204, 931
2141, 914, 795, 1010, 1070
2142, 838, 1040, 1061, 1181
2143, 564, 582, 1048, 1197
2144, 415, 825, 1145, 1167
2145, 354, 297, 296, 1161
2146, 764, 1070, 1174, 1189
2147, 830, 903, 1015, 1208
2148, 702, 744, 716, 1107
2149, 783, 983, 888, 1007
2150, 610, 1042, 825, 1145
2151, 766, 842, 1154, 1216
2152, 785, 868, 1034, 1083
2153, 799, 935, 944, 1165
2154, 745, 991, 686, 1212
2155, 888, 775, 1006, 1009
2156, 762, 827, 1011, 1221
2157, 490, 569, 584, 1186
2158, 496, 526, 969, 1090
2159, 465, 474, 449, 879
2160, 275, 327, 263, 921
2161, 757, 722, 733, 1159
2162, 435, 367, 453, 1065
2163, 727, 683, 728, 984
2164, 581, 550, 525, 902
2165, 773, 920, 861, 1215
2166, 593, 1033, 575, 1048
2167, 344, 883, 331, 1122
2168, 690, 569, 490, 1186
2169, 778, 986, 961, 1021
2170, 851, 953, 784, 1134
2171, 861, 992, 509, 1114
2172, 379, 899, 998, 1127
2173, 891, 1050, 873, 1155
2174, 463, 989, 895, 1145
2175, 323, 1050, 891, 1167
2176, 956, 1116, 815, 1192
2177, 424, 423, 361, 966
2178, 912, 1080, 1078, 1163
2179, 576, 491, 595, 991
2180, 828, 1013, 870, 1126
2181, 814, 946, 845, 1016
2182, 217, 222, 153, 876
2183, 277, 287, 289, 873
2184, 610, 825, 1042, 1148
2185, 163, 152, 159, 965
2186, 598, 444, 647, 913
2187, 573, 532, 520, 946
2188, 788, 1079, 963, 1222
2189, 868, 920, 785, 1080
2190, 773, 937, 861, 996
2191, 784, 920, 868, 1047
2192, 405, 393, 421, 1002
2193, 781, 977, 837, 1219
2194, 644, 575, 1033, 1048
2195, 830, 1015, 905, 1208
2196, 546, 948, 915, 1022
2197, 279, 275, 274, 950
2198, 861, 937, 773, 1215
2199, 463, 895, 989, 1203
2200, 303, 347, 326, 995
2201, 766, 936, 842, 1216
2202, 1032, 1055, 334, 1141
2203, 667, 895, 1042, 1145
2204, 925, 1093, 977, 1156
2205, 908, 969, 776, 1149
2206, 771, 1171, 869, 1184
2207, 614, 615, 613, 852
2208, 807, 865, 1162, 1217
2209, 762, 1075, 858, 1085
2210, 492, 593, 545, 1033
2211, 694, 696, 993, 1004
2212, 1078, 1163, 1080, 1206
2213, 785, 920, 868, 1083
2214, 181, 1068, 1111, 1177
2215, 768, 868, 917, 1080
2216, 808, 985, 902, 1183
2217, 706, 993, 857, 1176
2218, 379, 378, 380, 1127
2219, 889, 796, 1038, 1158
2220, 202, 218, 863, 1068
2221, 963, 1110, 788, 1222
2222, 705, 1099, 743, 1103
2223, 637, 964, 635, 970
2224, 252, 346, 330, 1135
2225, 322, 910, 363, 1058
2226, 153, 208, 217, 876
2227, 791, 1062, 944, 1220
2228, 518, 509, 992, 1114
2229, 935, 1013, 875, 1166
2230, 644, 601, 575, 1048
2231, 440, 460, 456, 923
2232, 704, 853, 1092, 1099
2233, 450, 654, 605, 1145
2234, 293, 282, 941, 1012
2235, 923, 1049, 800, 1216
2236, 769, 1056, 871, 1223
2237, 308, 971, 890, 1115
2238, 774, 929, 847, 1169
2239, 909, 943, 298, 1055
2240, 632, 627, 631, 1129
2241, 853, 1109, 977, 1125
2242, 864, 1129, 985, 1213
2243, 757, 733, 900, 1159
2244, 559, 516, 509, 861
2245, 832, 896, 963, 1222
2246, 222, 153, 876, 1120
2247, 215, 129, 190, 880
2248, 926, 1010, 795, 1070
2249, 555, 486, 367, 1065
2250, 814, 1016, 845, 1199
2251, 608, 489, 630, 1142
2252, 622, 864, 1129, 1136
2253, 253, 344, 331, 1122
2254, 234, 916, 225, 1001
2255, 369, 457, 687, 927
2256, 824, 968, 870, 1200
2257, 912, 821, 1045, 1173
2258, 403, 989, 412, 1100
2259, 789, 952, 855, 982
2260, 892, 1028, 878, 1121
2261, 774, 931, 867, 1110
2262, 781, 1109, 853, 1125
2263, 632, 1129, 866, 1136
2264, 437, 909, 245, 1055
2265, 1004, 1070, 837, 1093
2266, 565, 1067, 630, 1142
2267, 823, 1111, 1068, 1177
2268, 778, 876, 986, 1021
2269, 1033, 1048, 807, 1217
2270, 227, 192, 889, 1037
2271, 718, 745, 756, 894
2272, 849, 947, 814, 1199
2273, 761, 1027, 1031, 1113
2274, 766, 1009, 835, 1062
2275, 783, 850, 925, 1156
2276, 630, 489, 565, 1142
2277, 778, 907, 869, 1031
2278, 260, 1040, 930, 1130
2279, 921, 1089, 848, 1091
2280, 693, 1135, 1004, 1176
2281, 614, 852, 613, 1187
2282, 192, 236, 889, 1037
2283, 880, 1040, 257, 1144
2284, 781, 1116, 956, 1192
2285, 883, 1014, 802, 1018
2286, 912, 859, 1078, 1080
2287, 783, 925, 834, 1156
2288, 852, 1042, 613, 1187
2289, 569, 942, 584, 1186
2290, 546, 545, 948, 1022
2291, 478, 942, 681, 1035
2292, 869, 1031, 761, 1052
2293, 494, 491, 135, 988
2294, 257, 880, 256, 1131
2295, 633, 635, 886, 1217
2296, 723, 717, 719, 901
2297, 982, 1034, 855, 1083
2298, 552, 521, 585, 939
2299, 749, 706, 735, 857
2300, 781, 853, 1107, 1125
2301, 850, 925, 790, 1002
2302, 564, 591, 582, 1197
2303, 873, 1020, 891, 1155
2304, 842, 1049, 923, 1216
2305, 655, 652, 607, 1122
2306, 762, 1034, 832, 1096
2307, 195, 988, 135, 1000
2308, 857, 994, 445, 1138
2309, 869, 1171, 911, 1184
2310, 1023, 1109, 955, 1123
2311, 282, 278, 284, 941
2312, 666, 624, 1036, 1187
2313, 384, 451, 881, 1087
2314, 476, 457, 369, 927
2315, 780, 899, 881, 1015
2316, 643, 648, 611, 893
2317, 882, 1027, 761, 1113
2318, 184, 183, 166, 874
2319, 551, 586, 522, 1112
2320, 868, 1047, 920, 1080
2321, 404, 466, 422, 1138
2322, 777, 921, 1091, 1207
2323, 654, 895, 667, 1145
2324, 766, 953, 851, 1154
2325, 1004, 1010, 837, 1070
2326, 633, 636, 635, 1217
2327, 781, 853, 955, 1107
2328, 785, 982, 920, 1083
2329, 665, 458, 669, 978
2330, 570, 568, 518, 1066
2331, 675, 640, 664, 929
2332, 870, 1126, 1021, 1194
2333, 667, 1042, 610, 1145
2334, 793, 1036, 1187, 1214
2335, 598, 360, 444, 1036
2336, 329, 280, 269, 1115
2337, 465, 474, 879, 1195
2338, 993, 1004, 857, 1176
2339, 170, 158, 168, 931
2340, 384, 451, 447, 881
2341, 622, 1129, 864, 1213
2342, 579, 562, 1019, 1073
2343, 1023, 1063, 767, 1199
2344, 621, 864, 622, 1136
2345, 465, 879, 947, 1195
2346, 503, 567, 527, 875
2347, 762, 892, 1075, 1085
2348, 824, 1126, 1008, 1191
2349, 527, 570, 505, 1066
2350, 227, 171, 192, 1037
2351, 206, 172, 224, 847
2352, 980, 1075, 892, 1085
2353, 1078, 1080, 859, 1206
2354, 622, 985, 1129, 1213
2355, 644, 1033, 677, 1048
2356, 489, 608, 577, 978
2357, 194, 237, 224, 1124
2358, 635, 636, 668, 1217
2359, 899, 1041, 850, 1156
2360, 923, 1049, 440, 1179
2361, 809, 1004, 914, 1135
2362, 393, 1002, 398, 1007
2363, 1052, 1097, 917, 1171
2364, 723, 901, 719, 999
2365, 166, 874, 183, 1151
2366, 811, 875, 1066, 1149
2367, 833, 956, 829, 987
2368, 844, 992, 784, 1047
2369, 448, 420, 427, 1077
2370, 706, 857, 749, 1176
2371, 779, 1085, 892, 1221
2372, 421, 405, 1002, 1138
2373, 702, 833, 715, 1211
2374, 781, 837, 977, 1125
2375, 769, 830, 1057, 1180
2376, 840, 1076, 939, 1133
2377, 592, 586, 551, 1112
2378, 880, 1040, 792, 1061
2379, 311, 346, 290, 906
2380, 790, 977, 925, 1093
2381, 778, 876, 1021, 1194
2382, 136, 1108, 194, 1161
2383, 874, 796, 974, 1196
2384, 206, 847, 224, 1124
2385, 778, 1097, 876, 1194
2386, 280, 872, 1095, 1175
2387, 861, 937, 516, 1190
2388, 421, 850, 1127, 1138
2389, 234, 212, 916, 970
2390, 843, 996, 784, 1134
2391, 514, 843, 1019, 1134
2392, 828, 935, 897, 1027
2393, 914, 958, 795, 1193
2394, 258, 257, 1040, 1144
2395, 762, 1011, 868, 1096
2396, 818, 1133, 988, 1151
2397, 873, 933, 1086, 1178
2398, 763, 1137, 907, 1181
2399, 264, 921, 272, 1069
2400, 463, 473, 415, 1145
2401, 534, 532, 962, 1025
2402, 639, 656, 664, 847
2403, 1013, 1194, 870, 1206
2404, 805, 1056, 911, 1223
2405, 414, 366, 442, 1039
2406, 851, 574, 1044, 1104
2407, 460, 391, 455, 923
2408, 796, 829, 956, 987
2409, 554, 1066, 527, 1149
2410, 783, 1156, 834, 1208
2411, 221, 984, 239, 1164
2412, 786, 852, 1051, 1152
2413, 750, 718, 717, 901
2414, 916, 1001, 886, 1162
2415, 390, 401, 448, 1100
2416, 917, 1097, 806, 1163
2417, 775, 924, 885, 962
2418, 306, 258, 260, 1040
2419, 830, 1057, 848, 1223
2420, 776, 870, 968, 1053
2421, 331, 883, 353, 1018
2422, 184, 874, 166, 1117
2423, 901, 987, 796, 1196
2424, 789, 1001, 982, 1162
2425, 580, 524, 1019, 1073
2426, 698, 993, 696, 1125
2427, 825, 610, 1145, 1148
2428, 441, 481, 560, 966
2429, 417, 1006, 904, 1025
2430, 888, 1006, 923, 1009
2431, 842, 1003, 936, 1154
2432, 435, 947, 940, 1065
2433, 872, 919, 805, 1175
2434, 778, 1021, 1126, 1194
2435, 463, 415, 989, 1145
2436, 554, 571, 1146, 1149
2437, 931, 847, 1024, 1169
2438, 820, 1003, 923, 1154
2439, 818, 969, 840, 1008
2440, 769, 1057, 830, 1223
2441, 838, 1181, 1102, 1207
2442, 832, 1080, 917, 1096
2443, 795, 926, 1070, 1219
2444, 447, 881, 451, 1182
2445, 384, 386, 451, 1087
2446, 805, 919, 872, 1188
2447, 542, 1067, 937, 1197
2448, 838, 1040, 259, 1209
2449, 271, 919, 270, 1064
2450, 903, 783, 1015, 1208
2451, 742, 687, 457, 927
2452, 855, 773, 982, 1083
2453, 843, 784, 953, 1134
2454, 222, 1068, 202, 1120
2455, 702, 1107, 833, 1211
2456, 202, 218, 205, 863
2457, 769, 972, 830, 1180
2458, 367, 434, 555, 1065
2459, 344, 941, 284, 1139
2460, 812, 877, 902, 1210
2461, 501, 502, 566, 1030
2462, 337, 871, 324, 1081
2463, 899, 983, 783, 1007
2464, 612, 614, 613, 1187
2465, 781, 956, 833, 1192
2466, 912, 832, 1163, 1222
2467, 313, 1050, 323, 1167
2468, 803, 901, 874, 1084
2469, 123, 186, 185, 890
2470, 255, 1071, 356, 1167
2471, 546, 544, 545, 1022
2472, 855, 952, 789, 1170
2473, 244, 307, 128, 971
2474, 840, 969, 818, 1160
2475, 984, 1131, 197, 1164
2476, 781, 1109, 977, 1116
2477, 420, 1077, 448, 1100
2478, 792, 949, 930, 1130
2479, 879, 790, 1063, 1195
2480, 809, 1141, 906, 1174
2481, 583, 1054, 937, 1067
2482, 789, 952, 1024, 1169
2483, 724, 745, 686, 1212
2484, 280, 1095, 332, 1175
2485, 1081, 1175, 268, 1201
2486, 861, 920, 801, 1215
2487, 215, 1098, 880, 1144
2488, 712, 681, 478, 942
2489, 887, 1085, 779, 1221
2490, 782, 1060, 845, 1123
2491, 416, 473, 1071, 1167
2492, 761, 1113, 981, 1208
2493, 796, 987, 901, 999
2494, 762, 892, 1085, 1221
2495, 775, 835, 1009, 1094
2496, 772, 980, 1085, 1086
2497, 1008, 1126, 897, 1191
2498, 682, 725, 730, 914
2499, 785, 859, 912, 1080
2500, 856, 1011, 762, 1096
2501, 136, 237, 194, 1108
2502, 266, 268, 1175, 1201
2503, 280, 332, 267, 1175
2504, 769, 848, 1057, 1223
2505, 790, 879, 1063, 1103
2506, 977, 1109, 834, 1116
2507, 128, 203, 244, 971
2508, 516, 509, 861, 1190
2509, 690, 712, 569, 1186
2510, 506, 505, 507, 1044
2511, 340, 927, 358, 1135
2512, 302, 285, 922, 1209
2513, 816, 1017, 1057, 1087
2514, 791, 1011, 856, 1096
2515, 810, 947, 879, 1199
2516, 433, 927, 476, 967
2517, 567, 527, 875, 1149
2518, 786, 858, 1118, 1152
2519, 864, 786, 960, 1132
2520, 803, 1133, 988, 1160
2521, 848, 1057, 830, 1091
2522, 377, 425, 437, 998
2523, 284, 293, 282, 941
2524, 821, 1110, 896, 1222
2525, 144, 961, 208, 1021
2526, 869, 1052, 911, 1171
2527, 255, 356, 313, 1167
2528, 952, 1034, 896, 1118
2529, 792, 930, 1040, 1130
2530, 829, 926, 954, 1204
2531, 348, 355, 311, 1193
2532, 542, 591, 1067, 1197
2533, 793, 973, 913, 1105
2534, 837, 781, 954, 1125
2535, 784, 1134, 996, 1190
2536, 602, 661, 913, 1153
2537, 298, 943, 909, 1089
2538, 892, 980, 787, 1075
2539, 728, 760, 741, 984
2540, 773, 982, 1162, 1170
2541, 354, 342, 1108, 1122
2542, 745, 894, 718, 1198
2543, 435, 940, 434, 1065
2544, 689, 737, 250, 995
2545, 425, 998, 379, 1182
2546, 900, 922, 795, 958
2547, 793, 1150, 1051, 1187
2548, 240, 914, 355, 958
2549, 815, 1191, 956, 1192
2550, 559, 861, 509, 1114
2551, 773, 855, 982, 1170
2552, 993, 1004, 837, 1093
2553, 816, 1057, 848, 1089
2554, 701, 1107, 853, 1125
2555, 769, 830, 972, 1223
2556, 782, 882, 1027, 1165
2557, 856, 1011, 791, 1121
2558, 437, 377, 998, 1055
2559, 784, 953, 851, 1185
2560, 215, 951, 880, 1098
2561, 934, 961, 836, 974
2562, 903, 1041, 764, 1174
2563, 800, 1049, 923, 1179
2564, 764, 839, 1143, 1219
2565, 218, 205, 863, 1045
2566, 651, 675, 652, 929
2567, 782, 1060, 882, 1165
2568, 200, 908, 1053, 1146
2569, 851, 924, 766, 1154
2570, 908, 968, 187, 1053
2571, 191, 918, 154, 1024
2572, 240, 330, 355, 914
2573, 186, 1068, 181, 1177
2574, 803, 1000, 988, 1117
2575, 267, 268, 269, 1175
2576, 798, 1035, 942, 1112
2577, 732, 697, 695, 1010
2578, 775, 962, 904, 1006
2579, 217, 876, 986, 1111
2580, 199, 908, 557, 1090
2581, 841, 976, 388, 1077
2582, 861, 559, 948, 1114
2583, 780, 1057, 881, 1182
2584, 795, 1070, 1143, 1219
2585, 718, 901, 750, 1198
2586, 285, 347, 922, 1209
2587, 795, 1143, 926, 1219
2588, 293, 284, 296, 941
2589, 344, 353, 883, 1139
2590, 620, 632, 633, 866
2591, 462, 913, 410, 973
2592, 934, 974, 836, 1037
2593, 158, 931, 170, 1024
2594, 517, 975, 845, 1112
2595, 962, 1006, 820, 1025
2596, 603, 656, 132, 1124
2597, 843, 1101, 770, 1183
2598, 1147, 1159, 900, 1204
2599, 803, 939, 1133, 1160
2600, 813, 964, 1169, 1170
2601, 961, 974, 824, 1200
2602, 193, 204, 128, 1161
2603, 331, 344, 353, 883
2604, 455, 460, 923, 1006
2605, 761, 981, 869, 1220
2606, 765, 874, 1084, 1133
2607, 806, 870, 1194, 1206
2608, 706, 694, 696, 993
2609, 834, 1113, 882, 1208
2610, 127, 18, 137, 484
2611, 801, 844, 1066, 1119
2612, 840, 818, 1008, 1133
2613, 417, 945, 904, 1006
2614, 515, 511, 1054, 1190
2615, 418, 417, 904, 1025
2616, 903, 981, 830, 1091
2617, 762, 1026, 855, 1083
2618, 462, 370, 444, 913
2619, 821, 952, 896, 1110
2620, 621, 960, 864, 1136
2621, 125, 182, 915, 1072
2622, 246, 880, 257, 1144
2623, 767, 849, 997, 1199
2624, 780, 943, 909, 998
2625, 905, 1015, 783, 1208
2626, 848, 1057, 780, 1089
2627, 762, 1034, 868, 1083
2628, 256, 129, 39, 1131
2629, 810, 942, 1023, 1099
2630, 643, 893, 611, 1106
2631, 464, 913, 444, 1036
2632, 366, 87, 549, 485
2633, 764, 837, 1070, 1093
2634, 781, 833, 955, 1192
2635, 641, 916, 676, 970
2636, 915, 948, 546, 1114
2637, 840, 818, 1133, 1160
2638, 780, 848, 1089, 1091
2639, 854, 1076, 955, 1123
2640, 703, 853, 704, 1099
2641, 724, 686, 488, 1212
2642, 388, 387, 389, 976
2643, 936, 953, 797, 1101
2644, 479, 599, 565, 1067
2645, 835, 1027, 882, 1165
2646, 787, 871, 1056, 1081
2647, 896, 1075, 858, 1118
2648, 866, 786, 1082, 1136
2649, 199, 16, 557, 558
2650, 863, 912, 1163, 1222
2651, 615, 990, 618, 1014
2652, 762, 1085, 1026, 1221
2653, 764, 977, 837, 1093
2654, 229, 236, 192, 1037
2655, 770, 864, 1105, 1132
2656, 149, 912, 150, 1078
2657, 706, 993, 748, 994
2658, 16, 199, 124, 558
2659, 799, 924, 851, 1104
2660, 936, 953, 766, 1154
2661, 425, 379, 447, 1182
2662, 533, 904, 532, 1025
2663, 774, 896, 1029, 1118
2664, 122, 676, 212, 970
2665, 300, 1089, 909, 1218
2666, 774, 847, 931, 1169
2667, 327, 272, 264, 921
2668, 765, 1084, 874, 1196
2669, 400, 413, 402, 945
2670, 667, 612, 1042, 1187
2671, 18, 494, 137, 484
2672, 562, 1019, 851, 1134
2673, 186, 890, 198, 1074
2674, 177, 174, 165, 1022
2675, 361, 481, 441, 966
2676, 307, 293, 249, 1161
2677, 767, 925, 849, 1063
2678, 191, 154, 158, 1024
2679, 12, 125, 188, 548
2680, 775, 888, 945, 1094
2681, 343, 893, 291, 1050
2682, 291, 1050, 893, 1178
2683, 500, 499, 498, 928
2684, 419, 1006, 417, 1025
2685, 870, 1200, 143, 1205
2686, 144, 156, 208, 961
2687, 764, 837, 977, 1219
2688, 814, 997, 849, 1199
2689, 259, 261, 260, 1040
2690, 187, 200, 908, 1053
2691, 640, 664, 929, 1202
2692, 431, 87, 549, 366
2693, 175, 1098, 215, 1144
2694, 376, 378, 377, 1127
2695, 910, 1077, 1017, 1087
2696, 565, 599, 630, 1067
2697, 553, 13, 125, 216
2698, 14, 216, 480, 201
2699, 761, 869, 1052, 1220
2700, 948, 1114, 915, 1215
2701, 216, 553, 14, 480
2702, 209, 146, 213, 959
2703, 996, 1134, 843, 1190
2704, 789, 886, 964, 970
2705, 853, 1099, 703, 1103
2706, 126, 938, 179, 1144
2707, 833, 987, 901, 1196
2708, 207, 184, 228, 1117
2709, 823, 1068, 890, 1177
2710, 537, 574, 579, 1073
2711, 548, 13, 125, 553
2712, 647, 602, 661, 913
2713, 774, 952, 896, 1118
2714, 709, 1035, 942, 1092
2715, 830, 1208, 905, 1220
2716, 895, 1036, 624, 1187
2717, 612, 613, 1042, 1187
2718, 583, 541, 937, 1054
2719, 733, 734, 757, 900
2720, 244, 307, 32, 128
2721, 803, 1084, 874, 1133
2722, 874, 901, 803, 1117
2723, 831, 1162, 948, 1215
2724, 596, 555, 578, 1186
2725, 395, 407, 406, 1043
2726, 1004, 1135, 809, 1176
2727, 418, 904, 533, 1025
2728, 834, 1156, 977, 1219
2729, 175, 126, 179, 1144
2730, 823, 862, 949, 1130
2731, 801, 1114, 861, 1215
2732, 737, 682, 240, 958
2733, 930, 949, 862, 1130
2734, 306, 318, 258, 938
2735, 800, 881, 983, 1015
2736, 956, 1191, 765, 1192
2737, 824, 1126, 961, 1200
2738, 218, 1045, 863, 1074
2739, 781, 955, 833, 1107
2740, 548, 188, 12, 483
2741, 773, 1162, 886, 1170
2742, 852, 613, 1042, 1106
2743, 913, 1153, 661, 1213
2744, 780, 1057, 848, 1091
2745, 731, 734, 733, 900
2746, 128, 32, 244, 203
2747, 580, 524, 531, 1168
2748, 981, 1208, 830, 1220
2749, 775, 945, 997, 1094
2750, 759, 991, 745, 1198
2751, 900, 1010, 926, 1204
2752, 394, 393, 398, 1007
2753, 494, 135, 19, 137
2754, 892, 1011, 878, 1221
2755, 436, 424, 966, 1003
2756, 146, 870, 143, 1205
2757, 485, 531, 561, 1168
2758, 94, 540, 428, 486
2759, 804, 951, 1131, 1164
2760, 333, 890, 1095, 1115
2761, 340, 315, 358, 927
2762, 556, 596, 584, 1186
2763, 789, 1169, 964, 1170
2764, 896, 858, 1029, 1118
2765, 763, 1061, 838, 1102
2766, 757, 995, 760, 1159
2767, 319, 1095, 333, 1177
2768, 823, 890, 1079, 1095
2769, 762, 868, 1034, 1096
2770, 767, 1063, 849, 1199
2771, 485, 1039, 531, 1168
2772, 367, 435, 434, 1065
2773, 215, 880, 190, 1144
2774, 779, 976, 841, 1028
2775, 299, 437, 64, 362
2776, 777, 921, 979, 1091
2777, 663, 674, 631, 865
2778, 791, 878, 1011, 1062
2779, 870, 806, 1205, 1206
2780, 206, 132, 656, 1124
2781, 895, 1150, 793, 1187
2782, 922, 838, 1102, 1193
2783, 364, 417, 413, 904
2784, 353, 1018, 883, 1139
2785, 795, 926, 900, 1010
2786, 317, 295, 1020, 1058
2787, 258, 938, 318, 1144
2788, 736, 993, 698, 1125
2789, 817, 1055, 1032, 1141
2790, 248, 375, 66, 365
2791, 256, 246, 38, 129
2792, 837, 764, 1070, 1219
2793, 36, 318, 243, 938
2794, 608, 626, 628, 985
2795, 819, 1091, 921, 1207
2796, 400, 409, 453, 947
2797, 670, 929, 651, 1014
2798, 626, 630, 627, 985
2799, 802, 893, 1086, 1178
2800, 578, 590, 711, 940
2801, 1002, 1063, 790, 1195
2802, 1092, 1107, 714, 1211
2803, 967, 1138, 1127, 1189
2804, 714, 1092, 701, 1107
2805, 195, 1117, 166, 1151
2806, 73, 648, 600, 241
2807, 520, 530, 519, 946
2808, 285, 314, 347, 1209
2809, 956, 987, 833, 1196
2810, 128, 307, 31, 249
2811, 426, 59, 247, 368
2812, 825, 1148, 1071, 1167
2813, 947, 1063, 879, 1199
2814, 486, 428, 94, 367
2815, 66, 248, 365, 309
2816, 190, 38, 246, 129
2817, 855, 789, 982, 1170
2818, 823, 949, 876, 1111
2819, 654, 667, 605, 1145
2820, 482, 530, 532, 904
2821, 769, 841, 1017, 1028
2822, 863, 1045, 912, 1222
2823, 446, 382, 394, 1007
2824, 589, 669, 470, 978
2825, 814, 945, 904, 1172
2826, 854, 955, 1109, 1123
2827, 906, 1141, 819, 1174
2828, 197, 984, 196, 1131
2829, 392, 976, 389, 1088
2830, 358, 316, 346, 1135
2831, 500, 501, 499, 928
2832, 777, 981, 839, 1207
2833, 434, 940, 555, 1065
2834, 932, 1072, 801, 1140
2835, 704, 1092, 708, 1099
2836, 926, 1102, 839, 1143
2837, 932, 801, 1119, 1140
2838, 495, 494, 484, 988
2839, 667, 1042, 895, 1187
2840, 521, 538, 939, 1160
2841, 801, 1047, 844, 1119
2842, 315, 375, 67, 248
2843, 256, 39, 254, 1131
2844, 805, 862, 979, 1184
2845, 193, 128, 31, 249
2846, 368, 59, 247, 312
2847, 138, 127, 137, 988
2848, 734, 958, 737, 995
2849, 192, 236, 227, 889
2850, 482, 533, 92, 364
2851, 458, 978, 665, 1153
2852, 950, 1102, 838, 1193
2853, 896, 1029, 858, 1075
2854, 775, 997, 1060, 1094
2855, 831, 915, 948, 1022
2856, 798, 955, 1076, 1123
2857, 623, 1213, 864, 1214
2858, 493, 589, 470, 978
2859, 466, 433, 476, 967
2860, 467, 430, 405, 1002
2861, 475, 1153, 432, 1157
2862, 780, 1015, 903, 1041
2863, 919, 1081, 805, 1175
2864, 831, 982, 918, 1001
2865, 364, 904, 413, 1172
2866, 634, 620, 633, 1082
2867, 245, 909, 298, 1055
2868, 977, 1156, 764, 1219
2869, 506, 508, 562, 1134
2870, 632, 619, 1129, 1136
2871, 186, 1068, 890, 1074
2872, 762, 855, 1034, 1083
2873, 777, 979, 862, 1184
2874, 529, 581, 525, 902
2875, 786, 960, 852, 990
2876, 245, 437, 64, 299
2877, 765, 1191, 956, 1196
2878, 416, 415, 473, 1167
2879, 765, 1076, 840, 1133
2880, 374, 470, 458, 978
2881, 811, 1013, 959, 1119
2882, 257, 1040, 880, 1209
2883, 765, 840, 1008, 1133
2884, 319, 1130, 1095, 1177
2885, 530, 904, 482, 1172
2886, 171, 951, 215, 1098
2887, 434, 471, 590, 940
2888, 828, 944, 935, 1027
2889, 826, 941, 1029, 1139
2890, 403, 412, 401, 1100
2891, 658, 677, 644, 1033
2892, 910, 1017, 816, 1087
2893, 938, 1040, 792, 1144
2894, 126, 318, 36, 938
2895, 814, 945, 849, 997
2896, 902, 1101, 877, 1168
2897, 855, 1034, 952, 1118
2898, 918, 1024, 821, 1173
2899, 904, 946, 814, 1172
2900, 352, 469, 373, 927
2901, 599, 627, 630, 1067
2902, 152, 154, 918, 1173
2903, 725, 693, 914, 1004
2904, 243, 306, 319, 1130
2905, 798, 1035, 894, 1092
2906, 125, 932, 189, 1072
2907, 828, 1126, 870, 1194
2908, 823, 1095, 862, 1130
2909, 282, 329, 271, 1012
2910, 927, 967, 809, 1176
2911, 861, 992, 784, 1190
2912, 713, 1035, 709, 1092
2913, 622, 864, 623, 1213
2914, 153, 1021, 876, 1120
2915, 881, 1015, 800, 1180
2916, 951, 1038, 804, 1061
2917, 765, 1008, 840, 1076
2918, 882, 1060, 997, 1094
2919, 816, 1089, 848, 1128
2920, 333, 308, 890, 1115
2921, 398, 849, 1002, 1195
2922, 857, 809, 967, 1176
2923, 630, 626, 608, 985
2924, 844, 1047, 768, 1119
2925, 813, 1118, 952, 1169
2926, 819, 1141, 943, 1174
2927, 796, 987, 956, 1196
2928, 337, 324, 321, 1081
2929, 769, 878, 972, 1180
2930, 772, 1085, 858, 1086
2931, 811, 1053, 908, 1146
2932, 196, 39, 129, 1131
2933, 593, 575, 487, 1048
2934, 761, 1208, 981, 1220
2935, 311, 355, 346, 914
2936, 768, 844, 1119, 1166
2937, 173, 234, 225, 1001
2938, 352, 754, 469, 927
2939, 667, 624, 612, 1187
2940, 848, 830, 979, 1091
2941, 887, 1051, 786, 1132
2942, 906, 1070, 809, 1174
2943, 748, 994, 993, 1103
2944, 862, 1095, 872, 1175
2945, 149, 151, 150, 912
2946, 284, 941, 278, 1139
2947, 418, 419, 417, 1025
2948, 608, 629, 577, 978
2949, 861, 784, 996, 1190
2950, 95, 486, 367, 555
2951, 780, 998, 909, 1182
2952, 310, 933, 277, 1178
2953, 402, 413, 417, 945
2954, 303, 922, 958, 1193
2955, 533, 418, 92, 364
2956, 123, 335, 33, 244
2957, 454, 61, 242, 363
2958, 178, 1022, 177, 1033
2959, 202, 222, 218, 1068
2960, 243, 938, 306, 1130
2961, 300, 298, 909, 1089
2962, 172, 170, 931, 1024
2963, 707, 705, 743, 1103
2964, 176, 971, 1005, 1074
2965, 569, 478, 592, 942
2966, 795, 1102, 926, 1143
2967, 899, 783, 983, 1015
2968, 904, 1006, 962, 1025
2969, 835, 905, 1009, 1094
2970, 890, 1095, 823, 1177
2971, 422, 994, 467, 1138
2972, 853, 781, 955, 1109
2973, 725, 695, 693, 1004
2974, 848, 979, 830, 1223
2975, 841, 1028, 976, 1077
2976, 1071, 1145, 825, 1167
2977, 799, 875, 935, 1059
2978, 825, 989, 891, 1167
2979, 596, 556, 1065, 1186
2980, 920, 982, 773, 1083
2981, 547, 915, 546, 1114
2982, 674, 865, 663, 1217
2983, 953, 1019, 851, 1154
2984, 780, 899, 1015, 1041
2985, 207, 758, 688, 131
2986, 798, 1023, 955, 1123
2987, 831, 948, 915, 1215
2988, 200, 124, 187, 908
2989, 837, 954, 926, 1010
2990, 709, 681, 942, 1035
2991, 784, 844, 1047, 1185
2992, 123, 198, 186, 890
2993, 700, 954, 697, 1010
2994, 804, 951, 880, 1131
2995, 959, 1013, 811, 1053
2996, 517, 519, 528, 1016
2997, 489, 577, 594, 978
2998, 130, 11, 188, 483
2999, 910, 1020, 794, 1058
3000, 590, 471, 751, 940
3001, 926, 1010, 954, 1204
3002, 698, 736, 696, 993
3003, 243, 1130, 319, 1177
3004, 270, 324, 1064, 1081
3005, 834, 1116, 839, 1219
3006, 139, 140, 968, 1151
3007, 649, 1018, 643, 1106
3008, 856, 911, 1056, 1121
3009, 238, 195, 1000, 1117
3010, 926, 1143, 839, 1219
3011, 844, 784, 992, 1185
3012, 968, 1053, 870, 1200
3013, 650, 1014, 649, 1106
3014, 558, 571, 526, 908
3015, 333, 1095, 280, 1115
3016, 768, 1047, 844, 1166
3017, 36, 243, 180, 938
3018, 944, 761, 1052, 1220
3019, 799, 851, 1044, 1104
3020, 322, 242, 61, 363
3021, 244, 33, 123, 203
3022, 736, 1103, 993, 1125
3023, 456, 407, 443, 1003
3024, 959, 1119, 1013, 1206
3025, 805, 979, 862, 1069
3026, 735, 706, 748, 994
3027, 475, 374, 1153, 1157
3028, 542, 583, 937, 1067
3029, 897, 935, 782, 1027
3030, 560, 441, 89, 481
3031, 277, 933, 273, 1064
3032, 783, 903, 1156, 1208
3033, 791, 972, 1062, 1220
3034, 264, 265, 262, 1069
3035, 526, 908, 571, 1149
3036, 870, 1013, 828, 1194
3037, 642, 479, 564, 1067
3038, 11, 130, 544, 483
3039, 990, 1014, 852, 1152
3040, 200, 124, 908, 1146
3041, 936, 1003, 797, 1154
3042, 819, 1046, 950, 1207
3043, 529, 902, 525, 1054
3044, 405, 467, 1002, 1138
3045, 806, 1120, 1078, 1163
3046, 1015, 1057, 830, 1180
3047, 458, 374, 978, 1153
3048, 243, 938, 1130, 1177
3049, 790, 1093, 850, 1138
3050, 802, 1018, 1014, 1106
3051, 188, 915, 174, 1022
3052, 788, 1012, 867, 1110
3053, 151, 912, 205, 1045
3054, 870, 1021, 1200, 1205
3055, 130, 178, 10, 544
3056, 786, 852, 960, 1051
3057, 615, 650, 613, 1106
3058, 532, 530, 520, 946
3059, 876, 1068, 823, 1111
3060, 823, 890, 1068, 1079
3061, 667, 895, 624, 1187
3062, 581, 902, 529, 1142
3063, 795, 958, 922, 1193
3064, 560, 441, 966, 1039
3065, 792, 880, 1098, 1144
3066, 908, 1146, 571, 1149
3067, 759, 686, 745, 991
3068, 317, 910, 322, 1058
3069, 816, 909, 1089, 1218
3070, 571, 908, 558, 1146
3071, 19, 491, 135, 494
3072, 892, 1011, 856, 1121
3073, 849, 1063, 947, 1199
3074, 211, 227, 236, 889
3075, 709, 942, 708, 1092
3076, 375, 315, 67, 373
3077, 125, 182, 188, 915
3078, 162, 171, 215, 1098
3079, 554, 527, 571, 1149
3080, 167, 160, 974, 1037
3081, 561, 523, 525, 1168
3082, 819, 921, 1046, 1207
3083, 621, 864, 960, 1214
3084, 699, 954, 744, 1107
3085, 956, 1191, 934, 1196
3086, 731, 737, 734, 958
3087, 780, 1089, 943, 1091
3088, 951, 889, 1038, 1158
3089, 713, 756, 894, 1211
3090, 273, 271, 270, 1064
3091, 937, 996, 808, 1054
3092, 496, 969, 497, 1160
3093, 403, 415, 412, 989
3094, 146, 148, 959, 1205
3095, 152, 154, 159, 918
3096, 464, 410, 444, 913
3097, 787, 919, 1064, 1081
3098, 126, 36, 180, 938
3099, 815, 1031, 897, 1113
3100, 313, 356, 1050, 1148
3101, 624, 895, 654, 1036
3102, 885, 946, 775, 962
3103, 250, 737, 326, 995
3104, 826, 1029, 933, 1139
3105, 276, 288, 287, 1020
3106, 583, 1054, 1067, 1142
3107, 772, 980, 873, 1155
3108, 555, 940, 578, 1186
3109, 603, 220, 645, 1124
3110, 928, 935, 875, 1059
3111, 181, 1068, 222, 1111
3112, 701, 853, 703, 1125
3113, 167, 160, 155, 974
3114, 872, 963, 788, 1079
3115, 852, 786, 990, 1152
3116, 278, 933, 310, 1139
3117, 300, 341, 1089, 1128
3118, 772, 873, 980, 1086
3119, 964, 970, 637, 1202
3120, 888, 775, 945, 1006
3121, 978, 1153, 374, 1157
3122, 1023, 1092, 853, 1099
3123, 379, 998, 378, 1127
3124, 356, 343, 1050, 1148
3125, 286, 274, 302, 950
3126, 196, 254, 39, 1131
3127, 209, 959, 213, 1053
3128, 286, 950, 302, 1193
3129, 149, 205, 151, 912
3130, 623, 864, 621, 1214
3131, 234, 212, 225, 916
3132, 611, 1042, 893, 1148
3133, 172, 158, 170, 1024
3134, 535, 534, 536, 1025
3135, 697, 954, 699, 1125
3136, 789, 1024, 847, 1169
3137, 767, 1109, 1023, 1123
3138, 909, 998, 943, 1055
3139, 803, 939, 894, 1084
3140, 187, 968, 141, 1053
3141, 870, 1205, 959, 1206
3142, 242, 439, 62, 454
3143, 34, 320, 335, 123
3144, 808, 1054, 996, 1183
3145, 422, 445, 994, 1138
3146, 541, 516, 937, 1190
3147, 555, 367, 95, 434
3148, 424, 419, 423, 1025
3149, 363, 910, 427, 1058
3150, 180, 1111, 938, 1177
3151, 867, 971, 788, 1005
3152, 666, 624, 654, 1036
3153, 764, 977, 1093, 1156
3154, 791, 1121, 911, 1171
3155, 906, 914, 809, 1070
3156, 894, 991, 803, 1198
3157, 830, 905, 1015, 1180
3158, 335, 333, 308, 890
3159, 917, 1080, 832, 1163
3160, 231, 755, 219, 1000
3161, 804, 880, 951, 1061
3162, 1071, 1145, 610, 1148
3163, 889, 1037, 796, 1158
3164, 795, 914, 906, 1070
3165, 775, 946, 904, 962
3166, 606, 134, 212, 916
3167, 340, 691, 927, 1135
3168, 180, 181, 1111, 1177
3169, 262, 930, 261, 1046
3170, 918, 982, 789, 1001
3171, 278, 273, 310, 933
3172, 300, 298, 299, 909
3173, 549, 86, 431, 1157
3174, 313, 356, 343, 1050
3175, 606, 212, 676, 916
3176, 199, 187, 908, 1090
3177, 793, 887, 1051, 1150
3178, 946, 1030, 885, 1060
3179, 810, 1023, 942, 1112
3180, 240, 737, 52, 682
3181, 210, 965, 163, 1072
3182, 935, 1027, 944, 1165
3183, 555, 590, 578, 940
3184, 934, 1037, 836, 1158
3185, 845, 1030, 946, 1060
3186, 905, 800, 1015, 1180
3187, 298, 943, 294, 1055
3188, 816, 1057, 881, 1087
3189, 294, 334, 1055, 1141
3190, 294, 1055, 943, 1141
3191, 880, 792, 1040, 1144
3192, 620, 866, 1082, 1136
3193, 295, 323, 287, 1020
3194, 874, 166, 1117, 1151
3195, 799, 924, 885, 1165
3196, 625, 598, 913, 1036
3197, 790, 993, 857, 994
3198, 894, 803, 991, 1212
3199, 832, 917, 1163, 1171
3200, 770, 1101, 902, 1183
3201, 788, 971, 867, 1012
3202, 757, 734, 760, 995
3203, 344, 292, 353, 1139
3204, 557, 908, 526, 1090
3205, 851, 1073, 924, 1154
3206, 436, 966, 441, 1039
3207, 951, 1037, 889, 1158
3208, 753, 338, 350, 984
3209, 464, 444, 360, 1036
3210, 560, 966, 580, 1039
3211, 619, 621, 622, 1136
3212, 517, 1016, 528, 1112
3213, 1095, 1130, 823, 1177
3214, 622, 621, 623, 864
3215, 178, 492, 10, 544
3216, 451, 881, 1087, 1182
3217, 900, 958, 795, 1010
3218, 470, 374, 493, 978
3219, 151, 912, 1045, 1173
3220, 229, 192, 167, 1037
3221, 238, 195, 135, 1000
3222, 799, 1059, 935, 1165
3223, 178, 177, 235, 1033
3224, 876, 1021, 806, 1120
3225, 533, 532, 534, 1025
3226, 179, 938, 180, 1111
3227, 834, 977, 925, 1109
3228, 344, 284, 292, 1139
3229, 575, 119, 487, 601
3230, 197, 196, 129, 1131
3231, 389, 387, 443, 1088
3232, 481, 441, 89, 361
3233, 815, 897, 1031, 1191
3234, 891, 794, 1020, 1058
3235, 611, 610, 1042, 1148
3236, 870, 776, 1013, 1053
3237, 601, 564, 487, 1048
3238, 979, 1201, 805, 1223
3239, 148, 1078, 959, 1205
3240, 483, 547, 548, 915
3241, 809, 1032, 927, 1135
3242, 362, 425, 438, 909
3243, 362, 437, 425, 909
3244, 478, 592, 942, 1035
3245, 703, 701, 704, 853
3246, 748, 707, 994, 1103
3247, 711, 590, 751, 940
3248, 891, 1020, 794, 1155
3249, 397, 957, 429, 1203
3250, 463, 989, 411, 1203
3251, 851, 799, 1044, 1185
3252, 601, 642, 564, 1048
3253, 549, 493, 86, 1157
3254, 615, 618, 650, 1014
3255, 848, 1201, 979, 1223
3256, 542, 583, 541, 937
3257, 320, 319, 333, 1177
3258, 555, 434, 590, 940
3259, 258, 246, 257, 1144
3260, 796, 974, 934, 1037
3261, 795, 950, 906, 1193
3262, 639, 847, 664, 1202
3263, 373, 315, 352, 927
3264, 860, 989, 1150, 1203
3265, 804, 951, 889, 1038
3266, 846, 1105, 770, 1210
3267, 766, 1009, 1062, 1216
3268, 315, 340, 352, 927
3269, 797, 1019, 953, 1154
3270, 855, 1026, 884, 1083
3271, 857, 993, 790, 1093
3272, 391, 923, 440, 1179
3273, 799, 935, 875, 1166
3274, 902, 1101, 770, 1210
3275, 1038, 1147, 900, 1204
3276, 176, 198, 971, 1074
3277, 845, 782, 1030, 1060
3278, 659, 646, 1108, 1122
3279, 761, 905, 1208, 1220
3280, 1127, 1138, 850, 1189
3281, 790, 850, 1002, 1138
3282, 862, 1069, 265, 1175
3283, 864, 793, 960, 1214
3284, 552, 988, 495, 1160
3285, 175, 215, 190, 1144
3286, 179, 180, 181, 1111
3287, 185, 186, 181, 1177
3288, 911, 1056, 1121, 1223
3289, 799, 885, 924, 1104
3290, 682, 731, 725, 958
3291, 454, 427, 363, 910
3292, 142, 155, 144, 961
3293, 816, 848, 1057, 1128
3294, 429, 392, 396, 957
3295, 856, 1096, 832, 1171
3296, 218, 863, 1068, 1074
3297, 846, 1043, 973, 1210
3298, 872, 280, 1095, 1115
3299, 550, 978, 493, 1157
3300, 541, 937, 1054, 1190
3301, 793, 1036, 895, 1187
3302, 791, 1096, 856, 1171
3303, 589, 577, 669, 978
3304, 65, 365, 437, 1055
3305, 516, 542, 937, 1197
3306, 326, 737, 240, 958
3307, 751, 471, 459, 940
3308, 804, 922, 900, 995
3309, 332, 1095, 319, 1130
3310, 326, 737, 958, 995
3311, 616, 990, 960, 1136
3312, 797, 953, 936, 1154
3313, 788, 867, 1005, 1110
3314, 744, 954, 700, 1204
3315, 523, 524, 514, 1019
3316, 753, 741, 338, 984
3317, 427, 454, 452, 910
3318, 829, 1147, 1038, 1204
3319, 805, 1184, 911, 1188
3320, 815, 934, 956, 1191
3321, 639, 637, 970, 1202
3322, 937, 1054, 808, 1067
3323, 409, 400, 398, 1195
3324, 300, 909, 299, 1218
3325, 802, 852, 1106, 1152
3326, 195, 138, 988, 1151
3327, 762, 1011, 892, 1221
3328, 425, 438, 909, 1182
3329, 798, 1092, 894, 1211
3330, 410, 462, 444, 913
3331, 563, 724, 488, 1212
3332, 898, 944, 791, 1062
3333, 791, 856, 1121, 1171
3334, 299, 298, 245, 909
3335, 911, 1121, 856, 1171
3336, 467, 422, 445, 994
3337, 378, 998, 377, 1127
3338, 155, 142, 183, 974
3339, 900, 1147, 1038, 1159
3340, 507, 518, 509, 992
3341, 509, 992, 861, 1190
3342, 220, 1108, 645, 1124
3343, 376, 967, 404, 1127
3344, 285, 302, 259, 1209
3345, 793, 1187, 960, 1214
3346, 1046, 1181, 838, 1207
3347, 228, 131, 207, 1117
3348, 458, 475, 374, 1153
3349, 796, 1037, 934, 1158
3350, 261, 262, 260, 930
3351, 790, 994, 857, 1138
3352, 724, 563, 478, 1035
3353, 546, 948, 559, 1114
3354, 967, 857, 1138, 1189
3355, 122, 597, 676, 970
3356, 305, 242, 317, 910
3357, 294, 943, 281, 1141
3358, 568, 553, 548, 932
3359, 721, 746, 738, 889
3360, 463, 403, 411, 989
3361, 658, 606, 668, 916
3362, 775, 946, 885, 1060
3363, 959, 1013, 870, 1206
3364, 269, 268, 270, 919
3365, 360, 654, 450, 1036
3366, 536, 580, 966, 1073
3367, 270, 1064, 919, 1081
3368, 747, 685, 710, 940
3369, 889, 951, 804, 1164
3370, 580, 579, 524, 1073
3371, 213, 146, 148, 959
3372, 920, 982, 831, 1215
3373, 568, 554, 932, 1066
3374, 767, 853, 1023, 1109
3375, 862, 805, 1069, 1175
3376, 133, 26, 683, 211
3377, 780, 909, 943, 1089
3378, 144, 142, 961, 1200
3379, 893, 1042, 611, 1106
3380, 145, 1021, 153, 1120
3381, 1014, 1106, 852, 1152
3382, 70, 342, 253, 1122
3383, 254, 984, 357, 1131
3384, 333, 280, 308, 1115
3385, 765, 956, 1192, 1196
3386, 600, 655, 241, 1018
3387, 955, 1076, 854, 1192
3388, 241, 655, 331, 1018
3389, 374, 431, 86, 1157
3390, 825, 1145, 1071, 1148
3391, 219, 755, 739, 1000
3392, 62, 304, 439, 242
3393, 320, 34, 185, 123
3394, 365, 65, 309, 1055
3395, 745, 713, 756, 894
3396, 788, 971, 890, 1074
3397, 786, 864, 960, 1136
3398, 270, 919, 268, 1081
3399, 625, 598, 647, 913
3400, 283, 943, 298, 1089
3401, 504, 1059, 1044, 1104
3402, 219, 739, 131, 1000
3403, 239, 984, 197, 1164
3404, 200, 209, 213, 1053
3405, 836, 1098, 986, 1137
3406, 790, 857, 1093, 1138
3407, 357, 254, 338, 984
3408, 391, 460, 440, 923
3409, 379, 380, 381, 899
3410, 1021, 1120, 145, 1205
3411, 804, 880, 1061, 1209
3412, 809, 967, 927, 1032
3413, 613, 611, 1042, 1106
3414, 805, 979, 911, 1184
3415, 616, 960, 621, 1136
3416, 890, 971, 788, 1115
3417, 851, 1019, 953, 1134
3418, 780, 998, 899, 1041
3419, 325, 1018, 345, 1178
3420, 380, 378, 421, 1127
3421, 362, 909, 438, 1218
3422, 777, 1181, 1046, 1207
3423, 893, 1050, 343, 1148
3424, 680, 359, 80, 994
3425, 354, 342, 297, 1108
3426, 844, 992, 1044, 1185
3427, 736, 698, 1103, 1125
3428, 748, 993, 736, 1103
3429, 184, 167, 183, 974
3430, 507, 508, 506, 992
3431, 125, 216, 189, 932
3432, 963, 1079, 872, 1188
3433, 493, 374, 86, 1157
3434, 184, 166, 228, 1117
3435, 617, 990, 616, 1136
3436, 937, 1067, 865, 1197
3437, 893, 1106, 1018, 1178
3438, 800, 1009, 923, 1216
3439, 865, 1048, 663, 1217
3440, 65, 437, 245, 1055
3441, 804, 995, 900, 1159
3442, 535, 481, 90, 361
3443, 242, 322, 317, 910
3444, 917, 1080, 868, 1096
3445, 765, 854, 1076, 1192
3446, 940, 947, 810, 1065
3447, 133, 683, 27, 221
3448, 417, 364, 418, 904
3449, 250, 689, 51, 737
3450, 359, 445, 80, 994
3451, 792, 986, 1098, 1137
3452, 343, 325, 291, 893
3453, 188, 182, 174, 915
3454, 679, 719, 721, 999
3455, 798, 1112, 1023, 1123
3456, 860, 1150, 957, 1203
3457, 355, 330, 346, 914
3458, 849, 947, 1063, 1195
3459, 550, 493, 549, 1157
3460, 648, 73, 325, 241
3461, 308, 301, 971, 1115
3462, 709, 681, 712, 942
3463, 789, 964, 886, 1170
3464, 786, 1132, 864, 1136
3465, 579, 562, 524, 1019
3466, 844, 1166, 1047, 1185
3467, 922, 958, 900, 995
3468, 865, 937, 808, 1067
3469, 199, 187, 124, 908
3470, 628, 985, 626, 1213
3471, 902, 1054, 529, 1142
3472, 930, 949, 792, 1181
3473, 176, 1005, 169, 1074
3474, 739, 688, 131, 1000
3475, 934, 1126, 824, 1191
3476, 653, 960, 1187, 1214
3477, 774, 896, 952, 1110
3478, 653, 616, 614, 960
3479, 784, 992, 1134, 1190
3480, 874, 1084, 901, 1196
3481, 301, 1012, 971, 1115
3482, 555, 596, 556, 1065
3483, 944, 1027, 835, 1165
3484, 772, 989, 1150, 1155
3485, 921, 979, 848, 1069
3486, 645, 603, 47, 220
3487, 364, 482, 904, 1172
3488, 776, 968, 908, 1053
3489, 144, 1021, 145, 1200
3490, 797, 953, 1019, 1101
3491, 625, 1036, 913, 1214
3492, 221, 683, 27, 727
3493, 533, 482, 532, 904
3494, 557, 558, 526, 908
3495, 132, 220, 603, 1124
3496, 724, 478, 681, 1035
3497, 939, 1084, 803, 1133
3498, 653, 960, 614, 1187
3499, 634, 635, 637, 964
3500, 905, 972, 830, 1220
3501, 624, 667, 654, 895
3502, 804, 1131, 880, 1209
3503, 919, 963, 872, 1188
3504, 147, 149, 1078, 1120
3505, 724, 563, 1035, 1212
3506, 854, 781, 1109, 1192
3507, 768, 1013, 1119, 1206
3508, 631, 627, 599, 1067
3509, 913, 1213, 661, 1214
3510, 686, 991, 488, 1212
3511, 291, 893, 325, 1178
3512, 843, 902, 1101, 1183
3513, 666, 653, 624, 1187
3514, 853, 1103, 703, 1125
3515, 425, 909, 998, 1182
3516, 806, 1097, 876, 1120
3517, 863, 1163, 832, 1222
3518, 502, 1059, 504, 1104
3519, 603, 664, 656, 1124
3520, 693, 692, 1135, 1176
3521, 772, 1150, 860, 1155
3522, 775, 904, 945, 1006
3523, 542, 591, 583, 1067
3524, 212, 234, 122, 970
3525, 1019, 1073, 851, 1154
3526, 881, 1057, 816, 1182
3527, 943, 998, 817, 1055
3528, 262, 328, 260, 930
3529, 897, 1126, 1031, 1191
3530, 99, 605, 372, 450
3531, 397, 392, 429, 957
3532, 659, 1108, 342, 1122
3533, 215, 171, 197, 951
3534, 217, 208, 164, 986
3535, 1093, 1156, 850, 1189
3536, 182, 210, 163, 1072
3537, 802, 858, 1029, 1086
3538, 746, 728, 683, 1159
3539, 794, 1058, 891, 1100
3540, 139, 141, 187, 968
3541, 325, 241, 345, 1018
3542, 824, 961, 934, 974
3543, 795, 922, 1102, 1193
3544, 820, 924, 1073, 1154
3545, 806, 863, 1120, 1163
3546, 483, 546, 547, 915
3547, 830, 972, 905, 1180
3548, 397, 429, 411, 1203
3549, 65, 245, 309, 1055
3550, 880, 1131, 257, 1209
3551, 302, 922, 303, 1193
3552, 825, 1042, 895, 1145
3553, 791, 972, 878, 1062
3554, 302, 285, 303, 922
3555, 662, 990, 617, 1082
3556, 496, 498, 497, 969
3557, 698, 697, 699, 1125
3558, 274, 286, 279, 950
3559, 208, 156, 164, 986
3560, 682, 53, 240, 730
3561, 799, 885, 1059, 1165
3562, 70, 659, 342, 1122
3563, 248, 309, 334, 1032
3564, 622, 1129, 619, 1136
3565, 625, 666, 1036, 1214
3566, 923, 1009, 800, 1179
3567, 863, 1079, 1074, 1222
3568, 485, 366, 88, 1039
3569, 881, 899, 983, 1015
3570, 568, 554, 553, 932
3571, 955, 1023, 853, 1109
3572, 952, 1118, 774, 1169
3573, 670, 640, 929, 1202
3574, 808, 1067, 1054, 1142
3575, 667, 612, 610, 1042
3576, 791, 944, 1052, 1220
3577, 558, 908, 124, 1146
3578, 711, 578, 940, 1186
3579, 758, 121, 207, 999
3580, 541, 1054, 511, 1190
3581, 771, 1097, 949, 1184
3582, 651, 670, 640, 929
3583, 227, 171, 951, 1164
3584, 955, 1107, 1092, 1211
3585, 199, 139, 187, 1090
3586, 824, 870, 1126, 1200
3587, 898, 1166, 799, 1185
3588, 740, 1000, 991, 1198
3589, 878, 972, 791, 1121
3590, 361, 90, 535, 423
3591, 438, 909, 1182, 1218
3592, 990, 1082, 786, 1136
3593, 310, 273, 277, 933
3594, 110, 488, 724, 686
3595, 141, 139, 140, 968
3596, 888, 800, 1009, 1179
3597, 350, 196, 233, 984
3598, 465, 947, 409, 1195
3599, 60, 426, 247, 1058
3600, 802, 1029, 858, 1152
3601, 516, 543, 542, 1197
3602, 801, 1066, 932, 1119
3603, 496, 557, 526, 1090
3604, 119, 575, 644, 601
3605, 723, 750, 717, 901
3606, 768, 1047, 868, 1080
3607, 607, 70, 253, 1122
3608, 465, 430, 474, 1195
3609, 794, 860, 1100, 1155
3610, 894, 939, 803, 1212
3611, 988, 1133, 818, 1160
3612, 414, 436, 441, 1039
3613, 645, 1108, 646, 1124
3614, 459, 747, 751, 940
3615, 389, 392, 390, 976
3616, 496, 526, 498, 969
3617, 856, 1056, 892, 1121
3618, 641, 637, 635, 970
3619, 878, 791, 1011, 1121
3620, 724, 109, 478, 563
3621, 382, 383, 381, 983
3622, 336, 300, 341, 1089
3623, 479, 642, 599, 1067
3624, 805, 1175, 1081, 1201
3625, 680, 80, 735, 994
3626, 216, 214, 189, 932
3627, 270, 271, 269, 919
3628, 238, 1000, 131, 1117
3629, 798, 975, 1112, 1123
3630, 52, 326, 737, 240
3631, 687, 927, 692, 1176
3632, 328, 332, 319, 1130
3633, 735, 80, 445, 994
3634, 738, 683, 26, 211
3635, 214, 189, 932, 1140
3636, 903, 830, 981, 1208
3637, 421, 404, 422, 1138
3638, 270, 324, 276, 1064
3639, 674, 636, 633, 1217
3640, 872, 1175, 805, 1188
3641, 601, 644, 677, 1048
3642, 223, 42, 657, 134
3643, 775, 997, 946, 1060
3644, 465, 435, 409, 947
3645, 281, 294, 283, 943
3646, 338, 741, 50, 250
3647, 485, 88, 560, 1039
3648, 764, 1156, 1093, 1189
3649, 209, 187, 141, 1053
3650, 476, 433, 373, 927
3651, 654, 360, 598, 1036
3652, 843, 1019, 953, 1101
3653, 493, 978, 374, 1157
3654, 582, 593, 1048, 1197
3655, 767, 854, 1109, 1123
3656, 877, 1039, 797, 1043
3657, 954, 1010, 700, 1204
3658, 310, 277, 291, 1178
3659, 260, 930, 328, 1130
3660, 889, 1147, 746, 1159
3661, 115, 565, 630, 489
3662, 829, 1038, 900, 1204
3663, 195, 137, 135, 988
3664, 494, 552, 491, 988
3665, 775, 1009, 888, 1094
3666, 799, 1059, 885, 1104
3667, 363, 426, 60, 1058
3668, 445, 79, 735, 369
3669, 441, 88, 366, 1039
3670, 797, 966, 1073, 1154
3671, 661, 1153, 628, 1213
3672, 891, 1050, 825, 1167
3673, 891, 1100, 989, 1155
3674, 279, 311, 290, 906
3675, 807, 865, 1048, 1197
3676, 885, 962, 924, 1104
3677, 206, 45, 122, 656
3678, 239, 196, 197, 984
3679, 538, 539, 521, 939
3680, 579, 1019, 524, 1073
3681, 780, 1015, 881, 1057
3682, 790, 1002, 925, 1063
3683, 196, 984, 254, 1131
3684, 802, 1029, 933, 1086
3685, 794, 1017, 910, 1077
3686, 895, 989, 825, 1145
3687, 706, 749, 694, 1176
3688, 122, 234, 226, 970
3689, 208, 153, 145, 1021
3690, 858, 1086, 802, 1152
3691, 347, 357, 250, 995
3692, 301, 244, 308, 971
3693, 791, 972, 911, 1121
3694, 383, 384, 381, 983
3695, 730, 53, 240, 330
3696, 838, 1061, 922, 1102
3697, 781, 1107, 954, 1125
3698, 603, 132, 47, 220
3699, 679, 121, 758, 999
3700, 877, 797, 1039, 1168
3701, 906, 950, 795, 1143
3702, 759, 740, 991, 1198
3703, 845, 1112, 975, 1123
3704, 769, 972, 878, 1121
3705, 1018, 1106, 802, 1178
3706, 811, 1146, 908, 1149
3707, 363, 427, 420, 1058
3708, 828, 1031, 897, 1126
3709, 502, 504, 510, 1104
3710, 788, 872, 1079, 1115
3711, 662, 618, 617, 990
3712, 726, 991, 740, 1000
3713, 687, 742, 692, 927
3714, 911, 972, 830, 1223
3715, 949, 1097, 869, 1184
3716, 802, 933, 1029, 1139
3717, 814, 947, 1065, 1199
3718, 247, 322, 60, 1058
3719, 849, 925, 1002, 1063
3720, 722, 1147, 752, 1204
3721, 362, 299, 909, 1218
3722, 391, 383, 446, 1179
3723, 263, 327, 264, 921
3724, 853, 1023, 955, 1092
3725, 687, 735, 79, 369
3726, 979, 1069, 805, 1201
3727, 75, 339, 609, 1148
3728, 848, 1069, 979, 1201
3729, 523, 524, 1019, 1168
3730, 615, 616, 617, 990
3731, 877, 1101, 902, 1210
3732, 147, 145, 1120, 1205
3733, 768, 1047, 1080, 1119
3734, 942, 1035, 798, 1092
3735, 521, 497, 538, 1160
3736, 1093, 1138, 857, 1189
3737, 709, 713, 681, 1035
3738, 441, 560, 88, 1039
3739, 843, 953, 1019, 1134
3740, 449, 359, 81, 729
3741, 681, 109, 478, 724
3742, 796, 956, 934, 1196
3743, 848, 979, 921, 1091
3744, 597, 122, 45, 656
3745, 560, 580, 531, 1039
3746, 877, 1043, 797, 1101
3747, 289, 343, 291, 1050
3748, 877, 812, 1157, 1210
3749, 777, 1046, 921, 1207
3750, 629, 669, 577, 978
3751, 284, 278, 292, 1139
3752, 147, 202, 149, 1120
3753, 872, 1079, 890, 1095
3754, 753, 221, 727, 984
3755, 517, 522, 975, 1112
3756, 888, 1009, 923, 1179
3757, 878, 1011, 892, 1121
3758, 353, 345, 1018, 1139
3759, 746, 889, 721, 1147
3760, 297, 1108, 136, 1161
3761, 685, 371, 82, 449
3762, 70, 607, 659, 1122
3763, 625, 913, 661, 1214
3764, 814, 1065, 1016, 1199
3765, 800, 888, 983, 1179
3766, 931, 1005, 867, 1110
3767, 241, 600, 72, 655
3768, 345, 1018, 1139, 1178
3769, 204, 168, 176, 1005
3770, 631, 599, 642, 1067
3771, 885, 1030, 782, 1060
3772, 295, 317, 322, 1058
3773, 198, 203, 176, 971
3774, 191, 159, 154, 918
3775, 218, 1068, 186, 1074
3776, 210, 150, 152, 965
3777, 1069, 266, 1175, 1201
3778, 820, 966, 1003, 1154
3779, 608, 628, 629, 978
3780, 802, 883, 1018, 1139
3781, 403, 463, 415, 989
3782, 116, 479, 599, 565
3783, 689, 50, 741, 250
3784, 298, 283, 294, 943
3785, 662, 634, 964, 1082
3786, 514, 1019, 562, 1134
3787, 732, 700, 697, 1010
3788, 554, 571, 480, 1146
3789, 793, 1051, 960, 1187
3790, 322, 363, 60, 1058
3791, 46, 132, 603, 656
3792, 601, 118, 487, 564
3793, 360, 100, 450, 654
3794, 934, 956, 796, 1158
3795, 777, 930, 1046, 1181
3796, 629, 665, 978, 1153
3797, 143, 144, 145, 1200
3798, 650, 649, 643, 1106
3799, 606, 676, 641, 916
3800, 703, 704, 705, 1099
3801, 217, 181, 222, 1111
3802, 890, 1079, 872, 1115
3803, 834, 925, 977, 1156
3804, 478, 712, 569, 108
3805, 560, 481, 580, 966
3806, 309, 294, 334, 1055
3807, 582, 545, 593, 1197
3808, 144, 961, 1021, 1200
3809, 540, 572, 530, 1172
3810, 134, 235, 225, 916
3811, 130, 188, 174, 1022
3812, 707, 680, 748, 994
3813, 771, 869, 1097, 1184
3814, 575, 588, 673, 1033
3815, 627, 626, 985, 1129
3816, 166, 183, 140, 1151
3817, 771, 872, 1079, 1188
3818, 169, 1045, 218, 1074
3819, 413, 453, 428, 1172
3820, 943, 1055, 817, 1141
3821, 803, 1084, 894, 1198
3822, 147, 145, 153, 1120
3823, 877, 1101, 797, 1168
3824, 376, 404, 378, 1127
3825, 843, 1054, 996, 1190
3826, 407, 395, 443, 1088
3827, 436, 424, 361, 966
3828, 911, 1121, 972, 1223
3829, 668, 636, 658, 1217
3830, 146, 143, 145, 1205
3831, 713, 1092, 714, 1211
3832, 788, 1074, 1079, 1222
3833, 201, 200, 214, 1146
3834, 834, 1156, 903, 1208
3835, 164, 217, 986, 1111
3836, 332, 265, 267, 1175
3837, 804, 1061, 922, 1209
3838, 252, 330, 54, 684
3839, 490, 690, 107, 569
3840, 872, 1095, 890, 1115
3841, 326, 250, 51, 737
3842, 1080, 1163, 917, 1206
3843, 954, 1107, 699, 1125
3844, 436, 456, 424, 1003
3845, 196, 350, 254, 984
3846, 515, 511, 541, 1054
3847, 955, 1109, 781, 1192
3848, 846, 973, 957, 1105
3849, 559, 509, 518, 1114
3850, 726, 759, 740, 991
3851, 575, 593, 492, 1033
3852, 850, 1041, 899, 1127
3853, 705, 703, 1099, 1103
3854, 437, 365, 377, 1055
3855, 911, 979, 805, 1223
3856, 797, 1073, 1019, 1154
3857, 379, 377, 378, 998
3858, 996, 1054, 937, 1190
3859, 870, 1013, 959, 1053
3860, 529, 525, 515, 1054
3861, 524, 562, 514, 1019
3862, 786, 1026, 887, 1132
3863, 1080, 1119, 859, 1206
3864, 788, 1079, 890, 1115
3865, 870, 806, 1194, 1205
3866, 942, 1023, 798, 1112
3867, 659, 678, 646, 1122
3868, 543, 948, 545, 1197
3869, 768, 1119, 1080, 1206
3870, 608, 115, 630, 489
3871, 819, 950, 906, 1143
3872, 743, 705, 710, 1099
3873, 563, 539, 1035, 1212
3874, 797, 1003, 966, 1154
3875, 99, 605, 450, 654
3876, 583, 529, 1054, 1142
3877, 806, 917, 1163, 1206
3878, 608, 489, 577, 114
3879, 804, 1038, 889, 1159
3880, 791, 911, 1052, 1171
3881, 791, 1052, 911, 1220
3882, 72, 331, 241, 655
3883, 134, 42, 657, 606
3884, 753, 233, 221, 984
3885, 218, 186, 198, 1074
3886, 799, 1166, 1044, 1185
3887, 331, 71, 253, 607
3888, 708, 690, 710, 1186
3889, 940, 1065, 810, 1186
3890, 831, 982, 1001, 1162
3891, 350, 233, 753, 984
3892, 638, 662, 634, 964
3893, 736, 698, 703, 1103
3894, 701, 714, 704, 1092
3895, 902, 985, 808, 1142
3896, 893, 1042, 825, 1148
3897, 268, 267, 266, 1175
3898, 118, 601, 642, 564
3899, 914, 1004, 809, 1070
3900, 303, 958, 348, 1193
3901, 434, 435, 477, 940
3902, 804, 900, 1038, 1159
3903, 816, 1087, 881, 1182
3904, 729, 359, 81, 680
3905, 484, 127, 17, 1090
3906, 393, 382, 380, 1007
3907, 806, 1163, 1078, 1206
3908, 75, 251, 339, 1148
3909, 542, 541, 516, 937
3910, 844, 1044, 1166, 1185
3911, 861, 1114, 948, 1215
3912, 911, 1052, 869, 1220
3913, 698, 703, 1103, 1125
3914, 620, 1082, 617, 1136
3915, 984, 1159, 804, 1164
3916, 71, 331, 655, 607
3917, 151, 1045, 157, 1173
3918, 811, 932, 1066, 1119
3919, 136, 30, 297, 1161
3920, 773, 982, 920, 1215
3921, 788, 1005, 971, 1074
3922, 574, 504, 1044, 1104
3923, 488, 111, 576, 991
3924, 313, 289, 323, 1050
3925, 993, 994, 790, 1103
3926, 770, 1132, 884, 1183
3927, 630, 116, 599, 565
3928, 151, 205, 157, 1045
3929, 132, 206, 224, 1124
3930, 575, 673, 644, 1033
3931, 330, 730, 54, 684
3932, 197, 951, 171, 1164
3933, 765, 1008, 897, 1191
3934, 850, 1138, 1093, 1189
3935, 101, 444, 598, 360
3936, 100, 360, 598, 654
3937, 564, 479, 642, 117
3938, 461, 372, 98, 1145
3939, 325, 251, 74, 648
3940, 782, 885, 1060, 1165
3941, 738, 25, 121, 211
3942, 237, 1108, 220, 1124
3943, 481, 536, 580, 966
3944, 820, 1073, 966, 1154
3945, 145, 144, 208, 1021
3946, 812, 1153, 913, 1213
3947, 598, 647, 444, 101
3948, 807, 1048, 865, 1217
3949, 724, 563, 488, 110
3950, 541, 511, 516, 1190
3951, 708, 709, 712, 942
3952, 889, 804, 1159, 1164
3953, 766, 1062, 878, 1216
3954, 602, 370, 647, 102
3955, 629, 978, 628, 1153
3956, 251, 604, 74, 648
3957, 329, 1012, 301, 1115
3958, 859, 1119, 959, 1206
3959, 781, 1116, 977, 1219
3960, 600, 643, 649, 1018
3961, 989, 1100, 860, 1155
3962, 111, 726, 576, 991
3963, 838, 1046, 930, 1181
3964, 304, 305, 300, 1218
3965, 947, 810, 1065, 1199
3966, 612, 613, 611, 1042
3967, 307, 244, 301, 971
3968, 791, 911, 972, 1220
3969, 556, 1016, 572, 1065
3970, 893, 802, 1106, 1178
3971, 438, 452, 439, 1218
3972, 91, 418, 533, 1025
3973, 860, 1150, 989, 1155
3974, 795, 1102, 950, 1193
3975, 611, 610, 612, 1042
3976, 863, 1074, 1045, 1222
3977, 547, 546, 559, 1114
3978, 361, 441, 436, 966
3979, 747, 459, 83, 371
3980, 1084, 1192, 833, 1196
3981, 218, 169, 205, 1045
3982, 301, 282, 293, 1012
3983, 825, 1050, 893, 1148
3984, 625, 666, 598, 1036
3985, 788, 1074, 890, 1079
3986, 488, 686, 111, 991
3987, 899, 1041, 998, 1127
3988, 440, 1049, 385, 1179
3989, 617, 1082, 990, 1136
3990, 134, 225, 212, 916
3991, 730, 725, 693, 914
3992, 55, 340, 252, 1135
3993, 770, 1105, 887, 1132
3994, 283, 298, 336, 1089
3995, 854, 1109, 955, 1192
3996, 601, 663, 642, 1048
3997, 569, 592, 584, 942
3998, 794, 1100, 891, 1155
3999, 449, 82, 685, 729
4000, 817, 943, 1141, 1174
4001, 702, 699, 744, 1107
4002, 696, 694, 695, 1004
4003, 834, 977, 1116, 1219
4004, 455, 419, 460, 1006
4005, 156, 144, 155, 961
4006, 154, 157, 158, 1173
4007, 691, 340, 55, 1135
4008, 972, 1121, 769, 1223
4009, 169, 1005, 1045, 1074
4010, 509, 508, 992, 1190
4011, 136, 193, 30, 1161
4012, 955, 1023, 798, 1092
4013, 310, 1139, 933, 1178
4014, 803, 901, 1084, 1198
4015, 276, 277, 273, 1064
4016, 128, 176, 203, 971
4017, 764, 1041, 903, 1156
4018, 693, 1004, 694, 1176
4019, 663, 1048, 677, 1217
4020, 832, 1096, 917, 1171
4021, 539, 586, 563, 1035
4022, 811, 1119, 959, 1140
4023, 830, 979, 911, 1223
4024, 901, 803, 1117, 1198
4025, 788, 1005, 1074, 1222
4026, 124, 15, 558, 1146
4027, 528, 584, 551, 1112
4028, 398, 393, 405, 1002
4029, 811, 932, 1119, 1140
4030, 127, 199, 17, 1090
4031, 189, 1072, 932, 1140
4032, 619, 616, 621, 1136
4033, 843, 1054, 902, 1183
4034, 313, 323, 312, 1167
4035, 484, 17, 557, 1090
4036, 686, 726, 111, 991
4037, 1021, 806, 1120, 1205
4038, 798, 1023, 942, 1092
4039, 160, 192, 171, 1037
4040, 91, 423, 418, 1025
4041, 840, 1133, 939, 1160
4042, 559, 546, 543, 948
4043, 1029, 1118, 858, 1152
4044, 668, 606, 641, 916
4045, 392, 389, 395, 1088
4046, 739, 740, 688, 1000
4047, 91, 535, 423, 1025
4048, 552, 494, 495, 988
4049, 378, 404, 421, 1127
4050, 350, 338, 254, 984
4051, 130, 177, 178, 1022
4052, 91, 533, 535, 1025
4053, 821, 1005, 931, 1110
4054, 513, 512, 501, 1030
4055, 1045, 1074, 1005, 1222
4056, 911, 1171, 856, 1188
4057, 639, 637, 597, 970
4058, 137, 195, 138, 988
4059, 622, 985, 626, 1129
4060, 492, 230, 588, 1033
4061, 798, 1076, 975, 1123
4062, 838, 922, 1061, 1209
4063, 345, 1139, 310, 1178
4064, 517, 522, 512, 975
4065, 830, 972, 911, 1220
4066, 959, 1119, 859, 1140
4067, 132, 46, 206, 656
4068, 1017, 1028, 841, 1077
4069, 794, 1028, 1017, 1077
4070, 347, 303, 285, 922
4071, 692, 927, 691, 1135
4072, 765, 1192, 1084, 1196
4073, 714, 1107, 702, 1211
4074, 930, 1040, 838, 1181
4075, 901, 1084, 833, 1196
4076, 799, 1044, 1059, 1104
4077, 1016, 1065, 810, 1199
4078, 754, 691, 742, 927
4079, 792, 1040, 930, 1181
4080, 752, 744, 700, 1204
4081, 710, 711, 940, 1186
4082, 755, 726, 739, 1000
4083, 219, 135, 231, 1000
4084, 609, 1071, 610, 1148
4085, 739, 22, 219, 131
4086, 843, 996, 1054, 1183
4087, 768, 1080, 917, 1206
4088, 249, 297, 30, 1161
4089, 629, 628, 665, 1153
4090, 303, 326, 348, 958
4091, 621, 616, 653, 960
4092, 444, 647, 370, 102
4093, 744, 720, 716, 987
4094, 318, 938, 126, 1144
4095, 913, 1036, 793, 1214
4096, 108, 478, 712, 681
4097, 341, 1128, 321, 1201
4098, 838, 1102, 950, 1207
4099, 255, 58, 416, 1167
4100, 1019, 1101, 843, 1168
4101, 368, 412, 415, 1167
4102, 651, 640, 675, 929
4103, 534, 532, 573, 962
4104, 345, 292, 310, 1139
4105, 78, 687, 369, 457
4106, 959, 1205, 1078, 1206
4107, 950, 1102, 795, 1143
4108, 176, 169, 198, 1074
4109, 557, 17, 199, 1090
4110, 265, 1069, 266, 1175
4111, 288, 317, 295, 1020
4112, 744, 699, 700, 954
4113, 125, 189, 182, 1072
4114, 337, 321, 341, 1128
4115, 583, 1067, 565, 1142
4116, 341, 300, 305, 1128
4117, 539, 585, 521, 939
4118, 229, 184, 207, 999
4119, 721, 987, 720, 1147
4120, 503, 502, 500, 1059
4121, 621, 960, 653, 1214
4122, 660, 610, 1071, 1145
4123, 1021, 1194, 806, 1205
4124, 902, 1054, 808, 1183
4125, 1043, 1101, 877, 1210
4126, 781, 926, 1116, 1219
4127, 245, 298, 294, 1055
4128, 1000, 1117, 803, 1198
4129, 713, 714, 756, 1211
4130, 509, 511, 508, 1190
4131, 442, 406, 414, 1043
4132, 687, 78, 742, 457
4133, 286, 348, 311, 1193
4134, 661, 625, 647, 913
4135, 537, 510, 574, 1104
4136, 193, 194, 204, 1161
4137, 802, 1106, 1014, 1152
4138, 577, 629, 608, 114
4139, 618, 670, 651, 1014
4140, 255, 416, 1071, 1167
4141, 537, 534, 573, 962
4142, 187, 209, 200, 1053
4143, 456, 436, 407, 1003
4144, 463, 411, 472, 1203
4145, 699, 1107, 701, 1125
4146, 556, 528, 572, 1016
4147, 971, 1012, 788, 1115
4148, 512, 522, 538, 975
4149, 717, 716, 719, 987
4150, 176, 168, 169, 1005
4151, 75, 609, 604, 1148
4152, 758, 24, 207, 121
4153, 704, 709, 708, 1092
4154, 243, 180, 938, 1177
4155, 149, 150, 148, 1078
4156, 804, 1131, 984, 1164
4157, 836, 1037, 951, 1158
4158, 585, 939, 539, 1212
4159, 623, 628, 626, 1213
4160, 278, 310, 292, 1139
4161, 508, 1134, 992, 1190
4162, 219, 131, 238, 1000
4163, 473, 461, 1071, 1145
4164, 791, 917, 1096, 1171
4165, 947, 879, 1063, 1195
4166, 195, 228, 166, 1117
4167, 673, 230, 223, 1033
4168, 537, 579, 536, 1073
4169, 673, 223, 657, 1033
4170, 599, 642, 479, 117
4171, 371, 83, 747, 685
4172, 808, 1054, 902, 1142
4173, 690, 107, 569, 712
4174, 348, 240, 355, 958
4175, 248, 316, 315, 1032
4176, 24, 758, 679, 121
4177, 793, 895, 1036, 1203
4178, 124, 201, 15, 1146
4179, 480, 558, 15, 1146
4180, 764, 1143, 1070, 1219
4181, 255, 312, 58, 1167
4182, 655, 600, 649, 1018
4183, 733, 722, 752, 1204
4184, 812, 1153, 978, 1157
4185, 293, 296, 249, 1161
4186, 230, 492, 178, 1033
4187, 134, 212, 43, 606
4188, 609, 339, 1071, 1148
4189, 665, 669, 629, 978
4190, 742, 691, 692, 927
4191, 342, 659, 672, 1108
4192, 728, 741, 727, 984
4193, 699, 697, 700, 954
4194, 545, 543, 546, 948
4195, 738, 25, 679, 121
4196, 258, 257, 259, 1040
4197, 508, 511, 1134, 1190
4198, 250, 326, 347, 995
4199, 547, 518, 568, 1114
4200, 517, 551, 522, 1112
4201, 339, 356, 1071, 1148
4202, 798, 955, 1092, 1211
4203, 863, 1068, 1074, 1079
4204, 805, 1069, 1175, 1201
4205, 364, 93, 482, 1172
4206, 625, 653, 666, 1214
4207, 793, 1150, 895, 1203
4208, 838, 1061, 1040, 1209
4209, 433, 404, 376, 967
4210, 316, 1032, 334, 1141
4211, 737, 731, 682, 958
4212, 786, 960, 990, 1136
4213, 249, 30, 193, 1161
4214, 817, 998, 1041, 1127
4215, 272, 266, 1069, 1201
4216, 479, 565, 583, 1067
4217, 243, 318, 306, 938
4218, 838, 950, 1046, 1207
4219, 927, 1135, 692, 1176
4220, 813, 1169, 964, 1202
4221, 565, 489, 581, 1142
4222, 362, 63, 299, 1218
4223, 22, 739, 688, 131
4224, 645, 646, 603, 1124
4225, 681, 713, 724, 1035
4226, 353, 292, 345, 1139
4227, 487, 564, 582, 1048
4228, 267, 265, 266, 1175
4229, 253, 354, 344, 1122
4230, 257, 259, 1040, 1209
4231, 659, 646, 645, 1108
4232, 266, 321, 268, 1201
4233, 501, 566, 513, 1030
4234, 504, 506, 574, 1044
4235, 861, 996, 937, 1190
4236, 152, 163, 210, 965
4237, 396, 408, 410, 973
4238, 368, 416, 58, 1167
4239, 791, 1052, 917, 1171
4240, 802, 1086, 933, 1178
4241, 466, 404, 433, 967
4242, 714, 701, 702, 1107
4243, 457, 373, 469, 927
4244, 572, 528, 519, 1016
4245, 434, 459, 471, 940
4246, 462, 410, 408, 973
4247, 1078, 1205, 806, 1206
4248, 748, 736, 707, 1103
4249, 321, 1081, 268, 1201
4250, 165, 159, 173, 1001
4251, 906, 795, 1070, 1143
4252, 597, 641, 676, 970
4253, 260, 328, 306, 1130
4254, 164, 179, 217, 1111
4255, 688, 758, 23, 131
4256, 342, 672, 349, 1108
4257, 475, 432, 374, 1157
4258, 870, 1194, 1021, 1205
4259, 846, 973, 1105, 1210
4260, 503, 504, 502, 1059
4261, 98, 372, 605, 1145
4262, 813, 929, 1169, 1202
4263, 232, 136, 349, 1108
4264, 360, 450, 472, 1036
4265, 550, 594, 493, 978
4266, 813, 1014, 990, 1152
4267, 578, 106, 490, 1186
4268, 480, 15, 201, 1146
4269, 960, 1051, 852, 1187
4270, 152, 151, 154, 1173
4271, 938, 1111, 823, 1177
4272, 75, 604, 251, 1148
4273, 1019, 797, 1101, 1168
4274, 536, 579, 580, 1073
4275, 552, 495, 521, 1160
4276, 416, 473, 461, 1071
4277, 398, 405, 430, 1002
4278, 638, 964, 637, 1202
4279, 407, 414, 406, 1043
4280, 734, 737, 689, 995
4281, 506, 504, 505, 1044
4282, 290, 316, 334, 1141
4283, 264, 272, 266, 1069
4284, 179, 126, 180, 938
4285, 282, 301, 329, 1012
4286, 479, 591, 564, 1067
4287, 212, 676, 43, 606
4288, 813, 1082, 964, 1170
4289, 650, 651, 649, 1014
4290, 582, 591, 542, 1197
4291, 351, 255, 468, 1071
4292, 890, 1074, 1068, 1079
4293, 434, 96, 590, 471
4294, 350, 196, 40, 233
4295, 398, 1002, 430, 1195
4296, 636, 677, 658, 1217
4297, 470, 85, 589, 493
4298, 68, 469, 373, 352
4299, 587, 231, 20, 491
4300, 427, 399, 448, 1077
4301, 1102, 1143, 950, 1207
4302, 671, 609, 339, 1071
4303, 778, 1126, 1031, 1194
4304, 700, 1010, 732, 1204
4305, 714, 702, 715, 1211
4306, 708, 710, 705, 1099
4307, 138, 140, 139, 1151
4308, 370, 458, 103, 1153
4309, 764, 1070, 1143, 1174
4310, 312, 368, 58, 1167
4311, 1031, 1126, 828, 1194
4312, 356, 255, 339, 1071
4313, 263, 262, 261, 1046
4314, 773, 1162, 982, 1215
4315, 173, 225, 165, 1001
4316, 270, 268, 324, 1081
4317, 341, 321, 272, 1201
4318, 881, 1057, 1015, 1180
4319, 719, 720, 721, 987
4320, 238, 131, 228, 1117
4321, 671, 339, 351, 1071
4322, 802, 1139, 1018, 1178
4323, 982, 1162, 831, 1215
4324, 782, 1027, 935, 1165
4325, 461, 660, 1071, 1145
4326, 448, 399, 388, 1077
4327, 364, 428, 93, 1172
4328, 710, 711, 747, 940
4329, 261, 274, 263, 1046
4330, 588, 230, 673, 1033
4331, 609, 660, 610, 1071
4332, 452, 451, 399, 1087
4333, 253, 342, 354, 1122
4334, 425, 377, 379, 998
4335, 453, 409, 435, 947
4336, 568, 570, 554, 1066
4337, 620, 617, 619, 1136
4338, 195, 166, 138, 1151
4339, 493, 577, 589, 978
4340, 540, 482, 93, 1172
4341, 613, 643, 611, 1106
4342, 849, 1063, 1002, 1195
4343, 147, 1078, 148, 1205
4344, 391, 440, 385, 1179
4345, 297, 349, 136, 1108
4346, 693, 692, 684, 1135
4347, 706, 736, 748, 993
4348, 617, 618, 615, 990
4349, 554, 570, 527, 1066
4350, 488, 595, 585, 991
4351, 819, 1143, 906, 1174
4352, 362, 439, 63, 1218
4353, 55, 252, 684, 1135
4354, 816, 1182, 909, 1218
4355, 959, 1078, 859, 1206
4356, 663, 601, 677, 1048
4357, 693, 694, 692, 1176
4358, 823, 1130, 938, 1177
4359, 308, 329, 301, 1115
4360, 147, 1120, 1078, 1205
4361, 691, 55, 684, 1135
4362, 758, 207, 23, 131
4363, 622, 632, 619, 1129
4364, 388, 389, 390, 976
4365, 451, 386, 399, 1087
4366, 758, 723, 679, 999
4367, 540, 93, 428, 1172
4368, 611, 604, 610, 1148
4369, 728, 757, 760, 1159
4370, 526, 571, 567, 1149
4371, 318, 126, 37, 1144
4372, 255, 416, 468, 1071
4373, 619, 617, 616, 1136
4374, 241, 331, 353, 1018
4375, 627, 622, 626, 1129
4376, 222, 202, 153, 1120
4377, 132, 237, 220, 1124
4378, 496, 497, 495, 1160
4379, 679, 723, 719, 999
4380, 665, 103, 458, 1153
4381, 386, 385, 387, 1049
4382, 445, 359, 467, 994
4383, 764, 1041, 1156, 1189
4384, 802, 933, 1139, 1178
4385, 300, 336, 298, 1089
4386, 457, 476, 373, 927
4387, 313, 343, 289, 1050
4388, 674, 663, 636, 1217
4389, 238, 228, 195, 1117
4390, 1040, 1061, 880, 1209
4391, 726, 740, 739, 1000
4392, 839, 1116, 926, 1219
4393, 314, 257, 1131, 1209
4394, 421, 422, 405, 1138
4395, 401, 420, 448, 1100
4396, 1005, 1110, 821, 1222
4397, 363, 420, 426, 1058
4398, 385, 440, 387, 1049
4399, 181, 186, 222, 1068
4400, 1017, 1077, 841, 1087
4401, 294, 281, 334, 1141
4402, 314, 254, 357, 1131
4403, 246, 37, 190, 1144
4404, 887, 1026, 1085, 1221
4405, 85, 470, 374, 493
4406, 788, 1110, 1005, 1222
4407, 821, 1045, 1005, 1222
4408, 196, 350, 40, 254
4409, 491, 231, 20, 135
4410, 96, 590, 555, 434
4411, 352, 373, 68, 315
4412, 727, 741, 753, 984
4413, 455, 417, 419, 1006
4414, 492, 588, 575, 1033
4415, 103, 602, 370, 1153
4416, 472, 464, 1036, 1203
4417, 461, 660, 468, 1071
4418, 764, 1174, 1041, 1189
4419, 658, 644, 657, 1033
4420, 850, 1156, 1041, 1189
4421, 318, 37, 246, 1144
4422, 906, 1143, 1070, 1174
4423, 722, 746, 1147, 1159
4424, 567, 571, 527, 1149
4425, 833, 1192, 956, 1196
4426, 227, 197, 171, 1164
4427, 713, 709, 714, 1092
4428, 676, 44, 122, 212
4429, 516, 511, 509, 1190
4430, 220, 672, 645, 1108
4431, 434, 477, 459, 940
4432, 106, 578, 711, 1186
4433, 136, 194, 193, 1161
4434, 706, 696, 736, 993
4435, 661, 602, 628, 1153
4436, 597, 44, 122, 676
4437, 247, 295, 322, 1058
4438, 895, 1150, 989, 1203
4439, 162, 175, 164, 1098
4440, 517, 528, 551, 1112
4441, 839, 1143, 1102, 1207
4442, 441, 366, 414, 1039
4443, 474, 467, 359, 994
4444, 394, 382, 393, 1007
4445, 652, 678, 607, 1122
4446, 574, 510, 504, 1104
4447, 541, 583, 529, 1054
4448, 769, 1121, 1056, 1223
4449, 146, 147, 148, 1205
4450, 167, 192, 160, 1037
4451, 817, 1041, 1174, 1189
4452, 236, 229, 121, 999
4453, 304, 299, 63, 1218
4454, 543, 545, 582, 1197
4455, 143, 141, 142, 1200
4456, 238, 135, 219, 1000
4457, 751, 747, 711, 940
4458, 332, 333, 319, 1095
4459, 585, 488, 991, 1212
4460, 155, 183, 167, 974
4461, 492, 9, 588, 230
4462, 29, 232, 136, 349
4463, 351, 255, 57, 468
4464, 514, 508, 511, 1134
4465, 638, 634, 637, 964
4466, 126, 190, 37, 1144
4467, 698, 701, 703, 1125
4468, 698, 699, 701, 1125
4469, 348, 326, 240, 958
4470, 235, 223, 178, 1033
4471, 662, 617, 620, 1082
4472, 705, 704, 708, 1099
4473, 560, 531, 485, 1039
4474, 401, 412, 420, 1100
4475, 220, 48, 645, 672
4476, 260, 258, 259, 1040
4477, 507, 509, 508, 992
4478, 496, 484, 557, 1090
4479, 139, 199, 127, 1090
4480, 314, 257, 256, 1131
4481, 304, 63, 439, 1218
4482, 214, 213, 161, 1140
4483, 991, 1000, 803, 1198
4484, 612, 624, 614, 1187
4485, 809, 1135, 927, 1176
4486, 636, 663, 677, 1217
4487, 103, 665, 602, 1153
4488, 793, 957, 1150, 1203
4489, 291, 325, 345, 1178
4490, 280, 333, 332, 1095
4491, 221, 28, 753, 727
4492, 232, 672, 220, 1108
4493, 486, 555, 556, 1065
4494, 249, 296, 297, 1161
4495, 418, 423, 419, 1025
4496, 735, 748, 680, 994
4497, 243, 35, 180, 1177
4498, 720, 752, 722, 1147
4499, 662, 620, 634, 1082
4500, 148, 147, 149, 1078
4501, 1078, 1120, 806, 1205
4502, 687, 692, 749, 1176
4503, 468, 660, 671, 1071
4504, 200, 201, 124, 1146
4505, 646, 664, 603, 1124
4506, 661, 628, 623, 1213
4507, 480, 571, 558, 1146
4508, 255, 313, 312, 1167
4509, 610, 605, 667, 1145
4510, 9, 492, 178, 230
4511, 297, 29, 136, 349
4512, 416, 57, 255, 468
4513, 817, 967, 1127, 1189
4514, 302, 303, 286, 1193
4515, 609, 339, 76, 671
4516, 833, 1107, 955, 1211
4517, 295, 287, 288, 1020
4518, 341, 305, 337, 1128
4519, 324, 268, 321, 1081
4520, 535, 533, 534, 1025
4521, 172, 191, 158, 1024
4522, 239, 221, 196, 984
4523, 48, 220, 232, 672
4524, 671, 339, 76, 351
4525, 464, 360, 472, 1036
4526, 207, 121, 229, 999
4527, 320, 185, 35, 1177
4528, 462, 475, 370, 1153
4529, 691, 754, 56, 340
4530, 695, 694, 693, 1004
4531, 41, 673, 230, 223
4532, 237, 136, 220, 1108
4533, 745, 718, 759, 1198
4534, 41, 673, 223, 657
4535, 734, 689, 760, 995
4536, 172, 226, 191, 1024
4537, 490, 584, 596, 1186
4538, 21, 219, 231, 755
4539, 77, 457, 469, 754
4540, 362, 438, 439, 1218
4541, 431, 432, 442, 1157
4542, 233, 28, 753, 221
4543, 754, 352, 56, 340
4544, 175, 162, 215, 1098
4545, 346, 252, 358, 1135
4546, 654, 598, 666, 1036
4547, 411, 429, 464, 1203
4548, 929, 847, 1169, 1202
4549, 106, 690, 490, 1186
4550, 705, 707, 703, 1103
4551, 243, 320, 35, 1177
4552, 487, 582, 593, 1048
4553, 214, 161, 189, 1140
4554, 660, 605, 610, 1145
4555, 300, 299, 304, 1218
4556, 595, 488, 576, 991
4557, 457, 77, 742, 754
4558, 177, 130, 174, 1022
4559, 273, 270, 276, 1064
4560, 218, 222, 186, 1068
4561, 364, 413, 428, 1172
4562, 577, 493, 594, 978
4563, 266, 265, 264, 1069
4564, 415, 416, 368, 1167
4565, 329, 308, 280, 1115
4566, 486, 556, 572, 1065
4567, 97, 468, 461, 660
4568, 405, 422, 467, 1138
4569, 756, 714, 715, 1211
4570, 342, 659, 69, 672
4571, 530, 482, 540, 1172
4572, 609, 610, 604, 1148
4573, 470, 104, 458, 669
4574, 819, 950, 1143, 1207
4575, 463, 372, 473, 1145
4576, 639, 638, 637, 1202
4577, 221, 233, 196, 984
4578, 219, 21, 739, 755
4579, 391, 385, 383, 1179
4580, 471, 84, 751, 459
4581, 529, 583, 565, 1142
4582, 637, 641, 597, 970
4583, 624, 653, 614, 1187
4584, 246, 258, 318, 1144
4585, 618, 651, 650, 1014
4586, 563, 586, 478, 1035
4587, 169, 218, 198, 1074
4588, 589, 113, 669, 577
4589, 248, 334, 316, 1032
4590, 672, 69, 342, 349
4591, 817, 1127, 1041, 1189
4592, 447, 451, 438, 1182
4593, 350, 753, 49, 338
4594, 523, 531, 524, 1168
4595, 741, 49, 753, 338
4596, 710, 690, 711, 1186
4597, 185, 180, 35, 1177
4598, 700, 732, 733, 1204
4599, 1038, 1147, 889, 1159
4600, 319, 306, 328, 1130
4601, 175, 190, 126, 1144
4602, 684, 692, 691, 1135
4603, 205, 169, 157, 1045
4604, 395, 389, 443, 1088
4605, 189, 210, 182, 1072
4606, 673, 120, 588, 575
4607, 342, 349, 297, 1108
4608, 625, 623, 621, 1214
4609, 671, 351, 468, 1071
4610, 468, 97, 671, 660
4611, 746, 721, 722, 1147
4612, 319, 320, 243, 1177
4613, 759, 726, 686, 991
4614, 576, 112, 587, 755
4615, 665, 458, 104, 669
4616, 133, 239, 227, 1164
4617, 643, 613, 650, 1106
4618, 673, 120, 575, 644
4619, 850, 1041, 1127, 1189
4620, 425, 447, 438, 1182
4621, 112, 576, 726, 755
4622, 272, 321, 266, 1201
4623, 245, 294, 309, 1055
4624, 514, 562, 508, 1134
4625, 565, 630, 116, 115
4626, 702, 701, 699, 1107
4627, 353, 345, 241, 1018
4628, 459, 84, 751, 747
4629, 181, 180, 185, 1177
4630, 627, 632, 622, 1129
4631, 515, 541, 529, 1054
4632, 86, 85, 374, 493
4633, 96, 555, 95, 434
4634, 20, 19, 491, 135
4635, 373, 67, 68, 315
4636, 40, 39, 196, 254
4637, 106, 711, 690, 1186
4638, 716, 720, 719, 987
4639, 80, 79, 735, 445
4640, 256, 254, 314, 1131
4641, 30, 29, 136, 297
4642, 255, 58, 57, 416
4643, 492, 10, 9, 178
4644, 540, 93, 94, 428
4645, 678, 659, 607, 1122
4646, 217, 179, 181, 1111
4647, 557, 17, 16, 199
4648, 144, 143, 142, 1200
4649, 356, 251, 343, 1148
4650, 531, 523, 561, 1168
4651, 15, 16, 124, 558
4652, 673, 657, 644, 1033
4653, 340, 358, 252, 1135
4654, 480, 15, 14, 201
4655, 12, 13, 125, 548
4656, 418, 92, 91, 533
4657, 670, 638, 640, 1202
4658, 37, 38, 246, 190
4659, 365, 65, 66, 309
4660, 127, 17, 18, 484
4661, 490, 596, 578, 1186
4662, 60, 59, 247, 426
4663, 31, 32, 307, 128
4664, 14, 13, 553, 216
4665, 153, 202, 147, 1120
4666, 339, 251, 356, 1148
4667, 478, 586, 592, 1035
4668, 482, 92, 93, 364
4669, 11, 12, 188, 483
4670, 366, 88, 87, 485
4671, 232, 349, 672, 1108
4672, 224, 237, 132, 1124
4673, 61, 60, 322, 363
4674, 32, 33, 244, 203
4675, 473, 372, 461, 1145
4676, 126, 37, 36, 318
4677, 437, 64, 65, 245
4678, 147, 146, 145, 1205
4679, 704, 714, 709, 1092
4680, 151, 157, 154, 1173
4681, 621, 653, 625, 1214
4682, 629, 669, 113, 577
4683, 559, 518, 547, 1114
4684, 257, 285, 259, 1209
4685, 299, 64, 63, 362
4686, 35, 36, 243, 180
4687, 374, 432, 431, 1157
4688, 253, 71, 70, 607
4689, 63, 62, 304, 439
4690, 185, 35, 34, 320
4691, 543, 582, 542, 1197
4692, 314, 285, 257, 1209
4693, 565, 581, 529, 1142
4694, 90, 91, 535, 423
4695, 223, 230, 178, 1033
4696, 441, 89, 88, 560
4697, 334, 281, 290, 1141
4698, 140, 138, 166, 1151
4699, 521, 495, 497, 1160
4700, 494, 19, 18, 137
4701, 757, 728, 746, 1159
4702, 118, 487, 119, 601
4703, 255, 351, 339, 1071
4704, 86, 87, 549, 431
4705, 239, 197, 227, 1164
4706, 703, 707, 736, 1103
4707, 722, 757, 746, 1159
4708, 66, 67, 375, 248
4709, 38, 39, 256, 129
4710, 398, 430, 409, 1195
4711, 43, 42, 134, 606
4712, 472, 411, 464, 1203
4713, 58, 59, 368, 312
4714, 193, 31, 30, 249
4715, 10, 11, 130, 544
4716, 465, 409, 430, 1195
4717, 563, 585, 539, 1212
4718, 481, 89, 90, 361
4719, 74, 73, 325, 648
4720, 345, 310, 291, 1178
4721, 486, 94, 95, 367
4722, 585, 563, 488, 1212
4723, 683, 27, 26, 133
4724, 602, 665, 628, 1153
4725, 51, 52, 326, 737
4726, 461, 468, 416, 1071
4727, 242, 62, 61, 454
4728, 33, 34, 335, 123
4729, 475, 458, 370, 1153
4730, 640, 639, 664, 1202
4731, 82, 83, 371, 685
4732, 647, 444, 101, 102
4733, 563, 724, 109, 110
4734, 721, 720, 722, 1147
4735, 303, 348, 286, 1193
4736, 645, 47, 48, 220
4737, 659, 69, 70, 342
4738, 98, 99, 605, 372
4739, 331, 72, 71, 655
4740, 740, 718, 750, 1198
4741, 671, 660, 609, 1071
4742, 27, 28, 221, 727
4743, 672, 659, 645, 1108
4744, 730, 54, 53, 330
4745, 206, 46, 45, 656
4746, 741, 50, 49, 338
4747, 450, 100, 99, 654
4748, 2, 231, 587, 755
4749, 352, 5, 469, 754
4750, 350, 3, 753, 233
4751, 339, 76, 75, 609
4752, 575, 120, 119, 644
4753, 111, 576, 726, 112
4754, 691, 56, 55, 340
4755, 589, 8, 470, 669
4756, 7, 751, 590, 471
4757, 642, 118, 564, 117
4758, 673, 588, 1, 230
4759, 672, 232, 4, 349
4760, 6, 671, 351, 468
4761, 479, 583, 591, 1067
4762, 252, 54, 55, 684
4763, 752, 700, 733, 1204
4764, 81, 82, 449, 729
4765, 660, 461, 97, 98
4766, 107, 569, 712, 108
4767, 600, 72, 73, 241
4768, 240, 52, 53, 682
4769, 106, 490, 690, 107
4770, 742, 78, 77, 457
4771, 489, 608, 115, 114
4772, 132, 47, 46, 603
4773, 692, 694, 749, 1176
4774, 738, 26, 25, 211
4775, 102, 602, 370, 103
4776, 359, 80, 81, 680
4777, 220, 136, 232, 1108
4778, 687, 79, 78, 369
4779, 689, 51, 50, 250
4780, 117, 479, 599, 116
4781, 604, 74, 75, 251
4782, 113, 629, 577, 114
4783, 223, 42, 41, 657
4784, 103, 665, 458, 104
4785, 711, 578, 106, 105
4786, 759, 718, 740, 1198
4787, 1, 41, 673, 230
4788, 671, 6, 97, 468
4789, 686, 110, 488, 111
4790, 8, 104, 470, 669
4791, 122, 45, 44, 597
4792, 751, 7, 84, 471
4793, 83, 84, 459, 747
4794, 231, 2, 21, 755
4795, 5, 77, 469, 754
4796, 3, 28, 753, 233
4797, 352, 56, 5, 754
4798, 739, 22, 21, 219
4799, 688, 23, 22, 131
4800, 598, 101, 360, 100
4801, 25, 24, 679, 121
4802, 113, 8, 589, 669
4803, 590, 751, 7, 105
4804, 640, 638, 639, 1202
4805, 4, 48, 232, 672
4806, 76, 6, 671, 351
4807, 672, 4, 69, 349
4808, 23, 24, 207, 758
4809, 753, 49, 3, 350
4810, 478, 108, 109, 681
4811, 231, 20, 2, 587
4812, 469, 68, 5, 352
4813, 350, 40, 3, 233
4814, 587, 112, 2, 755
4815, 85, 8, 470, 589
4816, 7, 590, 96, 471
4817, 351, 57, 6, 468
4818, 232, 29, 4, 349
4819, 588, 9, 1, 230
4820, 588, 1, 120, 673
4821, 43, 44, 676, 212
4822, 275, 906, 950, 279
4823, 950, 906, 275, 819
4824, 1211, 718, 901, 715
4825, 1211, 901, 718, 1198
4826, 943, 327, 275, 921
4827, 943, 275, 327, 283
4828, 973, 1203, 793, 913
4829, 793, 1203, 973, 957
4830, 1069, 930, 777, 862
4831, 1069, 777, 930, 1046
4832, 927, 466, 369, 476
4833, 927, 369, 466, 857
4834, 1142, 594, 902, 978
4835, 1142, 902, 594, 581
4836, 550, 902, 594, 978
4837, 550, 594, 902, 581
4838, 985, 1210, 864, 812
4839, 864, 1210, 985, 770
4840, 1151, 1008, 968, 818
4841, 1151, 968, 1008, 824
4842, 1128, 317, 871, 910
4843, 1128, 871, 317, 337
4844, 505, 1059, 504, 503
4845, 504, 1059, 505, 1044
4846, 1154, 1009, 924, 766
4847, 1154, 924, 1009, 820
4848, 1194, 917, 1206, 828
4849, 1194, 1206, 917, 806
4850, 1149, 928, 776, 875
4851, 1149, 776, 928, 969
4852, 1109, 790, 1063, 853
4853, 1109, 1063, 790, 925
4854, 1221, 936, 878, 779
4855, 1221, 878, 936, 827
4856, 1183, 1129, 884, 808
4857, 1183, 884, 1129, 1132
4858, 866, 884, 1129, 808
4859, 866, 1129, 884, 1132
4860, 906, 281, 290, 279
4861, 906, 290, 281, 1141
4862, 1033, 177, 916, 1022
4863, 1033, 916, 177, 235
4864, 786, 1170, 813, 855
4865, 813, 1170, 786, 1082
4866, 1152, 772, 1051, 858
4867, 1152, 1051, 772, 852
4868, 1151, 1133, 1008, 818
4869, 1151, 1008, 1133, 874
4870, 1129, 1183, 985, 808
4871, 985, 1183, 1129, 864
4872, 1001, 234, 226, 173
4873, 1001, 226, 234, 970
4874, 1014, 652, 929, 651
4875, 1014, 929, 652, 883
4876, 1150, 989, 825, 895
4877, 825, 989, 1150, 772
4878, 825, 1042, 1150, 895
4879, 1150, 1042, 825, 772
4880, 1160, 803, 552, 988
4881, 1160, 552, 803, 939
4882, 1120, 912, 1163, 863
4883, 1120, 1163, 912, 1078
4884, 934, 1031, 907, 778
4885, 907, 1031, 934, 815
4886, 1099, 1186, 942, 708
4887, 942, 1186, 1099, 810
4888, 1179, 455, 446, 391
4889, 1179, 446, 455, 888
4890, 973, 1153, 432, 462
4891, 432, 1153, 973, 812
4892, 1112, 1199, 810, 1023
4893, 810, 1199, 1112, 1016
4894, 1197, 861, 1215, 937
4895, 1197, 1215, 861, 948
4896, 1146, 553, 554, 932
4897, 1146, 554, 553, 480
4898, 981, 979, 1091, 777
4899, 981, 1091, 979, 830
4900, 1049, 443, 1088, 842
4901, 1049, 1088, 443, 387
4902, 1146, 216, 214, 201
4903, 1146, 214, 216, 932
4904, 1172, 486, 572, 1065
4905, 1172, 572, 486, 540
4906, 1197, 564, 1067, 1048
4907, 1197, 1067, 564, 591
4908, 912, 1222, 785, 832
4909, 912, 785, 1222, 821
4910, 1034, 785, 1222, 832
4911, 1034, 1222, 785, 821
4912, 1199, 1099, 879, 810
4913, 1199, 879, 1099, 1063
4914, 1015, 1091, 1057, 780
4915, 1057, 1091, 1015, 830
4916, 1156, 899, 1015, 783
4917, 1156, 1015, 899, 1041
4918, 384, 1179, 383, 385
4919, 383, 1179, 384, 983
4920, 1073, 562, 574, 579
4921, 1073, 574, 562, 851
4922, 973, 429, 464, 410
4923, 973, 464, 429, 957
4924, 1135, 316, 927, 358
4925, 1135, 927, 316, 1032
4926, 315, 927, 316, 358
4927, 315, 316, 927, 1032
4928, 1001, 191, 159, 173
4929, 1001, 159, 191, 918
4930, 1104, 573, 537, 510
4931, 1104, 537, 573, 962
4932, 1204, 731, 732, 733
4933, 1204, 732, 731, 1010
4934, 1140, 148, 213, 161
4935, 1140, 213, 148, 959
4936, 1167, 247, 323, 312
4937, 1167, 323, 247, 891
4938, 1168, 485, 877, 561
4939, 1168, 877, 485, 1039
4940, 1100, 403, 860, 401
4941, 1100, 860, 403, 989
4942, 1182, 452, 451, 438
4943, 1182, 451, 452, 1087
4944, 1167, 426, 412, 891
4945, 1167, 412, 426, 368
4946, 1098, 156, 164, 162
4947, 1098, 164, 156, 986
4948, 1219, 1156, 903, 834
4949, 1219, 903, 1156, 764
4950, 730, 1135, 693, 684
4951, 693, 1135, 730, 914
4952, 1148, 648, 611, 604
4953, 1148, 611, 648, 893
4954, 179, 1144, 1098, 175
4955, 1098, 1144, 179, 938
4956, 1138, 466, 445, 857
4957, 1138, 445, 466, 422
4958, 1077, 390, 388, 448
4959, 1077, 388, 390, 976
4960, 1188, 1056, 911, 805
4961, 1188, 911, 1056, 856
4962, 1162, 1170, 789, 886
4963, 789, 1170, 1162, 982
4964, 145, 1200, 1205, 143
4965, 1205, 1200, 145, 1021
4966, 325, 1148, 343, 251
4967, 343, 1148, 325, 893
4968, 1140, 210, 189, 1072
4969, 1140, 189, 210, 161
4970, 1187, 1150, 1042, 895
4971, 1187, 1042, 1150, 1051
4972, 945, 455, 417, 402
4973, 945, 417, 455, 1006
4974, 1194, 876, 806, 1097
4975, 1194, 806, 876, 1021
4976, 1136, 632, 620, 866
4977, 1136, 620, 632, 619
4978, 1140, 801, 859, 1072
4979, 1140, 859, 801, 1119
4980, 648, 241, 1018, 600
4981, 1018, 241, 648, 325
4982, 1098, 171, 836, 162
4983, 1098, 836, 171, 951
4984, 160, 836, 171, 162
4985, 160, 171, 836, 951
4986, 656, 122, 970, 597
4987, 656, 970, 122, 206
4988, 157, 1005, 169, 168
4989, 157, 169, 1005, 1045
4990, 1061, 1181, 763, 838
4991, 763, 1181, 1061, 1137
4992, 1186, 712, 708, 690
4993, 1186, 708, 712, 942
4994, 1186, 555, 1065, 596
4995, 1186, 1065, 555, 940
4996, 711, 590, 105, 751
4997, 105, 590, 711, 578
4998, 1112, 592, 584, 551
4999, 1112, 584, 592, 942
5000, 754, 340, 927, 352
5001, 927, 340, 754, 691
5002, 661, 1214, 623, 625
5003, 623, 1214, 661, 1213
5004, 626, 1213, 622, 623
5005, 622, 1213, 626, 985
5006, 1184, 1171, 1188, 771
5007, 1184, 1188, 1171, 911
5008, 1162, 1217, 916, 807
5009, 916, 1217, 1162, 886
5010, 98, 1145, 660, 461
5011, 660, 1145, 98, 605
5012, 457, 754, 927, 469
5013, 927, 754, 457, 742

*NSET, NSET=CONSTRAINT_1
1, 4, 6, 8, 41, 42, 43, 44, 45, 46, 47, 48, 69, 70, 71, 72
73, 74, 75, 76, 97, 98, 99, 100, 101, 102, 103, 104, 113, 114, 115, 116
117, 118, 119, 120, 597, 598, 599, 600, 601, 602, 603, 604, 605, 606, 607, 608
609, 610, 611, 612, 613, 614, 615, 616, 617, 618, 619, 620, 621, 622, 623, 624
625, 626, 627, 628, 629, 630, 631, 632, 633, 634, 635, 636, 637, 638, 639, 640
641, 642, 643, 644, 645, 646, 647, 648, 649, 650, 651, 652, 653, 654, 655, 656
657, 658, 659, 660, 661, 662, 663, 664, 665, 666, 667, 668, 669, 670, 671, 672
673, 674, 675, 676, 677, 678

*MATERIAL, NAME=ALUMINUM_6061_T6
*ELASTIC
68900.000000, 0.330000

*SOLID SECTION, ELSET=ALL_ELEMENTS, MATERIAL=ALUMINUM_6061_T6

*BOUNDARY
CONSTRAINT_1, 1, 3

*STEP, NLGEOM=NO
*STATIC
0.1, 1.0

*NODE FILE
U, RF
*EL FILE
S, E

*END STEP
