*HEADING
Heavy duty L-bracket connecting a vertical wall to a horizontal load point.

*NODE, NSET=ALL_NODES
1, 0.000000, 0.000000, 0.000000
2, 0.000000, 0.000000, 100.000000
3, 100.000000, 0.000000, 100.000000
4, 100.000000, 0.000000, 0.000000
5, 100.000000, 50.000000, 100.000000
6, 100.000000, 50.000000, 0.000000
7, 0.000000, 50.000000, 100.000000
8, 0.000000, 50.000000, 0.000000
9, 0.000000, 0.000000, 7.692307
10, 0.000000, 0.000000, 15.384615
11, 0.000000, 0.000000, 23.076923
12, 0.000000, 0.000000, 30.769230
13, 0.000000, 0.000000, 38.461540
14, 0.000000, 0.000000, 46.153847
15, 0.000000, 0.000000, 53.846153
16, 0.000000, 0.000000, 61.538460
17, 0.000000, 0.000000, 69.230766
18, 0.000000, 0.000000, 76.923080
19, 0.000000, 0.000000, 84.615387
20, 0.000000, 0.000000, 92.307693
21, 7.692307, 0.000000, 100.000000
22, 15.384615, 0.000000, 100.000000
23, 23.076923, 0.000000, 100.000000
24, 30.769230, 0.000000, 100.000000
25, 38.461540, 0.000000, 100.000000
26, 46.153847, 0.000000, 100.000000
27, 53.846153, 0.000000, 100.000000
28, 61.538460, 0.000000, 100.000000
29, 69.230766, 0.000000, 100.000000
30, 76.923080, 0.000000, 100.000000
31, 84.615387, 0.000000, 100.000000
32, 92.307693, 0.000000, 100.000000
33, 100.000000, 0.000000, 7.692307
34, 100.000000, 0.000000, 15.384615
35, 100.000000, 0.000000, 23.076923
36, 100.000000, 0.000000, 30.769230
37, 100.000000, 0.000000, 38.461540
38, 100.000000, 0.000000, 46.153847
39, 100.000000, 0.000000, 53.846153
40, 100.000000, 0.000000, 61.538460
41, 100.000000, 0.000000, 69.230766
42, 100.000000, 0.000000, 76.923080
43, 100.000000, 0.000000, 84.615387
44, 100.000000, 0.000000, 92.307693
45, 7.692307, 0.000000, 0.000000
46, 15.384615, 0.000000, 0.000000
47, 23.076923, 0.000000, 0.000000
48, 30.769230, 0.000000, 0.000000
49, 38.461540, 0.000000, 0.000000
50, 46.153847, 0.000000, 0.000000
51, 53.846153, 0.000000, 0.000000
52, 61.538460, 0.000000, 0.000000
53, 69.230766, 0.000000, 0.000000
54, 76.923080, 0.000000, 0.000000
55, 84.615387, 0.000000, 0.000000
56, 92.307693, 0.000000, 0.000000
57, 100.000000, 7.142857, 100.000000
58, 100.000000, 14.285714, 100.000000
59, 100.000000, 21.428572, 100.000000
60, 100.000000, 28.571428, 100.000000
61, 100.000000, 35.714287, 100.000000
62, 100.000000, 42.857143, 100.000000
63, 100.000000, 50.000000, 7.692307
64, 100.000000, 50.000000, 15.384615
65, 100.000000, 50.000000, 23.076923
66, 100.000000, 50.000000, 30.769230
67, 100.000000, 50.000000, 38.461540
68, 100.000000, 50.000000, 46.153847
69, 100.000000, 50.000000, 53.846153
70, 100.000000, 50.000000, 61.538460
71, 100.000000, 50.000000, 69.230766
72, 100.000000, 50.000000, 76.923080
73, 100.000000, 50.000000, 84.615387
74, 100.000000, 50.000000, 92.307693
75, 100.000000, 7.142857, 0.000000
76, 100.000000, 14.285714, 0.000000
77, 100.000000, 21.428572, 0.000000
78, 100.000000, 28.571428, 0.000000
79, 100.000000, 35.714287, 0.000000
80, 100.000000, 42.857143, 0.000000
81, 92.307693, 50.000000, 100.000000
82, 84.615387, 50.000000, 100.000000
83, 76.923080, 50.000000, 100.000000
84, 69.230766, 50.000000, 100.000000
85, 61.538460, 50.000000, 100.000000
86, 53.846153, 50.000000, 100.000000
87, 46.153847, 50.000000, 100.000000
88, 38.461540, 50.000000, 100.000000
89, 30.769230, 50.000000, 100.000000
90, 23.076923, 50.000000, 100.000000
91, 15.384615, 50.000000, 100.000000
92, 7.692307, 50.000000, 100.000000
93, 0.000000, 50.000000, 7.692307
94, 0.000000, 50.000000, 15.384615
95, 0.000000, 50.000000, 23.076923
96, 0.000000, 50.000000, 30.769230
97, 0.000000, 50.000000, 38.461540
98, 0.000000, 50.000000, 46.153847
99, 0.000000, 50.000000, 53.846153
100, 0.000000, 50.000000, 61.538460
101, 0.000000, 50.000000, 69.230766
102, 0.000000, 50.000000, 76.923080
103, 0.000000, 50.000000, 84.615387
104, 0.000000, 50.000000, 92.307693
105, 92.307693, 50.000000, 0.000000
106, 84.615387, 50.000000, 0.000000
107, 76.923080, 50.000000, 0.000000
108, 69.230766, 50.000000, 0.000000
109, 61.538460, 50.000000, 0.000000
110, 53.846153, 50.000000, 0.000000
111, 46.153847, 50.000000, 0.000000
112, 38.461540, 50.000000, 0.000000
113, 30.769230, 50.000000, 0.000000
114, 23.076923, 50.000000, 0.000000
115, 15.384615, 50.000000, 0.000000
116, 7.692307, 50.000000, 0.000000
117, 0.000000, 42.857143, 100.000000
118, 0.000000, 35.714287, 100.000000
119, 0.000000, 28.571428, 100.000000
120, 0.000000, 21.428572, 100.000000
121, 0.000000, 14.285714, 100.000000
122, 0.000000, 7.142857, 100.000000
123, 0.000000, 42.857143, 0.000000
124, 0.000000, 35.714287, 0.000000
125, 0.000000, 28.571428, 0.000000
126, 0.000000, 21.428572, 0.000000
127, 0.000000, 14.285714, 0.000000
128, 0.000000, 7.142857, 0.000000
129, 93.731255, 0.000000, 50.141720
130, 6.667800, 0.000000, 50.357121
131, 49.680710, 0.000000, 6.391544
132, 50.000000, 0.000000, 93.338264
133, 94.770393, 0.000000, 26.684656
134, 26.099949, 0.000000, 7.718976
135, 26.923077, 0.000000, 93.338264
136, 73.076920, 0.000000, 93.338264
137, 6.138340, 0.000000, 27.405952
138, 93.171547, 0.000000, 73.241463
139, 6.839462, 0.000000, 73.177704
140, 73.076920, 0.000000, 6.661734
141, 11.835962, 0.000000, 93.510025
142, 6.366719, 0.000000, 11.444998
143, 88.461540, 0.000000, 93.338264
144, 93.633278, 0.000000, 11.444998
145, 80.962692, 0.000000, 93.299088
146, 77.097992, 0.000000, 86.687714
147, 69.259918, 0.000000, 86.678398
148, 73.228065, 0.000000, 80.084595
149, 65.414665, 0.000000, 80.026741
150, 69.260963, 0.000000, 73.366692
151, 61.548504, 0.000000, 73.357323
152, 65.391319, 0.000000, 66.694313
153, 57.695099, 0.000000, 66.692535
154, 61.540043, 0.000000, 60.030296
155, 53.846882, 0.000000, 60.029915
156, 57.692692, 0.000000, 53.368031
157, 50.000187, 0.000000, 53.367943
158, 46.153999, 0.000000, 60.029663
159, 53.846249, 0.000000, 46.706169
160, 46.153893, 0.000000, 46.706150
161, 61.538540, 0.000000, 46.706165
162, 57.692307, 0.000000, 40.044395
163, 65.384628, 0.000000, 40.044399
164, 61.538464, 0.000000, 33.382664
165, 53.846153, 0.000000, 33.382660
166, 69.232147, 0.000000, 60.030209
167, 69.230774, 0.000000, 33.382664
168, 53.848293, 0.000000, 73.353973
169, 73.076927, 0.000000, 40.044395
170, 57.692307, 0.000000, 26.720928
171, 50.000000, 0.000000, 26.806774
172, 76.923080, 0.000000, 33.382660
173, 73.076927, 0.000000, 26.720928
174, 77.070427, 0.000000, 73.434593
175, 46.153847, 0.000000, 33.396969
176, 42.307693, 0.000000, 26.823467
177, 38.461540, 0.000000, 33.402134
178, 34.615383, 0.000000, 26.827110
179, 30.769230, 0.000000, 33.403603
180, 26.923077, 0.000000, 26.827963
181, 23.076923, 0.000000, 33.403992
182, 26.923077, 0.000000, 40.044395
183, 38.461540, 0.000000, 20.059193
184, 19.188663, 0.000000, 39.994041
185, 22.726381, 0.000000, 46.605690
186, 30.710808, 0.000000, 46.689388
187, 26.854916, 0.000000, 53.348331
188, 80.769234, 0.000000, 40.044395
189, 76.923080, 0.000000, 46.706131
190, 19.230770, 0.000000, 53.367863
191, 23.065563, 0.000000, 60.026340
192, 30.755978, 0.000000, 60.025799
193, 26.923077, 0.000000, 66.691330
194, 34.613174, 0.000000, 66.690697
195, 30.768862, 0.000000, 73.352959
196, 23.076862, 0.000000, 73.353050
197, 38.461109, 0.000000, 73.352943
198, 34.615383, 0.000000, 80.014801
199, 42.307621, 0.000000, 80.014778
200, 15.463066, 0.000000, 60.076344
201, 53.023026, 0.000000, 19.014215
202, 61.401272, 0.000000, 19.885031
203, 38.461525, 0.000000, 86.676529
204, 61.545509, 0.000000, 86.678177
205, 19.462975, 0.000000, 26.608257
206, 22.796333, 0.000000, 20.328444
207, 80.537025, 0.000000, 26.586864
208, 76.923080, 0.000000, 20.059193
209, 15.632055, 0.000000, 19.925776
210, 84.321182, 0.000000, 19.877335
211, 79.990585, 0.000000, 13.426870
212, 58.428905, 0.000000, 13.093265
213, 19.495010, 0.000000, 13.497756
214, 65.888245, 0.000000, 13.359417
215, 84.102791, 0.000000, 46.582020
216, 80.545731, 0.000000, 53.426891
217, 87.940529, 0.000000, 40.371624
218, 46.153831, 0.000000, 86.676529
219, 50.000343, 0.000000, 80.014946
220, 30.769228, 0.000000, 86.676529
221, 42.307278, 0.000000, 66.691216
222, 69.291840, 0.000000, 20.109673
223, 57.700577, 0.000000, 80.017952
224, 65.390648, 0.000000, 93.338852
225, 6.000674, 0.000000, 34.864330
226, 34.615383, 0.000000, 93.338264
227, 23.076923, 0.000000, 86.676529
228, 19.280354, 0.000000, 93.366890
229, 38.458920, 0.000000, 60.028851
230, 42.307320, 0.000000, 53.367767
231, 38.451748, 0.000000, 46.703327
232, 34.478195, 0.000000, 6.752094
233, 31.505829, 0.000000, 13.533981
234, 73.107864, 0.000000, 66.707787
235, 80.798943, 0.000000, 66.707664
236, 85.027008, 0.000000, 73.394829
237, 88.461540, 0.000000, 66.691330
238, 89.033867, 0.000000, 80.179344
239, 81.336075, 0.000000, 80.224899
240, 84.445015, 0.000000, 60.121872
241, 92.594688, 0.000000, 59.195705
242, 19.190479, 0.000000, 66.698578
243, 15.184288, 0.000000, 73.325043
244, 19.197371, 0.000000, 80.010124
245, 11.538462, 0.000000, 80.014801
246, 11.566707, 0.000000, 66.442757
247, 7.404683, 0.000000, 59.100914
248, 15.436896, 0.000000, 86.709152
249, 7.085050, 0.000000, 87.470734
250, 7.682520, 0.000000, 19.603998
251, 92.440620, 0.000000, 19.494036
252, 84.447266, 0.000000, 33.455318
253, 42.307693, 0.000000, 93.338264
254, 6.436839, 0.000000, 42.567566
255, 13.933892, 0.000000, 46.467747
256, 42.307693, 0.000000, 6.661734
257, 45.841789, 0.000000, 13.778823
258, 50.000900, 0.000000, 66.691727
259, 65.371933, 0.000000, 26.700314
260, 50.000023, 0.000000, 40.046791
261, 16.310703, 0.000000, 32.694069
262, 26.917439, 0.000000, 80.014000
263, 65.384827, 0.000000, 53.367954
264, 34.589947, 0.000000, 53.360577
265, 57.693867, 0.000000, 93.338531
266, 69.230820, 0.000000, 46.706150
267, 53.849022, 0.000000, 86.677399
268, 73.039948, 0.000000, 53.377823
269, 42.306072, 0.000000, 40.049961
270, 34.603745, 0.000000, 40.048801
271, 46.154259, 0.000000, 73.353264
272, 76.923080, 0.000000, 60.029598
273, 93.172523, 0.000000, 34.271435
274, 85.006477, 0.000000, 86.878693
275, 93.146698, 0.000000, 87.542839
276, 88.730057, 0.000000, 6.194987
277, 11.269946, 0.000000, 6.194987
278, 81.134377, 0.000000, 6.357831
279, 73.034134, 0.000000, 14.723377
280, 65.104691, 0.000000, 6.249957
281, 57.448288, 0.000000, 6.193172
282, 45.926807, 0.000000, 21.296495
283, 38.519009, 0.000000, 12.157166
284, 30.446959, 0.000000, 20.491341
285, 18.355848, 0.000000, 6.694864
286, 12.455231, 0.000000, 53.860359
287, 87.606018, 0.000000, 53.155209
288, 12.074276, 0.000000, 37.902435
289, 94.649818, 0.000000, 42.307693
290, 13.012299, 0.000000, 13.230714
291, 86.874870, 0.000000, 13.163295
292, 5.152869, 0.000000, 80.769234
293, 12.931689, 0.000000, 25.916548
294, 87.068314, 0.000000, 25.916548
295, 94.802689, 0.000000, 65.942352
296, 5.162170, 0.000000, 65.898125
297, 95.240768, 0.000000, 80.769234
298, 5.631160, 0.000000, 94.368843
299, 94.368843, 0.000000, 94.368843
300, 5.591994, 0.000000, 5.591994
301, 94.408005, 0.000000, 5.591994
302, 52.417210, 0.000000, 11.950468
303, 25.765533, 0.000000, 14.939647
304, 89.942238, 0.000000, 45.750896
305, 10.634195, 0.000000, 31.301249
306, 100.000000, 24.928049, 94.357895
307, 100.000000, 25.096876, 7.255937
308, 100.000000, 43.438362, 42.472012
309, 100.000000, 43.749329, 65.320816
310, 100.000000, 6.673783, 49.956795
311, 100.000000, 6.655792, 26.865330
312, 100.000000, 6.658629, 72.956184
313, 100.000000, 43.603168, 26.817991
314, 100.000000, 43.521400, 80.747009
315, 100.000000, 6.577946, 89.157181
316, 100.000000, 6.821970, 11.896234
317, 100.000000, 43.195683, 11.880000
318, 100.000000, 38.914127, 93.035744
319, 100.000000, 6.655833, 19.279663
320, 100.000000, 13.227131, 23.016527
321, 100.000000, 13.300111, 30.616669
322, 100.000000, 19.825996, 26.744890
323, 100.000000, 19.918777, 34.348377
324, 100.000000, 26.357271, 30.663567
325, 100.000000, 26.253931, 38.131504
326, 100.000000, 25.899708, 23.262873
327, 100.000000, 19.940029, 41.986019
328, 100.000000, 26.168030, 45.989376
329, 100.000000, 19.963802, 49.685875
330, 100.000000, 26.499674, 53.691669
331, 100.000000, 20.077105, 57.365486
332, 100.000000, 26.752085, 61.135487
333, 100.000000, 20.102571, 64.988815
334, 100.000000, 26.835176, 68.744186
335, 100.000000, 20.195360, 72.609367
336, 100.000000, 26.902899, 76.341362
337, 100.000000, 20.328993, 80.252029
338, 100.000000, 32.828743, 57.399841
339, 100.000000, 13.299830, 61.309158
340, 100.000000, 31.971735, 34.699551
341, 100.000000, 33.120464, 72.641106
342, 100.000000, 27.088852, 83.612610
343, 100.000000, 13.467827, 76.592613
344, 100.000000, 13.693728, 84.257187
345, 100.000000, 13.351155, 45.923748
346, 100.000000, 6.702278, 34.516987
347, 100.000000, 33.271950, 80.158035
348, 100.000000, 33.052181, 87.481163
349, 100.000000, 13.229765, 15.434111
350, 100.000000, 13.455865, 8.400092
351, 100.000000, 19.342194, 12.018008
352, 100.000000, 43.403812, 19.248108
353, 100.000000, 37.002811, 15.427051
354, 100.000000, 36.595966, 8.389294
355, 100.000000, 31.154804, 11.991972
356, 100.000000, 6.629000, 80.825928
357, 100.000000, 13.682748, 91.823341
358, 100.000000, 20.997328, 88.299591
359, 100.000000, 37.658764, 23.094812
360, 100.000000, 13.359984, 68.973457
361, 100.000000, 19.530382, 19.463524
362, 100.000000, 43.610901, 73.071701
363, 100.000000, 43.729858, 34.724648
364, 100.000000, 32.723644, 65.025826
365, 100.000000, 43.605358, 49.938950
366, 100.000000, 37.753448, 46.328697
367, 100.000000, 43.777473, 57.550430
368, 100.000000, 6.642876, 57.598228
369, 100.000000, 13.367099, 53.615395
370, 100.000000, 6.683181, 42.173649
371, 100.000000, 13.315922, 38.260910
372, 100.000000, 6.660220, 65.267708
373, 100.000000, 44.332058, 88.329727
374, 100.000000, 31.565569, 94.028099
375, 100.000000, 25.419384, 15.498826
376, 100.000000, 37.746330, 38.405361
377, 100.000000, 31.909424, 26.845842
378, 100.000000, 31.507483, 19.353563
379, 100.000000, 31.083330, 5.574178
380, 100.000000, 18.921747, 5.571247
381, 100.000000, 19.064482, 94.896164
382, 100.000000, 37.769878, 30.764702
383, 100.000000, 32.155830, 49.763298
384, 100.000000, 32.008217, 42.219631
385, 100.000000, 8.655044, 94.829651
386, 100.000000, 38.681950, 84.561394
387, 100.000000, 38.627750, 76.923080
388, 100.000000, 38.312702, 61.307373
389, 100.000000, 38.123680, 53.519722
390, 100.000000, 38.551495, 69.183273
391, 100.000000, 7.805298, 5.806884
392, 100.000000, 42.234829, 5.805211
393, 100.000000, 44.874878, 94.711128
394, 100.000000, 27.722666, 89.480995
395, 100.000000, 3.806680, 96.036644
396, 5.719711, 50.000000, 49.888222
397, 93.332199, 50.000000, 50.357121
398, 50.000000, 50.000000, 6.661734
399, 50.000000, 50.000000, 93.338264
400, 73.076920, 50.000000, 93.338264
401, 72.757629, 50.000000, 6.391544
402, 5.229603, 50.000000, 26.684656
403, 26.923077, 50.000000, 93.338264
404, 93.861664, 50.000000, 27.405952
405, 7.317026, 50.000000, 73.349716
406, 93.160538, 50.000000, 73.177704
407, 26.923077, 50.000000, 6.661734
408, 93.633278, 50.000000, 11.444998
409, 11.835962, 50.000000, 93.510025
410, 6.366719, 50.000000, 11.444998
411, 88.164040, 50.000000, 93.510025
412, 19.280354, 50.000000, 93.366890
413, 23.085188, 50.000000, 86.681305
414, 30.770609, 50.000000, 86.677330
415, 26.924685, 50.000000, 80.015724
416, 34.615883, 50.000000, 80.015083
417, 30.769581, 50.000000, 73.353264
418, 38.461681, 50.000000, 73.353149
419, 34.615467, 50.000000, 66.691376
420, 42.307728, 50.000000, 66.691353
421, 38.461559, 50.000000, 60.029610
422, 46.153854, 50.000000, 60.029602
423, 42.307697, 50.000000, 53.367867
424, 50.000004, 50.000000, 53.367863
425, 53.846157, 50.000000, 60.029598
426, 46.153847, 50.000000, 46.706131
427, 53.846153, 50.000000, 46.706131
428, 38.461540, 50.000000, 46.706131
429, 42.307693, 50.000000, 40.044395
430, 34.615383, 50.000000, 40.044395
431, 38.461540, 50.000000, 33.382660
432, 46.153847, 50.000000, 33.382660
433, 30.769247, 50.000000, 60.029606
434, 30.769230, 50.000000, 33.382660
435, 46.153877, 50.000000, 73.353081
436, 26.923077, 50.000000, 40.044395
437, 42.307693, 50.000000, 26.720928
438, 50.000000, 50.000000, 26.720928
439, 23.076923, 50.000000, 33.382660
440, 26.923077, 50.000000, 26.720928
441, 23.077250, 50.000000, 73.353256
442, 53.846153, 50.000000, 33.382660
443, 57.692307, 50.000000, 26.720928
444, 61.538460, 50.000000, 33.382660
445, 65.384613, 50.000000, 26.806774
446, 69.230766, 50.000000, 33.396969
447, 73.076920, 50.000000, 26.823467
448, 76.923080, 50.000000, 33.402134
449, 73.076920, 50.000000, 40.047268
450, 62.361591, 50.000000, 19.014215
451, 80.811333, 50.000000, 39.994087
452, 77.273621, 50.000000, 46.606174
453, 69.289192, 50.000000, 46.689949
454, 73.145081, 50.000000, 53.348507
455, 19.230770, 50.000000, 40.044395
456, 23.076923, 50.000000, 46.706127
457, 80.769234, 50.000000, 53.367863
458, 76.934441, 50.000000, 60.026371
459, 69.244026, 50.000000, 60.025833
460, 73.076920, 50.000000, 66.691330
461, 65.386826, 50.000000, 66.690704
462, 69.231140, 50.000000, 73.352959
463, 76.923141, 50.000000, 73.353050
464, 61.538891, 50.000000, 73.352943
465, 65.384613, 50.000000, 80.014801
466, 57.692379, 50.000000, 80.014778
467, 84.536934, 50.000000, 60.076347
468, 46.153847, 50.000000, 20.145041
469, 38.461540, 50.000000, 20.073502
470, 61.538475, 50.000000, 86.676529
471, 38.461849, 50.000000, 86.676712
472, 80.537025, 50.000000, 26.607201
473, 76.066772, 50.000000, 19.000353
474, 19.462975, 50.000000, 26.586864
475, 23.076923, 50.000000, 20.059193
476, 84.178459, 50.000000, 19.704250
477, 15.678821, 50.000000, 19.877335
478, 20.009417, 50.000000, 13.426870
479, 42.307693, 50.000000, 13.397460
480, 80.662590, 50.000000, 14.228369
481, 34.615383, 50.000000, 13.397460
482, 15.897213, 50.000000, 46.582020
483, 19.110748, 50.000000, 53.678371
484, 12.059473, 50.000000, 40.371624
485, 69.230774, 50.000000, 86.676529
486, 30.769230, 50.000000, 20.147425
487, 80.809517, 50.000000, 66.698586
488, 84.815712, 50.000000, 73.325043
489, 80.802628, 50.000000, 80.010124
490, 88.461540, 50.000000, 80.014801
491, 88.433296, 50.000000, 66.442757
492, 92.595314, 50.000000, 59.100914
493, 84.571365, 50.000000, 86.704384
494, 34.615665, 50.000000, 93.338432
495, 42.307858, 50.000000, 80.014893
496, 46.153927, 50.000000, 86.676575
497, 93.999329, 50.000000, 34.864330
498, 15.443840, 50.000000, 86.710724
499, 7.086042, 50.000000, 87.470955
500, 11.602527, 50.000000, 80.278084
501, 15.552736, 50.000000, 33.455318
502, 7.559381, 50.000000, 19.494036
503, 93.563164, 50.000000, 42.567566
504, 86.066109, 50.000000, 46.467800
505, 26.923111, 50.000000, 66.691353
506, 19.182276, 50.000000, 66.803703
507, 65.394356, 50.000000, 40.044563
508, 92.290413, 50.000000, 19.572351
509, 65.650688, 50.000000, 6.346512
510, 69.218430, 50.000000, 13.680246
511, 53.983341, 50.000000, 19.985186
512, 56.955708, 50.000000, 13.189380
513, 83.689293, 50.000000, 32.693592
514, 42.307732, 50.000000, 93.338287
515, 6.345300, 50.000000, 57.673679
516, 65.384621, 50.000000, 93.338264
517, 57.692310, 50.000000, 93.338264
518, 6.577883, 50.000000, 65.183922
519, 13.923186, 50.000000, 60.948528
520, 50.000000, 50.000000, 40.044395
521, 34.615383, 50.000000, 26.738018
522, 61.549820, 50.000000, 46.703461
523, 50.000011, 50.000000, 66.691338
524, 34.615387, 50.000000, 53.367863
525, 57.695824, 50.000000, 40.043980
526, 65.409813, 50.000000, 53.360867
527, 30.769232, 50.000000, 46.706131
528, 19.253017, 50.000000, 80.065361
529, 57.698402, 50.000000, 53.366253
530, 26.903076, 50.000000, 53.419617
531, 73.082558, 50.000000, 80.014000
532, 61.546253, 50.000000, 60.027431
533, 22.801941, 50.000000, 60.261864
534, 76.923080, 50.000000, 86.676529
535, 80.712311, 50.000000, 93.371536
536, 15.485600, 50.000000, 73.603760
537, 57.694050, 50.000000, 66.690849
538, 53.846535, 50.000000, 73.352966
539, 53.846180, 50.000000, 86.676537
540, 50.000126, 50.000000, 80.014809
541, 92.916130, 50.000000, 87.470047
542, 6.827475, 50.000000, 34.271435
543, 11.269946, 50.000000, 6.194987
544, 88.730057, 50.000000, 6.194987
545, 18.865622, 50.000000, 6.357831
546, 27.078806, 50.000000, 14.738537
547, 34.949112, 50.000000, 6.264805
548, 42.374439, 50.000000, 5.264800
549, 49.880119, 50.000000, 14.675760
550, 57.921871, 50.000000, 6.213253
551, 69.221664, 50.000000, 21.065012
552, 80.855316, 50.000000, 7.586498
553, 87.544769, 50.000000, 53.860367
554, 11.822604, 50.000000, 52.375664
555, 87.925728, 50.000000, 37.902370
556, 5.350181, 50.000000, 42.307693
557, 86.725021, 50.000000, 13.121909
558, 13.125132, 50.000000, 13.163295
559, 94.847130, 50.000000, 80.769234
560, 5.152869, 50.000000, 80.769234
561, 87.068314, 50.000000, 25.916548
562, 12.931689, 50.000000, 25.916548
563, 12.489509, 50.000000, 67.877281
564, 94.837830, 50.000000, 65.898125
565, 94.368843, 50.000000, 94.368843
566, 5.631160, 50.000000, 94.368843
567, 94.408005, 50.000000, 5.591994
568, 5.591994, 50.000000, 5.591994
569, 62.927399, 50.000000, 11.947671
570, 75.468971, 50.000000, 12.196998
571, 10.057003, 50.000000, 45.902496
572, 89.365807, 50.000000, 31.301195
573, 0.000000, 25.071951, 94.357895
574, 0.000000, 24.903124, 7.255937
575, 0.000000, 6.561639, 42.472012
576, 0.000000, 6.250673, 65.320816
577, 0.000000, 43.326218, 49.956795
578, 0.000000, 43.344208, 26.865330
579, 0.000000, 43.341370, 72.956184
580, 0.000000, 6.396832, 26.817991
581, 0.000000, 6.478599, 80.747009
582, 0.000000, 43.422054, 89.157181
583, 0.000000, 43.178028, 11.896234
584, 0.000000, 6.804319, 11.880000
585, 0.000000, 11.085871, 93.035744
586, 0.000000, 43.344166, 19.279663
587, 0.000000, 36.772869, 23.016527
588, 0.000000, 36.699890, 30.616669
589, 0.000000, 30.174004, 26.744890
590, 0.000000, 30.081223, 34.348377
591, 0.000000, 23.642729, 30.663567
592, 0.000000, 23.746069, 38.131504
593, 0.000000, 24.100292, 23.262873
594, 0.000000, 30.059971, 41.986019
595, 0.000000, 23.831970, 45.989376
596, 0.000000, 30.036198, 49.685875
597, 0.000000, 23.500326, 53.691669
598, 0.000000, 29.922895, 57.365486
599, 0.000000, 23.247915, 61.135487
600, 0.000000, 29.897429, 64.988815
601, 0.000000, 23.164824, 68.744186
602, 0.000000, 29.804640, 72.609367
603, 0.000000, 23.097101, 76.341362
604, 0.000000, 29.671007, 80.252029
605, 0.000000, 17.171259, 57.399841
606, 0.000000, 36.700169, 61.309158
607, 0.000000, 18.028265, 34.699551
608, 0.000000, 16.879536, 72.641106
609, 0.000000, 22.911148, 83.612610
610, 0.000000, 36.532173, 76.592613
611, 0.000000, 36.306271, 84.257187
612, 0.000000, 36.648846, 45.923748
613, 0.000000, 43.297722, 34.516987
614, 0.000000, 16.728050, 80.158035
615, 0.000000, 16.947819, 87.481163
616, 0.000000, 36.770233, 15.434111
617, 0.000000, 36.544136, 8.400092
618, 0.000000, 30.657806, 12.018008
619, 0.000000, 6.596187, 19.248108
620, 0.000000, 12.997189, 15.427051
621, 0.000000, 13.404036, 8.389294
622, 0.000000, 18.845196, 11.991972
623, 0.000000, 43.370998, 80.825928
624, 0.000000, 36.317253, 91.823341
625, 0.000000, 29.002672, 88.299591
626, 0.000000, 12.341235, 23.094812
627, 0.000000, 36.640015, 68.973457
628, 0.000000, 30.469618, 19.463524
629, 0.000000, 6.389099, 73.071701
630, 0.000000, 6.270141, 34.724648
631, 0.000000, 17.276358, 65.025826
632, 0.000000, 6.394641, 49.938950
633, 0.000000, 12.246552, 46.328697
634, 0.000000, 6.222527, 57.550430
635, 0.000000, 43.357124, 57.598228
636, 0.000000, 36.632900, 53.615395
637, 0.000000, 43.316818, 42.173649
638, 0.000000, 36.684078, 38.260910
639, 0.000000, 43.339779, 65.267708
640, 0.000000, 5.667941, 88.329727
641, 0.000000, 18.434431, 94.028099
642, 0.000000, 24.580616, 15.498826
643, 0.000000, 12.253670, 38.405361
644, 0.000000, 18.090576, 26.845842
645, 0.000000, 18.492517, 19.353563
646, 0.000000, 18.916670, 5.574178
647, 0.000000, 31.078253, 5.571247
648, 0.000000, 30.935518, 94.896164
649, 0.000000, 12.230120, 30.764702
650, 0.000000, 17.844170, 49.763298
651, 0.000000, 17.991783, 42.219631
652, 0.000000, 41.344955, 94.829651
653, 0.000000, 11.318049, 84.561394
654, 0.000000, 11.372249, 76.923080
655, 0.000000, 11.687299, 61.307373
656, 0.000000, 11.876321, 53.519722
657, 0.000000, 11.448503, 69.183273
658, 0.000000, 42.194702, 5.806884
659, 0.000000, 7.765172, 5.805211
660, 0.000000, 5.125123, 94.711128
661, 0.000000, 22.277334, 89.480995
662, 0.000000, 46.193321, 96.036644
663, 5.750863, 25.211327, 0.000000
664, 92.954834, 24.380024, 0.000000
665, 42.358944, 6.251577, 0.000000
666, 65.426109, 6.537220, 0.000000
667, 57.755108, 43.306828, 0.000000
668, 34.662842, 43.314953, 0.000000
669, 73.131790, 43.344406, 0.000000
670, 26.923077, 6.661734, 0.000000
671, 80.780075, 6.403191, 0.000000
672, 19.446947, 43.160973, 0.000000
673, 11.698537, 7.255741, 0.000000
674, 88.085182, 43.626102, 0.000000
675, 93.382942, 11.075827, 0.000000
676, 5.581426, 39.120930, 0.000000
677, 80.789223, 43.403969, 0.000000
678, 76.989044, 36.804333, 0.000000
679, 69.372559, 36.694088, 0.000000
680, 73.242119, 30.154612, 0.000000
681, 65.621773, 30.061125, 0.000000
682, 69.508728, 23.508768, 0.000000
683, 61.870224, 23.413605, 0.000000
684, 77.127464, 23.599289, 0.000000
685, 57.974636, 29.988861, 0.000000
686, 54.206577, 23.329865, 0.000000
687, 50.306976, 29.929636, 0.000000
688, 46.530365, 23.254435, 0.000000
689, 42.631580, 29.924891, 0.000000
690, 38.855560, 23.197128, 0.000000
691, 34.963276, 29.855806, 0.000000
692, 31.192951, 23.112831, 0.000000
693, 27.322411, 29.696129, 0.000000
694, 23.569252, 23.093601, 0.000000
695, 19.742699, 29.602694, 0.000000
696, 50.440659, 16.646233, 0.000000
697, 73.410423, 16.982185, 0.000000
698, 46.343441, 36.689491, 0.000000
699, 34.982468, 16.792868, 0.000000
700, 80.992432, 17.071968, 0.000000
701, 16.394199, 22.842585, 0.000000
702, 19.808979, 16.735197, 0.000000
703, 12.340053, 16.527328, 0.000000
704, 84.773300, 23.847185, 0.000000
705, 88.575569, 17.555874, 0.000000
706, 88.240807, 30.620432, 0.000000
707, 23.394382, 36.328827, 0.000000
708, 16.189264, 36.286499, 0.000000
709, 12.163408, 29.180578, 0.000000
710, 19.368950, 6.183568, 0.000000
711, 27.026890, 43.154354, 0.000000
712, 27.276724, 16.830124, 0.000000
713, 65.463432, 43.323986, 0.000000
714, 73.188293, 6.277683, 0.000000
715, 34.597214, 6.468701, 0.000000
716, 80.831558, 30.342243, 0.000000
717, 42.672821, 17.011410, 0.000000
718, 31.028919, 36.480701, 0.000000
719, 38.676987, 36.690250, 0.000000
720, 65.769775, 16.840368, 0.000000
721, 57.752865, 6.477284, 0.000000
722, 50.092175, 6.356974, 0.000000
723, 50.081985, 43.347649, 0.000000
724, 58.110458, 16.740261, 0.000000
725, 54.049965, 36.628384, 0.000000
726, 61.706245, 36.667213, 0.000000
727, 84.465919, 36.956379, 0.000000
728, 42.371323, 43.385708, 0.000000
729, 92.790878, 37.930912, 0.000000
730, 11.580870, 42.965790, 0.000000
731, 88.436882, 5.758825, 0.000000
732, 5.635689, 32.222027, 0.000000
733, 5.838678, 11.362016, 0.000000
734, 5.764811, 18.432137, 0.000000
735, 94.982666, 17.745203, 0.000000
736, 84.904922, 11.635022, 0.000000
737, 94.546654, 31.356012, 0.000000
738, 77.209686, 11.826786, 0.000000
739, 69.553261, 11.778752, 0.000000
740, 61.875896, 11.755936, 0.000000
741, 23.118586, 11.431868, 0.000000
742, 30.765631, 11.458755, 0.000000
743, 54.203293, 11.693567, 0.000000
744, 17.267021, 11.626740, 0.000000
745, 46.443253, 11.632551, 0.000000
746, 38.511215, 11.477314, 0.000000
747, 94.285774, 44.416798, 0.000000
748, 5.206105, 44.904526, 0.000000
749, 94.711128, 5.125123, 0.000000
750, 5.045905, 5.152122, 0.000000
751, 10.230131, 35.955166, 0.000000
752, 10.594911, 22.018730, 0.000000
753, 92.954834, 24.380024, 100.000000
754, 5.750863, 25.211327, 100.000000
755, 42.358944, 6.251577, 100.000000
756, 65.426109, 6.537220, 100.000000
757, 57.755108, 43.306828, 100.000000
758, 34.662842, 43.314953, 100.000000
759, 73.131790, 43.344406, 100.000000
760, 26.923077, 6.661734, 100.000000
761, 80.780075, 6.403191, 100.000000
762, 19.446947, 43.160973, 100.000000
763, 11.698537, 7.255741, 100.000000
764, 88.085182, 43.626102, 100.000000
765, 93.382942, 11.075827, 100.000000
766, 5.581426, 39.120930, 100.000000
767, 80.789223, 43.403969, 100.000000
768, 76.989044, 36.804333, 100.000000
769, 69.372559, 36.694088, 100.000000
770, 73.242119, 30.154612, 100.000000
771, 65.621773, 30.061125, 100.000000
772, 69.508728, 23.508768, 100.000000
773, 61.870224, 23.413605, 100.000000
774, 77.127464, 23.599289, 100.000000
775, 57.974636, 29.988861, 100.000000
776, 54.206577, 23.329865, 100.000000
777, 50.306976, 29.929636, 100.000000
778, 46.530365, 23.254435, 100.000000
779, 42.631580, 29.924891, 100.000000
780, 38.855560, 23.197128, 100.000000
781, 34.963276, 29.855806, 100.000000
782, 31.192951, 23.112831, 100.000000
783, 27.322411, 29.696129, 100.000000
784, 23.569252, 23.093601, 100.000000
785, 19.742699, 29.602694, 100.000000
786, 50.440659, 16.646233, 100.000000
787, 73.410423, 16.982185, 100.000000
788, 46.343441, 36.689491, 100.000000
789, 34.982468, 16.792868, 100.000000
790, 80.992432, 17.071968, 100.000000
791, 16.394199, 22.842585, 100.000000
792, 19.808979, 16.735197, 100.000000
793, 12.340053, 16.527328, 100.000000
794, 84.773300, 23.847185, 100.000000
795, 88.575569, 17.555874, 100.000000
796, 88.240807, 30.620432, 100.000000
797, 23.394382, 36.328827, 100.000000
798, 16.189264, 36.286499, 100.000000
799, 12.163408, 29.180578, 100.000000
800, 19.368950, 6.183568, 100.000000
801, 27.026890, 43.154354, 100.000000
802, 27.276724, 16.830124, 100.000000
803, 65.463432, 43.323986, 100.000000
804, 73.188293, 6.277683, 100.000000
805, 34.597214, 6.468701, 100.000000
806, 80.831558, 30.342243, 100.000000
807, 42.672821, 17.011410, 100.000000
808, 31.028919, 36.480701, 100.000000
809, 38.676987, 36.690250, 100.000000
810, 65.769775, 16.840368, 100.000000
811, 57.752865, 6.477284, 100.000000
812, 50.092175, 6.356974, 100.000000
813, 50.081985, 43.347649, 100.000000
814, 58.110458, 16.740261, 100.000000
815, 54.049965, 36.628384, 100.000000
816, 61.706245, 36.667213, 100.000000
817, 84.465919, 36.956379, 100.000000
818, 42.371323, 43.385708, 100.000000
819, 92.790878, 37.930912, 100.000000
820, 11.580870, 42.965790, 100.000000
821, 88.436882, 5.758825, 100.000000
822, 5.635689, 32.222027, 100.000000
823, 5.838678, 11.362016, 100.000000
824, 5.764811, 18.432137, 100.000000
825, 94.982666, 17.745203, 100.000000
826, 84.904922, 11.635022, 100.000000
827, 94.546654, 31.356012, 100.000000
828, 77.209686, 11.826786, 100.000000
829, 69.553261, 11.778752, 100.000000
830, 61.875896, 11.755936, 100.000000
831, 23.118586, 11.431868, 100.000000
832, 30.765631, 11.458755, 100.000000
833, 54.203293, 11.693567, 100.000000
834, 17.267021, 11.626740, 100.000000
835, 46.443253, 11.632551, 100.000000
836, 38.511215, 11.477314, 100.000000
837, 94.285774, 44.416798, 100.000000
838, 5.206105, 44.904526, 100.000000
839, 94.711128, 5.125123, 100.000000
840, 5.045905, 5.152122, 100.000000
841, 10.230131, 35.955166, 100.000000
842, 10.594911, 22.018730, 100.000000
843, 42.307693, 25.000633, 35.603241
844, 34.615597, 25.000053, 71.132507
845, 69.230774, 24.999260, 37.827793
846, 61.540478, 25.000156, 68.911507
847, 23.436348, 25.803646, 50.114902
848, 23.017694, 26.971127, 22.866432
849, 78.827080, 28.832247, 56.695038
850, 57.095474, 26.090748, 20.665104
851, 79.355698, 29.117987, 79.137680
852, 79.353592, 20.544758, 20.341791
853, 46.854153, 20.318287, 55.184776
854, 18.885340, 20.227102, 81.111839
855, 49.016121, 18.696077, 81.394012
856, 39.268120, 19.181032, 18.178095
857, 18.104595, 31.322475, 66.659149
858, 60.457993, 32.039738, 52.150322
859, 17.407515, 17.108324, 36.182514
860, 83.108109, 17.177921, 44.621834
861, 67.740021, 16.882469, 82.840248
862, 57.629673, 33.276703, 83.283829
863, 83.147186, 32.887535, 31.634142
864, 67.719429, 16.749191, 52.535961
865, 76.243378, 16.597719, 68.141029
866, 36.703503, 33.598568, 56.853428
867, 28.181683, 33.805336, 83.731003
868, 55.385849, 16.441040, 41.350231
869, 28.524853, 33.945965, 36.733124
870, 73.081528, 34.474174, 15.447794
871, 23.237789, 16.080685, 63.346046
872, 48.078072, 34.146484, 70.022858
873, 55.773502, 34.141293, 36.669506
874, 42.575054, 34.410080, 22.464577
875, 33.717888, 15.424815, 84.213432
876, 34.822327, 15.484540, 45.944096
877, 16.555470, 15.167471, 15.107676
878, 31.640987, 15.068830, 31.000513
879, 66.306099, 15.276292, 26.371078
880, 82.987091, 15.186986, 84.782028
881, 14.465299, 34.869053, 42.084064
882, 42.969082, 35.417114, 85.464989
883, 14.266945, 14.284369, 50.726612
884, 71.986351, 35.359379, 68.002426
885, 49.951298, 15.119473, 27.620518
886, 44.242142, 14.391273, 68.277382
887, 13.960050, 33.958138, 80.412849
888, 44.036785, 35.939201, 44.736900
889, 13.930526, 33.599892, 13.930269
890, 86.224449, 33.955246, 45.568302
891, 86.121231, 34.079365, 67.685791
892, 30.619736, 35.969719, 14.458113
893, 57.431351, 13.569256, 61.688400
894, 69.506447, 36.355392, 29.156059
895, 53.835773, 13.977897, 14.010095
896, 86.445755, 16.107073, 58.338184
897, 67.374290, 20.323132, 13.337990
898, 72.307442, 36.251644, 45.759438
899, 86.617851, 31.410431, 15.668969
900, 86.843452, 17.226957, 31.387281
901, 70.493362, 36.444107, 86.431740
902, 12.854615, 33.326885, 28.866289
903, 52.543091, 36.718502, 13.511694
904, 30.059668, 37.096455, 67.869392
905, 49.416302, 37.332394, 57.226189
906, 12.806927, 13.995275, 71.177231
907, 35.174538, 12.722602, 58.840302
908, 58.452293, 12.629334, 74.685509
909, 73.527710, 12.688828, 36.950905
910, 24.170013, 37.447987, 56.138863
911, 59.574890, 37.343418, 65.156181
912, 12.360088, 25.543901, 56.683723
913, 87.282928, 21.996201, 71.936363
914, 31.943956, 12.588231, 71.939514
915, 27.385384, 21.405237, 12.146978
916, 87.930481, 15.588208, 12.477539
917, 87.647797, 26.319435, 88.077728
918, 57.369350, 11.968180, 87.876900
919, 12.131029, 21.208502, 25.503973
920, 44.068718, 12.216244, 38.232460
921, 34.728603, 27.839701, 45.512211
922, 11.408831, 25.593157, 88.669716
923, 76.172134, 11.706491, 12.312931
924, 48.202904, 25.215361, 12.103690
925, 82.804657, 37.730198, 87.388222
926, 11.784866, 37.972454, 57.450859
927, 20.183302, 11.243988, 88.604172
928, 39.548119, 37.933109, 33.657978
929, 88.350296, 38.291611, 56.613220
930, 53.636253, 38.457302, 25.500340
931, 23.576962, 38.407299, 26.673086
932, 51.534931, 26.705038, 46.190132
933, 58.761280, 23.427053, 32.224190
934, 36.008587, 26.261942, 88.664482
935, 27.907631, 26.916454, 61.424572
936, 33.867062, 28.150146, 27.745642
937, 27.377140, 11.886859, 19.921688
938, 73.650856, 25.262678, 88.788605
939, 67.568085, 27.976126, 78.672623
940, 69.127594, 38.550953, 56.947479
941, 69.474976, 26.166054, 23.310202
942, 62.240162, 30.608383, 11.182828
943, 11.611327, 23.627819, 44.082062
944, 25.615078, 11.610240, 52.114483
945, 67.747902, 26.304243, 59.164486
946, 52.779869, 11.096354, 51.332344
947, 43.687424, 11.249085, 88.651665
948, 64.549011, 39.134449, 76.056221
949, 59.942780, 23.239241, 88.580338
950, 50.523899, 23.734186, 65.611710
951, 38.813259, 38.630707, 75.207130
952, 27.242155, 22.637758, 38.479240
953, 77.728813, 11.116957, 52.763668
954, 19.497183, 39.268616, 89.064812
955, 76.934616, 10.905702, 26.118328
956, 10.957227, 10.955334, 29.577162
957, 11.006610, 25.200148, 73.447327
958, 33.411572, 38.968971, 47.394989
959, 41.512821, 34.535454, 10.965067
960, 34.639858, 10.869777, 10.925244
961, 89.136642, 24.401705, 51.024918
962, 88.638321, 10.929299, 75.469154
963, 68.408707, 11.031770, 62.235249
964, 64.724030, 10.627807, 43.610657
965, 49.234314, 26.331984, 90.134529
966, 89.207893, 35.834053, 78.348846
967, 22.754684, 10.320785, 77.807953
968, 10.938721, 39.123329, 70.758736
969, 24.528515, 27.751650, 75.077202
970, 74.682762, 23.932154, 47.534996
971, 25.748175, 11.167935, 40.864487
972, 81.150902, 39.170155, 22.190739
973, 25.066153, 24.669516, 89.147278
974, 43.329613, 27.508802, 77.616501
975, 88.859589, 25.124195, 39.130081
976, 76.150650, 39.629921, 77.395477
977, 57.792011, 21.443920, 53.918842
978, 10.979552, 12.255759, 82.167847
979, 77.658348, 23.335331, 30.889994
980, 89.056747, 26.116625, 25.117107
981, 74.025208, 10.399097, 89.399155
982, 75.553635, 10.708568, 77.668030
983, 22.590599, 39.189415, 75.802757
984, 54.401539, 39.072987, 46.345966
985, 49.842834, 28.611862, 28.497753
986, 78.346985, 25.955341, 10.742367
987, 63.289352, 37.506054, 19.927351
988, 58.604156, 10.565176, 32.637913
989, 36.275993, 22.871630, 55.070137
990, 41.305817, 10.650453, 78.057510
991, 40.064178, 10.728425, 25.279852
992, 51.905334, 39.787376, 89.829948
993, 10.244757, 15.673248, 60.738560
994, 90.050468, 39.995266, 27.880947
995, 10.367810, 23.466503, 11.029338
996, 21.727375, 10.293326, 28.994432
997, 89.670013, 10.162862, 49.783489
998, 81.453270, 39.693001, 10.927580
999, 40.611893, 39.644573, 64.734444
1000, 89.345619, 25.870703, 61.623459
1001, 34.376152, 39.909939, 89.899765
1002, 65.018204, 39.356453, 38.470257
1003, 53.792469, 26.527332, 76.025108
1004, 50.235588, 39.471287, 78.917015
1005, 76.515213, 39.748695, 36.533161
1006, 65.922729, 10.391796, 9.879150
1007, 78.830261, 39.617290, 61.104076
1008, 78.372040, 26.950020, 68.818176
1009, 89.749077, 10.448042, 39.109299
1010, 42.258713, 10.360259, 51.392220
1011, 10.239758, 10.153511, 41.482651
1012, 21.682516, 39.896191, 9.983028
1013, 33.638378, 39.894913, 23.796297
1014, 23.545778, 39.882900, 43.852242
1015, 18.398308, 27.550051, 35.661743
1016, 61.630283, 24.749363, 44.873642
1017, 89.039040, 10.584144, 22.532047
1018, 41.526772, 28.559607, 64.405449
1019, 36.855949, 25.243780, 10.034919
1020, 44.177692, 19.623190, 45.315647
1021, 62.078506, 40.548954, 90.545921
1022, 44.223900, 14.876951, 10.082637
1023, 65.848679, 40.253952, 9.905388
1024, 83.942284, 9.886754, 66.266808
1025, 77.919991, 29.978113, 39.938164
1026, 9.411038, 39.748417, 90.696777
1027, 67.190750, 17.439445, 72.699783
1028, 75.631142, 19.330606, 58.370693
1029, 58.525738, 9.715077, 22.265409
1030, 9.860541, 39.912914, 21.261738
1031, 48.193520, 9.855639, 60.206497
1032, 58.056705, 21.696545, 9.142883
1033, 9.269068, 40.482376, 48.274590
1034, 24.406307, 10.784637, 10.160716
1035, 29.603390, 9.054866, 90.511192
1036, 9.187874, 10.389046, 19.796940
1037, 44.870327, 29.720139, 52.845551
1038, 89.397606, 9.824126, 90.669189
1039, 48.563091, 40.906052, 36.432838
1040, 80.041695, 39.342175, 51.221645
1041, 22.321072, 29.816174, 9.765662
1042, 63.899738, 40.593159, 48.600342
1043, 89.983597, 39.951599, 38.140354
1044, 9.132057, 24.344194, 34.388542
1045, 57.434158, 28.802019, 60.879627
1046, 61.893658, 9.087724, 54.236366
1047, 78.579147, 29.759411, 23.559004
1048, 90.541496, 40.823353, 15.420495
1049, 46.188816, 9.150163, 17.791302
1050, 60.749924, 31.974443, 27.700788
1051, 75.118057, 20.464977, 77.536972
1052, 18.243464, 9.281739, 58.238045
1053, 8.947629, 39.445496, 35.425491
1054, 18.819447, 40.473694, 35.139938
1055, 23.266058, 18.486757, 72.691338
1056, 31.743652, 24.025171, 80.297607
1057, 15.824506, 21.925207, 65.665459
1058, 21.257563, 40.523476, 65.042374
1059, 51.582684, 9.463506, 80.619598
1060, 48.209042, 22.288939, 21.340263
1061, 30.553543, 20.811296, 22.242588
1062, 34.835922, 9.447562, 38.149689
1063, 58.268600, 40.907944, 56.352871
1064, 39.268028, 20.113592, 27.816143
1065, 70.030678, 9.616495, 19.477875
1066, 90.326691, 20.268225, 80.984146
1067, 23.444880, 19.745962, 29.187340
1068, 9.411038, 39.748417, 8.514654
1069, 10.596815, 9.065991, 10.095288
1070, 41.695999, 40.541248, 52.712696
1071, 16.419979, 32.323410, 51.169670
1072, 64.921043, 16.669334, 36.273109
1073, 79.075714, 8.665750, 43.507797
1074, 20.819967, 18.190138, 45.014713
1075, 9.330046, 29.165133, 21.027071
1076, 90.405670, 24.675604, 9.529551
1077, 51.985592, 8.994423, 68.824181
1078, 63.978432, 31.379509, 90.870110
1079, 23.058599, 8.330175, 68.639236
1080, 50.361088, 17.603336, 90.641090
1081, 17.782915, 19.610712, 91.520790
1082, 8.814815, 17.010284, 91.286812
1083, 81.913414, 9.665097, 33.987194
1084, 38.004707, 19.919693, 64.070709
1085, 65.833717, 8.378423, 70.825188
1086, 35.754623, 29.180254, 18.549110
1087, 61.476009, 41.226879, 29.938766
1088, 59.679123, 20.348442, 79.737846
1089, 44.901237, 41.370819, 16.526094
1090, 30.928083, 41.487175, 79.247223
1091, 56.538742, 35.082291, 73.712944
1092, 8.715321, 8.374834, 55.226334
1093, 91.354042, 34.025333, 91.698746
1094, 9.283869, 28.703938, 64.940117
1095, 91.314194, 15.666512, 66.329353
1096, 22.126499, 34.951458, 18.145403
1097, 51.220478, 23.690344, 37.497799
1098, 63.341476, 8.866683, 81.555016
1099, 38.979420, 19.458349, 76.994843
1100, 65.706421, 13.855742, 91.292366
1101, 91.532959, 18.709435, 91.399696
1102, 19.489637, 19.824551, 55.851452
1103, 81.017715, 41.386532, 69.828575
1104, 81.182007, 20.927057, 91.690887
1105, 72.127884, 41.225983, 21.721922
1106, 51.385700, 17.993290, 72.628723
1107, 38.335342, 17.979277, 91.625397
1108, 27.299723, 8.427872, 60.494766
1109, 51.331390, 41.140163, 65.239357
1110, 91.228546, 41.153431, 70.965919
1111, 32.260296, 32.409752, 75.770119
1112, 51.044601, 8.595602, 42.778297
1113, 61.055683, 17.989794, 19.454041
1114, 91.543816, 41.309837, 47.111942
1115, 32.856007, 41.139172, 60.205410
1116, 37.717621, 8.462352, 66.372452
1117, 73.271233, 15.241580, 45.594025
1118, 45.293247, 41.447948, 27.544918
1119, 35.625935, 19.375830, 37.848553
1120, 92.040993, 17.797621, 45.626682
1121, 8.631423, 21.044573, 81.238960
1122, 75.815948, 41.593792, 91.573074
1123, 19.261814, 20.437599, 8.251872
1124, 91.384727, 33.639347, 8.232716
1125, 22.601526, 30.999767, 42.823597
1126, 70.013062, 27.597015, 7.939577
1127, 28.379894, 18.891211, 56.558723
1128, 29.678434, 32.018314, 51.574478
1129, 64.410431, 18.970818, 62.995205
1130, 31.201103, 8.210153, 79.651611
1131, 18.526468, 30.547987, 91.120537
1132, 76.829460, 20.608614, 39.324131
1133, 33.101093, 41.306976, 38.801785
1134, 69.051743, 29.875383, 51.089226
1135, 11.739749, 8.490865, 90.367188
1136, 91.879471, 29.547359, 72.687363
1137, 47.155609, 32.208153, 37.334251
1138, 17.921011, 41.237057, 50.806812
1139, 30.500591, 32.266018, 92.140823
1140, 67.261909, 8.586086, 32.153450
1141, 77.314644, 32.624474, 92.162552
1142, 69.787323, 8.027455, 50.383900
1143, 16.071030, 24.076305, 17.950562
1144, 49.999355, 8.039272, 33.043716
1145, 19.186762, 8.233860, 20.615198
1146, 70.187874, 23.909986, 67.490776
1147, 91.542053, 21.697222, 17.821987
1148, 91.926224, 31.971539, 31.091326
1149, 20.528160, 28.656055, 82.811066
1150, 8.478909, 31.181919, 47.448593
1151, 18.332773, 8.016388, 45.334091
1152, 92.026794, 33.753422, 22.107426
1153, 92.250565, 8.884469, 30.677759
1154, 46.216679, 41.345432, 7.742099
1155, 33.711468, 8.410063, 51.015427
1156, 76.841965, 8.727243, 61.191212
1157, 53.609055, 7.686324, 7.915093
1158, 61.136051, 33.377087, 43.534874
1159, 29.630266, 17.688955, 91.658119
1160, 91.205116, 40.909660, 85.685425
1161, 8.421824, 7.789485, 63.882790
1162, 57.335155, 41.978844, 83.384895
1163, 25.815544, 27.915638, 31.061258
1164, 16.542322, 8.206009, 35.729942
1165, 43.574131, 41.576363, 91.577286
1166, 54.139835, 30.084711, 7.879505
1167, 8.164545, 31.188141, 8.099321
1168, 82.516579, 41.687744, 42.919182
1169, 90.915039, 8.412554, 8.130732
1170, 67.056290, 41.712490, 64.753654
1171, 49.756306, 30.632162, 19.162806
1172, 92.139420, 9.664047, 60.004959
1173, 20.057369, 29.212029, 58.441700
1174, 55.441940, 32.201111, 92.026573
1175, 43.449982, 22.691463, 70.394531
1176, 82.891708, 20.931738, 64.567612
1177, 8.773741, 41.381554, 79.326073
1178, 8.129445, 20.330351, 51.259071
1179, 80.593193, 7.836637, 18.791260
1180, 26.760822, 42.218307, 19.060965
1181, 36.531433, 30.994564, 37.727512
1182, 81.324425, 20.973349, 52.133602
1183, 34.871239, 38.912720, 7.481974
1184, 74.391777, 8.110113, 69.481743
1185, 38.649670, 42.332924, 82.907387
1186, 74.120628, 18.952187, 8.281202
1187, 63.755932, 31.216949, 35.678463
1188, 8.519588, 18.808233, 18.048632
1189, 30.769209, 7.699731, 26.635658
1190, 82.022743, 41.912533, 30.293951
1191, 22.157600, 18.676638, 20.747757
1192, 25.369402, 15.629934, 83.720520
1193, 82.968712, 25.653406, 45.232876
1194, 49.499832, 31.542435, 81.752380
1195, 59.617638, 15.191226, 48.547886
1196, 42.246429, 22.077280, 84.632759
1197, 64.324310, 32.815479, 70.464943
1198, 7.642475, 19.709293, 67.694710
1199, 29.154917, 32.816799, 22.451534
1200, 57.466568, 41.687279, 8.466335
1201, 81.802589, 15.999532, 74.614265
1202, 31.116611, 31.031235, 7.521523
1203, 84.100319, 42.561028, 77.636581
1204, 92.557098, 31.627449, 53.657776
1205, 26.923077, 42.514740, 33.213951
1206, 30.154287, 19.172758, 67.012070
1207, 26.971804, 42.436226, 86.669403
1208, 50.906349, 8.247944, 91.819687
1209, 42.879662, 27.717239, 43.522095
1210, 8.167081, 16.039070, 35.752766
1211, 92.315041, 7.606015, 68.633842
1212, 92.055809, 28.485569, 81.260956
1213, 45.357800, 41.959511, 71.213516
1214, 57.692707, 42.934399, 71.132141
1215, 71.419403, 17.845888, 20.247726
1216, 38.812851, 33.213684, 92.387657
1217, 84.289055, 7.967974, 57.160336
1218, 18.499502, 42.078556, 20.961496
1219, 56.756260, 42.419292, 36.705933
1220, 76.060310, 33.435825, 7.650810
1221, 92.278152, 33.589878, 62.177185
1222, 7.780111, 8.660701, 75.282005
1223, 7.532824, 31.635351, 38.418064
1224, 7.588608, 31.927629, 92.092239
1225, 58.167389, 16.833380, 27.176207
1226, 48.564404, 29.687119, 60.232445
1227, 66.780235, 22.574257, 30.283936
1228, 51.783852, 18.755587, 48.411209
1229, 7.529761, 32.720055, 75.081268
1230, 92.512283, 23.179914, 32.000759
1231, 65.794090, 42.526657, 83.461861
1232, 16.944025, 41.975937, 81.461075
1233, 30.538794, 21.749340, 49.142689
1234, 36.543095, 7.979222, 86.242699
1235, 41.398609, 30.845055, 29.828899
1236, 73.477425, 30.170630, 32.959000
1237, 78.156487, 31.307577, 48.846107
1238, 67.093437, 21.864956, 92.342438
1239, 40.402153, 7.493878, 43.897373
1240, 39.900547, 42.802597, 43.095787
1241, 79.806824, 7.480533, 84.106224
1242, 92.089645, 18.564444, 25.312220
1243, 7.506943, 16.554739, 7.754033
1244, 72.595169, 42.989037, 70.854118
1245, 82.327301, 19.382050, 7.788375
1246, 37.264717, 30.754868, 81.983917
1247, 92.407906, 41.782566, 62.853710
1248, 72.758507, 42.438511, 13.670465
1249, 37.106739, 33.306923, 69.305496
1250, 16.046726, 42.885773, 42.539547
1251, 61.242271, 6.896189, 64.299072
1252, 93.032921, 17.736813, 53.754814
1253, 75.279793, 17.738321, 85.956375
1254, 66.230400, 33.478756, 62.615543
1255, 53.408421, 28.453699, 53.867092
1256, 61.542274, 7.102324, 92.878586
1257, 23.134121, 24.831015, 67.640709
1258, 13.504177, 41.767254, 28.676790
1259, 79.753212, 33.924358, 72.655685
1260, 58.028919, 7.254965, 46.571972
1261, 46.920418, 33.918457, 92.393745
1262, 56.461926, 42.139992, 18.538300
1263, 27.364975, 7.307263, 33.953041
1264, 71.996712, 26.494085, 15.667681
1265, 81.565926, 23.059530, 83.944733
1266, 58.242794, 17.711475, 68.496857
1267, 81.384392, 12.659035, 92.538322
1268, 42.554340, 24.663200, 93.027824
1269, 92.522209, 32.337265, 39.150768
1270, 42.004616, 7.171594, 32.269283
1271, 91.741814, 7.687298, 82.737564
1272, 82.619934, 9.194577, 7.647050
1273, 91.465614, 41.824623, 7.294693
1274, 93.109901, 17.577984, 37.692772
1275, 42.526142, 6.960288, 10.866060
1276, 83.772743, 31.004553, 7.504985
1277, 16.333126, 14.438329, 24.783350
1278, 34.885059, 7.765891, 19.077982
1279, 73.216713, 16.750944, 30.085648
1280, 33.448036, 18.246181, 7.813379
1281, 7.988445, 42.007919, 63.591084
1282, 7.230497, 30.862972, 83.957680
1283, 34.087376, 43.254265, 70.827568
1284, 50.650974, 19.009867, 7.657562
1285, 71.423615, 42.702484, 50.464672
1286, 58.941399, 13.793262, 7.517411
1287, 73.909653, 29.651667, 62.853912
1288, 27.584774, 28.613468, 15.753096
1289, 66.221329, 18.387753, 43.881550
1290, 48.549828, 43.125580, 49.763966
1291, 73.797157, 43.225266, 84.040253
1292, 41.543598, 26.283291, 23.254860
1293, 17.123550, 7.248750, 82.473259
1294, 34.475830, 43.414383, 31.092705
1295, 42.574043, 15.347050, 59.557705
1296, 84.451515, 43.044884, 93.003616
1297, 40.916512, 7.336327, 58.542412
1298, 50.882557, 7.718873, 24.311140
1299, 43.641930, 7.191396, 71.389557
1300, 46.454445, 18.442823, 33.924862
1301, 55.113094, 29.498560, 68.361404
1302, 32.822113, 35.532166, 30.314281
1303, 84.382645, 22.698154, 14.650879
1304, 64.258949, 26.274527, 17.426311
1305, 36.401997, 42.064438, 16.009056
1306, 53.003269, 24.041321, 84.012817
1307, 50.540474, 17.214184, 61.323071
1308, 81.362770, 7.160889, 73.381645
1309, 84.846794, 32.326004, 60.200340
1310, 7.474517, 31.653666, 55.312820
1311, 25.219786, 7.094699, 84.438545
1312, 26.977638, 42.504360, 50.597832
1313, 93.159760, 9.040830, 15.814980
1314, 55.158524, 7.299099, 57.688595
1315, 72.524178, 33.026405, 75.415092
1316, 28.994791, 43.092144, 11.068174
1317, 85.040230, 25.362490, 32.342754
1318, 7.502182, 16.962418, 44.216743
1319, 71.568901, 7.299165, 42.161236
1320, 17.070156, 26.775873, 27.972677
1321, 70.922783, 7.023735, 82.936691
1322, 15.172072, 6.961725, 68.134148
1323, 70.334755, 43.188374, 42.736340
1324, 29.285748, 17.369871, 77.339180
1325, 24.700830, 33.756779, 63.312340
1326, 43.266289, 21.983898, 6.983135
1327, 54.131695, 17.408133, 33.765514
1328, 92.720085, 17.920700, 7.169670
1329, 17.076149, 30.091040, 74.339073
1330, 38.395351, 33.427734, 49.340881

*ELEMENT, TYPE=C3D4, ELSET=ALL_ELEMENTS
1, 877, 1034, 744, 1123
2, 961, 1204, 328, 1269
3, 845, 1134, 898, 1158
4, 505, 983, 904, 1283
5, 893, 1266, 1045, 1307
6, 589, 1044, 591, 1075
7, 893, 1129, 1045, 1266
8, 893, 1045, 977, 1307
9, 939, 1078, 949, 1238
10, 844, 969, 904, 1257
11, 939, 938, 1078, 1238
12, 977, 1045, 893, 1129
13, 496, 1004, 1165, 1185
14, 447, 1005, 894, 1190
15, 915, 937, 856, 1061
16, 919, 956, 644, 1036
17, 1012, 1068, 889, 1218
18, 844, 904, 935, 1257
19, 913, 962, 335, 1066
20, 797, 801, 1139, 1207
21, 902, 1075, 889, 1096
22, 856, 937, 915, 960
23, 441, 983, 505, 1283
24, 904, 983, 505, 1058
25, 687, 959, 924, 1166
26, 852, 900, 955, 1017
27, 334, 333, 913, 1000
28, 335, 962, 913, 1095
29, 689, 924, 687, 959
30, 591, 1044, 919, 1075
31, 890, 1204, 961, 1269
32, 912, 943, 847, 1102
33, 162, 964, 163, 988
34, 618, 616, 1075, 1167
35, 878, 1064, 920, 1270
36, 447, 894, 1105, 1190
37, 864, 1016, 977, 1134
38, 193, 1079, 914, 1116
39, 933, 1016, 873, 1097
40, 744, 1034, 877, 1069
41, 710, 1034, 744, 1069
42, 850, 895, 924, 1032
43, 861, 939, 949, 1238
44, 193, 1108, 1079, 1116
45, 446, 894, 447, 1005
46, 852, 955, 900, 979
47, 1075, 1096, 902, 1320
48, 1079, 1108, 914, 1116
49, 878, 920, 1064, 1119
50, 845, 1187, 898, 1236
51, 708, 1041, 889, 1167
52, 864, 977, 945, 1134
53, 917, 1141, 851, 1265
54, 863, 972, 894, 1190
55, 863, 894, 972, 1047
56, 995, 1041, 709, 1167
57, 1002, 898, 1187, 1236
58, 913, 1000, 333, 1095
59, 861, 938, 939, 1238
60, 593, 589, 591, 1075
61, 720, 682, 683, 897
62, 496, 1004, 992, 1165
63, 797, 1139, 954, 1207
64, 895, 1113, 1060, 1225
65, 744, 1069, 877, 1123
66, 849, 961, 1204, 1309
67, 853, 1010, 989, 1020
68, 1001, 1139, 801, 1207
69, 850, 924, 895, 1060
70, 989, 1010, 876, 1020
71, 917, 925, 851, 1141
72, 848, 1096, 1075, 1320
73, 873, 1016, 933, 1187
74, 1045, 1266, 950, 1307
75, 902, 889, 1030, 1096
76, 936, 952, 878, 1119
77, 862, 901, 939, 948
78, 889, 1068, 1030, 1218
79, 559, 1110, 314, 1160
80, 593, 591, 919, 1075
81, 760, 135, 927, 1035
82, 626, 644, 956, 1036
83, 902, 1030, 889, 1075
84, 135, 800, 760, 927
85, 932, 984, 888, 1037
86, 984, 1037, 932, 1255
87, 845, 1016, 1134, 1158
88, 869, 921, 958, 1128
89, 889, 1075, 616, 1167
90, 885, 895, 1060, 1225
91, 844, 904, 969, 1111
92, 931, 1054, 1015, 1163
93, 135, 228, 800, 927
94, 878, 952, 936, 1163
95, 882, 1165, 1004, 1185
96, 163, 988, 964, 1140
97, 959, 1086, 924, 1171
98, 608, 906, 1121, 1222
99, 869, 1125, 921, 1128
100, 836, 755, 805, 1234
101, 446, 1002, 894, 1005
102, 869, 958, 1125, 1128
103, 589, 902, 1044, 1075
104, 850, 930, 987, 1171
105, 803, 1021, 516, 1122
106, 328, 1204, 383, 1269
107, 851, 938, 901, 939
108, 850, 987, 903, 1171
109, 905, 1037, 984, 1255
110, 218, 990, 947, 1059
111, 931, 1163, 1015, 1320
112, 845, 1158, 898, 1187
113, 709, 1041, 995, 1123
114, 755, 947, 253, 1234
115, 1006, 1029, 202, 1065
116, 212, 1006, 895, 1029
117, 683, 897, 682, 1126
118, 905, 888, 984, 1037
119, 708, 709, 1041, 1167
120, 162, 964, 988, 1260
121, 720, 897, 683, 1032
122, 850, 942, 903, 987
123, 862, 939, 1003, 1091
124, 924, 1171, 1086, 1292
125, 218, 199, 990, 1059
126, 306, 394, 917, 1093
127, 836, 947, 755, 1234
128, 328, 975, 961, 1269
129, 909, 955, 172, 1140
130, 441, 505, 983, 1058
131, 905, 999, 422, 1070
132, 558, 1068, 1012, 1218
133, 536, 983, 968, 1058
134, 902, 1015, 931, 1054
135, 1002, 1005, 898, 1236
136, 519, 1058, 926, 1138
137, 162, 163, 164, 988
138, 953, 997, 215, 1073
139, 644, 919, 1036, 1188
140, 847, 943, 912, 1071
141, 1003, 1091, 939, 1197
142, 885, 1049, 991, 1060
143, 931, 1015, 902, 1320
144, 904, 935, 866, 1249
145, 225, 305, 956, 1164
146, 848, 1075, 1096, 1143
147, 906, 608, 1121, 1198
148, 343, 335, 962, 1066
149, 856, 991, 1049, 1060
150, 901, 925, 851, 976
151, 845, 898, 1025, 1236
152, 847, 943, 1074, 1102
153, 935, 1018, 866, 1249
154, 259, 1065, 1029, 1140
155, 845, 970, 898, 1134
156, 808, 801, 1001, 1139
157, 224, 756, 981, 1256
158, 895, 1006, 1157, 1286
159, 334, 1000, 913, 1136
160, 687, 698, 959, 1166
161, 225, 956, 630, 1011
162, 951, 974, 872, 1004
163, 903, 987, 930, 1171
164, 467, 1103, 1007, 1247
165, 516, 1021, 485, 1122
166, 856, 960, 915, 1280
167, 932, 873, 1016, 1097
168, 969, 983, 904, 1325
169, 207, 1017, 955, 1083
170, 863, 1025, 890, 1168
171, 966, 1160, 1110, 1203
172, 974, 1004, 951, 1194
173, 901, 851, 925, 1141
174, 803, 769, 1021, 1122
175, 895, 1006, 212, 1157
176, 857, 983, 969, 1325
177, 890, 929, 1040, 1309
178, 215, 997, 953, 1217
179, 974, 872, 1004, 1194
180, 930, 873, 1039, 1137
181, 846, 1003, 939, 1197
182, 878, 920, 1062, 1270
183, 608, 1121, 614, 1222
184, 900, 1017, 852, 1242
185, 698, 1154, 959, 1166
186, 163, 164, 988, 1140
187, 695, 708, 709, 1041
188, 797, 954, 801, 1207
189, 930, 985, 873, 1137
190, 709, 995, 701, 1123
191, 895, 1022, 1049, 1060
192, 869, 1015, 1054, 1163
193, 197, 990, 914, 1130
194, 906, 957, 854, 1055
195, 136, 224, 756, 981
196, 935, 1257, 904, 1325
197, 900, 979, 1083, 1132
198, 683, 1032, 897, 1126
199, 890, 1040, 1237, 1309
200, 869, 1054, 931, 1163
201, 186, 971, 944, 1155
202, 1030, 1068, 558, 1218
203, 901, 1021, 769, 1122
204, 878, 1061, 991, 1189
205, 633, 632, 1011, 1092
206, 162, 988, 1112, 1260
207, 669, 1220, 998, 1248
208, 878, 971, 952, 1067
209, 522, 1042, 984, 1219
210, 814, 949, 918, 1080
211, 878, 1062, 920, 1119
212, 186, 1062, 971, 1155
213, 871, 906, 993, 1322
214, 669, 1023, 1220, 1248
215, 860, 975, 900, 1132
216, 878, 996, 971, 1067
217, 854, 957, 1121, 1149
218, 1083, 1132, 979, 1279
219, 589, 902, 590, 1044
220, 952, 1119, 936, 1181
221, 876, 989, 907, 1010
222, 851, 1066, 913, 1212
223, 796, 917, 806, 1141
224, 845, 898, 970, 1025
225, 197, 914, 990, 1299
226, 913, 851, 1136, 1259
227, 172, 955, 909, 1083
228, 943, 1102, 912, 1178
229, 335, 334, 333, 913
230, 935, 989, 866, 1018
231, 851, 913, 1136, 1212
232, 918, 949, 814, 1100
233, 448, 446, 447, 1005
234, 900, 1083, 979, 1279
235, 860, 900, 1083, 1132
236, 890, 1204, 929, 1309
237, 808, 797, 801, 1139
238, 468, 1089, 930, 1118
239, 804, 136, 756, 981
240, 848, 1075, 1143, 1320
241, 901, 938, 851, 1141
242, 806, 917, 1104, 1141
243, 393, 837, 565, 1160
244, 197, 1116, 914, 1299
245, 485, 1122, 1021, 1231
246, 852, 900, 980, 1317
247, 1071, 1125, 1014, 1128
248, 589, 587, 588, 902
249, 952, 971, 859, 1067
250, 522, 1002, 1042, 1219
251, 991, 1061, 937, 1189
252, 985, 1060, 850, 1225
253, 1029, 1065, 879, 1140
254, 971, 996, 859, 1067
255, 887, 1121, 957, 1149
256, 286, 1092, 1052, 1151
257, 787, 1238, 938, 1253
258, 306, 917, 394, 1101
259, 985, 1225, 933, 1327
260, 939, 862, 1003, 1088
261, 587, 902, 589, 1075
262, 852, 979, 900, 1317
263, 870, 941, 894, 987
264, 877, 1069, 1034, 1145
265, 871, 993, 1052, 1322
266, 710, 285, 1034, 1069
267, 853, 989, 1010, 1295
268, 939, 949, 862, 1088
269, 151, 1077, 908, 1251
270, 851, 913, 1066, 1265
271, 851, 1066, 1212, 1265
272, 854, 906, 967, 978
273, 343, 962, 335, 1095
274, 890, 863, 975, 1025
275, 787, 981, 1238, 1253
276, 787, 938, 1104, 1253
277, 669, 998, 401, 1248
278, 792, 831, 927, 1159
279, 1035, 1107, 836, 1234
280, 925, 851, 976, 1203
281, 933, 985, 850, 1225
282, 633, 1092, 1011, 1318
283, 925, 966, 851, 1203
284, 902, 1096, 1030, 1218
285, 873, 932, 1016, 1158
286, 989, 1018, 935, 1084
287, 787, 981, 1100, 1238
288, 762, 409, 412, 954
289, 849, 940, 1040, 1237
290, 894, 941, 870, 1047
291, 863, 894, 1005, 1190
292, 889, 1030, 616, 1075
293, 895, 1049, 885, 1060
294, 927, 1081, 792, 1159
295, 878, 991, 1064, 1270
296, 587, 588, 902, 1030
297, 612, 638, 1033, 1223
298, 905, 999, 866, 1226
299, 916, 852, 1147, 1303
300, 997, 1009, 215, 1073
301, 916, 852, 1017, 1147
302, 863, 890, 1043, 1168
303, 901, 862, 939, 1078
304, 890, 975, 863, 1269
305, 495, 1004, 496, 1185
306, 422, 999, 905, 1109
307, 894, 1047, 863, 1236
308, 583, 410, 1030, 1068
309, 932, 984, 873, 1137
310, 883, 1074, 943, 1102
311, 992, 1004, 882, 1165
312, 863, 1005, 1025, 1168
313, 447, 448, 1005, 1190
314, 644, 1036, 626, 1188
315, 972, 863, 1047, 1152
316, 902, 1096, 931, 1320
317, 905, 984, 888, 1290
318, 930, 1039, 442, 1118
319, 971, 996, 878, 1263
320, 849, 940, 1007, 1040
321, 1059, 990, 1106, 1299
322, 983, 1149, 867, 1232
323, 952, 971, 876, 1233
324, 1017, 1147, 852, 1242
325, 926, 968, 857, 1058
326, 950, 1018, 853, 1084
327, 856, 1049, 1022, 1060
328, 753, 306, 917, 1093
329, 856, 924, 1086, 1292
330, 862, 949, 939, 1078
331, 689, 687, 698, 959
332, 885, 1060, 985, 1225
333, 931, 1096, 848, 1320
334, 335, 913, 333, 1095
335, 446, 894, 1002, 1087
336, 796, 1093, 917, 1141
337, 967, 1293, 906, 1322
338, 952, 1074, 971, 1233
339, 883, 1102, 943, 1178
340, 943, 1074, 1015, 1125
341, 895, 1029, 1006, 1113
342, 644, 956, 919, 1210
343, 930, 1089, 468, 1262
344, 467, 929, 1007, 1040
345, 852, 923, 916, 1179
346, 384, 328, 383, 1269
347, 954, 867, 1149, 1232
348, 476, 994, 972, 1048
349, 857, 968, 926, 1094
350, 599, 912, 993, 1178
351, 856, 924, 1019, 1086
352, 901, 948, 862, 1231
353, 632, 130, 1011, 1092
354, 912, 599, 993, 1198
355, 900, 979, 955, 1279
356, 885, 1225, 985, 1327
357, 531, 976, 1231, 1244
358, 458, 1007, 940, 1285
359, 468, 930, 438, 1118
360, 193, 194, 1108, 1116
361, 851, 939, 901, 1315
362, 844, 1018, 935, 1249
363, 565, 1160, 837, 1296
364, 628, 618, 616, 1075
365, 441, 417, 983, 1283
366, 215, 953, 216, 1217
367, 589, 588, 590, 902
368, 874, 1086, 959, 1171
369, 888, 984, 932, 1137
370, 1010, 1112, 1020, 1228
371, 878, 936, 1067, 1163
372, 480, 998, 972, 1248
373, 899, 1147, 375, 1152
374, 195, 914, 193, 1079
375, 985, 1137, 1118, 1235
376, 1109, 1226, 911, 1301
377, 900, 852, 980, 1242
378, 980, 1047, 863, 1152
379, 852, 955, 979, 1279
380, 948, 1231, 976, 1244
381, 989, 1037, 1020, 1209
382, 930, 850, 987, 1050
383, 975, 900, 1132, 1317
384, 1010, 946, 1112, 1228
385, 905, 911, 1109, 1226
386, 999, 1018, 866, 1226
387, 225, 956, 1011, 1164
388, 400, 803, 516, 1122
389, 959, 1019, 924, 1086
390, 496, 540, 992, 1004
391, 421, 422, 999, 1070
392, 940, 1007, 459, 1170
393, 910, 1071, 1014, 1128
394, 889, 1041, 995, 1167
395, 172, 955, 173, 1140
396, 393, 318, 837, 1160
397, 849, 1134, 940, 1237
398, 578, 588, 1030, 1258
399, 850, 895, 1032, 1113
400, 753, 917, 306, 1101
401, 531, 1231, 976, 1291
402, 852, 916, 1017, 1179
403, 679, 669, 1023, 1220
404, 769, 1078, 901, 1141
405, 921, 989, 876, 1020
406, 854, 978, 1081, 1121
407, 850, 1113, 941, 1227
408, 720, 897, 1032, 1286
409, 450, 551, 1105, 1248
410, 868, 988, 964, 1260
411, 905, 1045, 911, 1226
412, 331, 1095, 1000, 1252
413, 961, 975, 890, 1269
414, 438, 930, 442, 1118
415, 539, 496, 540, 992
416, 213, 1034, 1069, 1145
417, 442, 1039, 930, 1219
418, 515, 926, 635, 1033
419, 902, 1030, 588, 1258
420, 682, 897, 720, 1186
421, 412, 403, 762, 954
422, 762, 820, 409, 954
423, 1027, 1085, 982, 1098
424, 689, 924, 959, 1326
425, 906, 1293, 1222, 1322
426, 911, 1226, 1045, 1301
427, 540, 539, 992, 1004
428, 403, 801, 954, 1207
429, 901, 939, 938, 1078
430, 153, 1077, 151, 1251
431, 637, 612, 638, 1033
432, 912, 1094, 599, 1198
433, 469, 1118, 1013, 1305
434, 441, 983, 536, 1058
435, 868, 1112, 988, 1260
436, 844, 935, 904, 1249
437, 844, 935, 1018, 1084
438, 805, 1035, 836, 1234
439, 1004, 1185, 495, 1213
440, 853, 989, 1018, 1037
441, 1007, 891, 1259, 1287
442, 920, 1270, 1064, 1300
443, 894, 1047, 870, 1105
444, 1100, 1238, 981, 1253
445, 846, 939, 1003, 1088
446, 1059, 1106, 1077, 1299
447, 756, 1100, 981, 1256
448, 847, 1074, 943, 1125
449, 864, 970, 945, 1028
450, 458, 459, 1007, 1170
451, 803, 400, 759, 1122
452, 849, 945, 970, 1028
453, 441, 505, 417, 1283
454, 446, 445, 894, 1087
455, 871, 993, 906, 1057
456, 924, 1022, 895, 1060
457, 349, 320, 361, 1147
458, 769, 770, 1078, 1141
459, 197, 914, 195, 1130
460, 883, 1092, 1011, 1151
461, 831, 760, 800, 927
462, 862, 948, 939, 1091
463, 403, 801, 762, 954
464, 166, 1142, 963, 1156
465, 426, 1240, 1039, 1290
466, 938, 1078, 770, 1141
467, 904, 1257, 969, 1325
468, 185, 944, 186, 971
469, 520, 426, 1039, 1290
470, 520, 1039, 426, 1240
471, 930, 987, 903, 1262
472, 151, 908, 1085, 1251
473, 249, 581, 640, 978
474, 850, 1225, 1113, 1227
475, 957, 887, 1149, 1329
476, 656, 1178, 1092, 1318
477, 366, 1114, 890, 1204
478, 458, 459, 940, 1007
479, 864, 1016, 1134, 1289
480, 770, 1078, 938, 1238
481, 922, 1121, 887, 1149
482, 849, 970, 945, 1134
483, 876, 989, 921, 1233
484, 958, 1070, 524, 1115
485, 904, 866, 935, 1325
486, 638, 1053, 1033, 1223
487, 886, 1084, 914, 1099
488, 907, 1010, 989, 1295
489, 936, 1163, 952, 1181
490, 168, 908, 151, 1077
491, 850, 903, 942, 1166
492, 718, 1202, 1183, 1316
493, 882, 974, 951, 1194
494, 506, 441, 536, 1058
495, 883, 1052, 1092, 1151
496, 858, 945, 977, 1134
497, 533, 910, 1058, 1138
498, 469, 1089, 1118, 1305
499, 355, 353, 1124, 1152
500, 837, 1160, 819, 1296
501, 920, 1020, 1010, 1112
502, 863, 1005, 894, 1236
503, 1086, 1171, 874, 1292
504, 537, 1063, 911, 1109
505, 304, 215, 997, 1009
506, 630, 1011, 956, 1210
507, 957, 854, 1055, 1329
508, 561, 994, 476, 1048
509, 616, 1030, 889, 1068
510, 870, 986, 899, 1047
511, 882, 951, 1004, 1194
512, 694, 915, 692, 1202
513, 335, 1066, 336, 1136
514, 232, 715, 670, 960
515, 858, 977, 1016, 1134
516, 870, 987, 894, 1105
517, 861, 1027, 982, 1098
518, 335, 913, 1066, 1136
519, 976, 1203, 851, 1259
520, 224, 981, 147, 1256
521, 618, 1075, 995, 1167
522, 814, 776, 949, 1080
523, 1007, 1103, 891, 1247
524, 431, 429, 928, 1039
525, 893, 864, 977, 1129
526, 966, 851, 1203, 1259
527, 552, 669, 677, 998
528, 885, 1060, 991, 1064
529, 588, 590, 902, 1223
530, 587, 1030, 902, 1075
531, 882, 965, 934, 1196
532, 989, 1020, 921, 1209
533, 469, 437, 1013, 1118
534, 431, 432, 429, 1039
535, 854, 957, 1149, 1329
536, 669, 678, 998, 1220
537, 854, 957, 906, 1121
538, 458, 1007, 460, 1170
539, 891, 913, 1136, 1259
540, 889, 1096, 1075, 1143
541, 397, 367, 929, 1114
542, 947, 836, 1107, 1234
543, 489, 1203, 925, 1291
544, 1029, 1065, 1006, 1113
545, 991, 1060, 856, 1064
546, 878, 936, 1061, 1067
547, 864, 1134, 970, 1289
548, 495, 540, 496, 1004
549, 957, 1055, 906, 1057
550, 173, 955, 1065, 1140
551, 869, 958, 1014, 1125
552, 590, 1044, 902, 1223
553, 1011, 1092, 883, 1318
554, 820, 409, 954, 1026
555, 895, 850, 1060, 1113
556, 1029, 1113, 895, 1225
557, 445, 447, 446, 894
558, 355, 1124, 899, 1152
559, 355, 375, 899, 1076
560, 333, 1000, 331, 1095
561, 599, 993, 605, 1178
562, 616, 1068, 889, 1167
563, 959, 1154, 903, 1166
564, 491, 1103, 467, 1247
565, 708, 1012, 889, 1041
566, 917, 925, 1093, 1212
567, 955, 1017, 207, 1179
568, 953, 997, 860, 1182
569, 760, 927, 831, 1035
570, 896, 997, 953, 1182
571, 1005, 1025, 898, 1236
572, 532, 911, 537, 1063
573, 578, 1053, 588, 1258
574, 162, 1112, 988, 1144
575, 850, 903, 1166, 1171
576, 934, 965, 882, 1268
577, 195, 914, 197, 1116
578, 920, 1112, 1010, 1239
579, 157, 946, 160, 1010
580, 806, 917, 794, 1104
581, 929, 1040, 553, 1114
582, 259, 1029, 988, 1140
583, 694, 1041, 915, 1202
584, 850, 933, 1225, 1227
585, 974, 1194, 882, 1196
586, 819, 1160, 1093, 1296
587, 223, 908, 168, 1059
588, 937, 1061, 991, 1278
589, 637, 1033, 638, 1053
590, 939, 1091, 948, 1197
591, 1064, 1119, 920, 1300
592, 586, 583, 502, 1030
593, 172, 909, 167, 1319
594, 891, 1287, 1007, 1309
595, 853, 1018, 989, 1084
596, 396, 635, 577, 1033
597, 851, 1136, 966, 1212
598, 854, 967, 906, 1055
599, 852, 1017, 955, 1179
600, 926, 1058, 910, 1138
601, 1011, 1092, 255, 1151
602, 934, 1196, 965, 1268
603, 563, 1058, 968, 1281
604, 965, 882, 1194, 1196
605, 195, 914, 1079, 1130
606, 769, 1021, 901, 1078
607, 943, 1071, 847, 1125
608, 902, 588, 1053, 1258
609, 400, 516, 485, 1122
610, 633, 656, 1092, 1318
611, 891, 1008, 913, 1259
612, 829, 981, 756, 1100
613, 771, 1078, 770, 1238
614, 855, 990, 1099, 1106
615, 212, 202, 1006, 1029
616, 913, 1008, 851, 1259
617, 511, 438, 468, 930
618, 1045, 1255, 977, 1307
619, 936, 878, 1064, 1119
620, 950, 1255, 1045, 1307
621, 166, 268, 1142, 1156
622, 160, 1010, 946, 1112
623, 167, 909, 172, 1140
624, 561, 972, 476, 994
625, 744, 703, 1069, 1123
626, 851, 966, 1136, 1259
627, 886, 1099, 990, 1106
628, 670, 134, 960, 1034
629, 526, 940, 532, 1063
630, 916, 923, 852, 1303
631, 864, 945, 970, 1134
632, 878, 1067, 952, 1163
633, 718, 1012, 1202, 1316
634, 361, 1147, 320, 1242
635, 216, 953, 215, 1073
636, 856, 960, 1022, 1049
637, 968, 1094, 627, 1281
638, 259, 173, 1065, 1140
639, 422, 424, 425, 905
640, 640, 581, 653, 978
641, 966, 1093, 925, 1212
642, 204, 267, 918, 1098
643, 536, 968, 983, 1232
644, 367, 389, 929, 1114
645, 450, 1105, 987, 1248
646, 933, 1016, 868, 1072
647, 172, 1073, 1083, 1319
648, 1008, 1146, 1051, 1315
649, 1021, 1122, 901, 1231
650, 981, 147, 1256, 1321
651, 851, 1201, 913, 1265
652, 991, 1061, 856, 1278
653, 1033, 1053, 556, 1250
654, 860, 900, 1009, 1083
655, 151, 168, 223, 908
656, 887, 1131, 1026, 1224
657, 909, 1140, 167, 1319
658, 890, 1114, 366, 1269
659, 886, 1106, 990, 1299
660, 776, 965, 949, 1080
661, 480, 476, 972, 998
662, 861, 949, 939, 1088
663, 1002, 1005, 446, 1323
664, 987, 1023, 450, 1248
665, 249, 978, 640, 1135
666, 467, 1007, 929, 1247
667, 902, 931, 1096, 1218
668, 1010, 1020, 920, 1239
669, 853, 1020, 989, 1037
670, 726, 942, 681, 1023
671, 204, 223, 267, 1098
672, 939, 1051, 1146, 1315
673, 172, 1083, 909, 1319
674, 992, 1004, 539, 1162
675, 949, 862, 1088, 1306
676, 424, 425, 905, 1063
677, 873, 1158, 1016, 1187
678, 714, 738, 739, 923
679, 425, 1063, 537, 1109
680, 714, 923, 739, 1006
681, 829, 804, 756, 981
682, 941, 1050, 850, 1227
683, 926, 1058, 857, 1173
684, 850, 941, 1113, 1304
685, 847, 1125, 921, 1233
686, 511, 930, 468, 1262
687, 292, 581, 249, 978
688, 894, 972, 1105, 1190
689, 606, 627, 1094, 1281
690, 989, 921, 1037, 1209
691, 1055, 1057, 957, 1329
692, 921, 1125, 952, 1233
693, 882, 1196, 934, 1246
694, 857, 968, 983, 1058
695, 899, 1076, 375, 1147
696, 951, 1185, 1004, 1213
697, 726, 681, 679, 1023
698, 961, 975, 328, 1120
699, 847, 952, 1125, 1233
700, 890, 863, 1043, 1269
701, 956, 996, 293, 1145
702, 903, 987, 942, 1200
703, 352, 359, 994, 1048
704, 926, 1094, 968, 1281
705, 166, 1046, 963, 1142
706, 644, 919, 1044, 1210
707, 616, 583, 1030, 1068
708, 608, 603, 1121, 1198
709, 383, 366, 384, 1269
710, 182, 971, 186, 1062
711, 900, 975, 860, 1274
712, 797, 1131, 954, 1139
713, 968, 1058, 926, 1281
714, 905, 1070, 422, 1290
715, 225, 305, 137, 956
716, 344, 1101, 1066, 1271
717, 693, 694, 692, 1202
718, 401, 669, 552, 998
719, 915, 1061, 1019, 1086
720, 917, 1093, 925, 1141
721, 532, 1063, 940, 1170
722, 851, 1051, 1201, 1265
723, 876, 907, 989, 1127
724, 803, 759, 769, 1122
725, 480, 972, 473, 1248
726, 882, 974, 1196, 1246
727, 787, 1253, 1104, 1267
728, 814, 1100, 949, 1238
729, 1055, 1257, 1057, 1329
730, 909, 1132, 1083, 1279
731, 707, 718, 1012, 1202
732, 520, 1039, 984, 1290
733, 721, 281, 1006, 1157
734, 556, 1033, 637, 1053
735, 850, 1032, 924, 1166
736, 776, 949, 965, 1174
737, 464, 1170, 948, 1214
738, 502, 583, 410, 1030
739, 978, 1082, 1081, 1121
740, 447, 894, 445, 1105
741, 946, 1010, 157, 1031
742, 1028, 1156, 896, 1176
743, 1066, 1101, 1038, 1271
744, 899, 972, 1047, 1152
745, 854, 906, 978, 1121
746, 854, 978, 927, 1081
747, 201, 895, 1049, 1298
748, 1008, 1259, 891, 1287
749, 192, 1155, 907, 1297
750, 834, 1081, 927, 1135
751, 367, 365, 389, 1114
752, 884, 1007, 1259, 1287
753, 289, 997, 370, 1009
754, 215, 1009, 217, 1073
755, 933, 850, 1050, 1227
756, 864, 963, 953, 1028
757, 687, 924, 689, 1326
758, 1092, 1178, 883, 1318
759, 864, 893, 1046, 1129
760, 628, 616, 587, 1075
761, 153, 168, 151, 1077
762, 891, 1000, 913, 1008
763, 422, 905, 425, 1109
764, 445, 1087, 987, 1105
765, 787, 981, 1253, 1267
766, 1019, 1061, 856, 1086
767, 349, 320, 1147, 1313
768, 934, 973, 782, 1139
769, 693, 1041, 694, 1202
770, 844, 914, 1084, 1099
771, 429, 928, 1039, 1240
772, 899, 972, 870, 1047
773, 985, 1064, 1060, 1300
774, 787, 938, 774, 1104
775, 458, 460, 459, 1170
776, 873, 984, 932, 1158
777, 467, 457, 929, 1040
778, 860, 1182, 997, 1252
779, 225, 288, 305, 1164
780, 868, 1016, 933, 1097
781, 261, 996, 956, 1164
782, 849, 1007, 940, 1287
783, 489, 925, 493, 1291
784, 726, 1166, 942, 1200
785, 654, 608, 614, 1222
786, 467, 1007, 457, 1040
787, 1064, 1270, 991, 1300
788, 702, 744, 1034, 1123
789, 895, 885, 1049, 1298
790, 679, 1023, 1126, 1220
791, 915, 856, 1019, 1061
792, 926, 1094, 606, 1310
793, 854, 1121, 922, 1149
794, 887, 1149, 983, 1232
795, 918, 1059, 855, 1088
796, 670, 715, 742, 960
797, 225, 137, 630, 956
798, 792, 802, 831, 1159
799, 853, 1037, 1018, 1226
800, 485, 1122, 1231, 1291
801, 1011, 1074, 859, 1318
802, 844, 1084, 914, 1206
803, 508, 352, 994, 1048
804, 606, 1094, 926, 1281
805, 929, 1007, 891, 1247
806, 515, 635, 396, 1033
807, 851, 938, 939, 1051
808, 524, 958, 1115, 1312
809, 442, 930, 1087, 1219
810, 1014, 1125, 958, 1128
811, 335, 334, 913, 1136
812, 849, 940, 1134, 1287
813, 417, 1090, 983, 1283
814, 670, 134, 232, 960
815, 869, 958, 921, 1181
816, 243, 1222, 1293, 1322
817, 913, 1008, 1000, 1176
818, 320, 1242, 1147, 1313
819, 861, 939, 938, 1051
820, 878, 991, 1061, 1064
821, 243, 1293, 967, 1322
822, 897, 1006, 720, 1186
823, 899, 986, 870, 1220
824, 330, 1000, 961, 1252
825, 855, 1059, 990, 1106
826, 863, 972, 994, 1152
827, 459, 532, 526, 940
828, 201, 1029, 895, 1298
829, 994, 1048, 359, 1152
830, 904, 1058, 505, 1115
831, 614, 1121, 978, 1222
832, 540, 539, 1004, 1162
833, 782, 973, 934, 1159
834, 192, 264, 1155, 1297
835, 484, 556, 1053, 1250
836, 851, 1141, 938, 1265
837, 1179, 1272, 916, 1313
838, 889, 1068, 708, 1167
839, 854, 973, 1056, 1149
840, 214, 1006, 202, 1065
841, 889, 1012, 708, 1068
842, 304, 217, 215, 1009
843, 537, 911, 532, 1170
844, 854, 1056, 973, 1192
845, 857, 983, 968, 1329
846, 927, 1035, 135, 1311
847, 642, 995, 618, 1075
848, 898, 1158, 1002, 1187
849, 905, 1063, 1045, 1255
850, 950, 853, 1255, 1307
851, 228, 135, 227, 927
852, 910, 1058, 926, 1173
853, 682, 1126, 897, 1186
854, 858, 1045, 1063, 1255
855, 698, 725, 1154, 1166
856, 575, 632, 254, 1011
857, 578, 402, 1053, 1258
858, 953, 963, 864, 1142
859, 1015, 1074, 952, 1125
860, 669, 678, 677, 998
861, 909, 1083, 1073, 1319
862, 227, 927, 135, 1311
863, 894, 1087, 445, 1105
864, 832, 836, 1035, 1107
865, 866, 1128, 935, 1325
866, 587, 578, 588, 1030
867, 856, 960, 1049, 1278
868, 957, 1121, 603, 1198
869, 580, 956, 137, 1036
870, 739, 923, 738, 1186
871, 151, 908, 223, 1098
872, 493, 925, 489, 1203
873, 851, 901, 976, 1315
874, 286, 1052, 190, 1151
875, 136, 804, 761, 981
876, 981, 1256, 1100, 1321
877, 720, 1006, 897, 1286
878, 169, 1073, 172, 1319
879, 1062, 1155, 186, 1239
880, 869, 1054, 1015, 1125
881, 849, 1000, 1176, 1182
882, 896, 1156, 1024, 1176
883, 1131, 1224, 887, 1282
884, 1187, 1227, 894, 1236
885, 192, 907, 1116, 1297
886, 898, 1040, 940, 1237
887, 845, 1016, 933, 1072
888, 1048, 1124, 353, 1152
889, 858, 1063, 1045, 1254
890, 635, 926, 636, 1033
891, 532, 940, 459, 1170
892, 410, 558, 1030, 1068
893, 919, 1044, 902, 1075
894, 353, 355, 378, 1152
895, 683, 942, 1032, 1126
896, 843, 936, 1119, 1181
897, 865, 1156, 1028, 1176
898, 670, 960, 742, 1034
899, 894, 1187, 1050, 1227
900, 951, 495, 1185, 1213
901, 1022, 1049, 960, 1275
902, 954, 1026, 887, 1131
903, 894, 1050, 941, 1227
904, 991, 1189, 937, 1278
905, 903, 1154, 725, 1166
906, 900, 860, 1009, 1274
907, 899, 1047, 980, 1152
908, 894, 972, 1047, 1105
909, 331, 1000, 330, 1252
910, 850, 942, 1032, 1166
911, 987, 1023, 942, 1200
912, 213, 1034, 285, 1069
913, 162, 988, 165, 1144
914, 898, 940, 1134, 1237
915, 817, 796, 806, 1141
916, 177, 1189, 1062, 1270
917, 896, 997, 1182, 1252
918, 529, 984, 522, 1042
919, 130, 255, 1011, 1092
920, 872, 950, 1003, 1175
921, 1045, 1063, 911, 1254
922, 460, 1170, 1007, 1244
923, 831, 1035, 927, 1159
924, 869, 952, 921, 1125
925, 849, 1237, 1040, 1309
926, 761, 145, 136, 981
927, 872, 1226, 1109, 1301
928, 424, 1063, 905, 1290
929, 971, 1062, 876, 1155
930, 397, 365, 367, 1114
931, 672, 1012, 545, 1068
932, 887, 954, 1149, 1232
933, 887, 1121, 922, 1282
934, 424, 905, 422, 1290
935, 941, 894, 1227, 1236
936, 597, 912, 599, 1178
937, 950, 853, 1226, 1255
938, 580, 630, 137, 956
939, 876, 907, 1127, 1155
940, 403, 1001, 801, 1207
941, 904, 1115, 866, 1325
942, 863, 1043, 1005, 1168
943, 978, 1121, 906, 1222
944, 937, 960, 856, 1278
945, 805, 226, 1035, 1234
946, 857, 1094, 926, 1173
947, 168, 1059, 908, 1077
948, 870, 972, 899, 998
949, 753, 827, 306, 1093
950, 306, 827, 374, 1093
951, 169, 172, 167, 1319
952, 177, 179, 1062, 1189
953, 774, 938, 787, 1238
954, 908, 1059, 918, 1088
955, 644, 919, 591, 1044
956, 935, 1128, 989, 1233
957, 866, 999, 905, 1070
958, 421, 1070, 999, 1115
959, 192, 1108, 907, 1155
960, 852, 1147, 980, 1242
961, 355, 1076, 899, 1124
962, 352, 313, 508, 994
963, 712, 1034, 915, 1123
964, 431, 928, 429, 1240
965, 157, 1031, 1010, 1297
966, 289, 304, 997, 1009
967, 853, 1018, 950, 1226
968, 425, 532, 537, 1063
969, 1000, 1095, 896, 1252
970, 218, 219, 199, 1059
971, 360, 343, 335, 1095
972, 958, 1181, 1133, 1240
973, 914, 990, 886, 1099
974, 494, 801, 403, 1001
975, 876, 1127, 989, 1233
976, 192, 907, 1108, 1116
977, 926, 1094, 912, 1173
978, 984, 1042, 1002, 1219
979, 916, 1245, 923, 1303
980, 640, 978, 653, 1135
981, 522, 1002, 507, 1042
982, 832, 1107, 1035, 1159
983, 935, 847, 1128, 1233
984, 903, 1154, 549, 1200
985, 891, 1008, 1287, 1309
986, 561, 508, 994, 1048
987, 1039, 1240, 888, 1290
988, 857, 1173, 1058, 1325
989, 850, 985, 930, 1171
990, 212, 895, 201, 1029
991, 852, 923, 1179, 1215
992, 850, 930, 985, 1050
993, 901, 1122, 769, 1141
994, 881, 1071, 943, 1125
995, 293, 996, 205, 1145
996, 906, 1121, 957, 1198
997, 303, 937, 1034, 1145
998, 984, 1042, 529, 1063
999, 967, 978, 906, 1293
1000, 876, 971, 952, 1119
1001, 136, 147, 224, 981
1002, 1038, 1066, 880, 1101
1003, 900, 955, 1083, 1279
1004, 450, 510, 551, 1248
1005, 943, 859, 1074, 1318
1006, 553, 467, 457, 929
1007, 921, 1020, 876, 1119
1008, 993, 1092, 605, 1178
1009, 1003, 1088, 862, 1306
1010, 895, 1022, 924, 1284
1011, 865, 1028, 963, 1129
1012, 510, 450, 1023, 1248
1013, 901, 862, 1021, 1231
1014, 943, 859, 1015, 1074
1015, 911, 1045, 905, 1063
1016, 586, 616, 583, 1030
1017, 883, 1074, 1011, 1318
1018, 188, 1073, 1009, 1083
1019, 867, 1207, 983, 1232
1020, 856, 1061, 991, 1064
1021, 212, 201, 895, 1157
1022, 721, 1157, 1006, 1286
1023, 872, 1003, 974, 1175
1024, 865, 1024, 1156, 1176
1025, 894, 1005, 1002, 1236
1026, 494, 758, 801, 1001
1027, 531, 465, 462, 1231
1028, 1013, 1118, 437, 1294
1029, 867, 1185, 1001, 1246
1030, 367, 492, 397, 929
1031, 856, 1022, 924, 1060
1032, 955, 1017, 900, 1083
1033, 427, 522, 529, 984
1034, 846, 1045, 1129, 1266
1035, 306, 374, 394, 1093
1036, 310, 370, 289, 997
1037, 857, 969, 983, 1329
1038, 656, 605, 1092, 1178
1039, 867, 954, 1207, 1232
1040, 202, 1029, 259, 1065
1041, 263, 1046, 166, 1142
1042, 899, 870, 998, 1220
1043, 899, 1047, 986, 1303
1044, 952, 971, 878, 1119
1045, 1060, 1064, 985, 1292
1046, 977, 1255, 853, 1307
1047, 269, 920, 260, 1144
1048, 291, 1272, 1179, 1313
1049, 852, 1179, 955, 1215
1050, 457, 553, 929, 1040
1051, 223, 908, 1059, 1098
1052, 730, 672, 545, 1068
1053, 862, 901, 1021, 1078
1054, 411, 1160, 565, 1296
1055, 846, 1027, 939, 1088
1056, 754, 573, 922, 1082
1057, 616, 1030, 587, 1075
1058, 935, 1127, 847, 1233
1059, 860, 997, 1120, 1252
1060, 1104, 1141, 917, 1265
1061, 169, 188, 172, 1073
1062, 1006, 895, 1113, 1286
1063, 1060, 1113, 850, 1225
1064, 954, 1131, 867, 1139
1065, 480, 557, 476, 998
1066, 850, 1166, 924, 1171
1067, 937, 1034, 960, 1278
1068, 772, 771, 770, 1238
1069, 920, 1020, 868, 1300
1070, 961, 1000, 849, 1182
1071, 837, 819, 764, 1296
1072, 986, 1220, 899, 1276
1073, 270, 182, 186, 1062
1074, 870, 941, 987, 1304
1075, 899, 1124, 1048, 1152
1076, 854, 1056, 969, 1149
1077, 1129, 1251, 1085, 1266
1078, 854, 1081, 922, 1121
1079, 776, 775, 949, 1174
1080, 817, 925, 1093, 1141
1081, 980, 1047, 899, 1303
1082, 457, 1007, 458, 1040
1083, 939, 948, 901, 1315
1084, 373, 393, 565, 1160
1085, 858, 932, 984, 1158
1086, 1005, 1043, 863, 1190
1087, 906, 871, 1055, 1079
1088, 972, 998, 476, 1048
1089, 487, 1007, 467, 1103
1090, 872, 1018, 974, 1249
1091, 1061, 1067, 936, 1163
1092, 867, 1090, 1185, 1246
1093, 918, 1088, 855, 1306
1094, 910, 1058, 1173, 1325
1095, 465, 948, 462, 1231
1096, 920, 868, 1020, 1112
1097, 773, 814, 949, 1238
1098, 969, 1055, 854, 1329
1099, 674, 544, 998, 1273
1100, 956, 293, 1036, 1145
1101, 843, 1064, 985, 1300
1102, 689, 959, 691, 1019
1103, 707, 718, 711, 1012
1104, 866, 1037, 905, 1226
1105, 739, 1006, 923, 1186
1106, 858, 984, 932, 1255
1107, 962, 239, 1241, 1308
1108, 817, 1093, 796, 1141
1109, 738, 923, 714, 1272
1110, 461, 1170, 464, 1214
1111, 918, 949, 861, 1088
1112, 718, 711, 1012, 1316
1113, 390, 1136, 1110, 1221
1114, 185, 944, 971, 1151
1115, 967, 1079, 914, 1130
1116, 961, 1000, 330, 1204
1117, 221, 1031, 1297, 1299
1118, 466, 1004, 538, 1214
1119, 800, 927, 228, 1135
1120, 915, 960, 937, 1034
1121, 852, 1047, 980, 1303
1122, 872, 1018, 999, 1226
1123, 260, 920, 269, 1112
1124, 847, 1127, 1074, 1233
1125, 360, 962, 343, 1095
1126, 847, 1102, 1074, 1127
1127, 904, 983, 969, 1111
1128, 347, 1160, 966, 1212
1129, 845, 933, 1016, 1187
1130, 887, 1224, 1026, 1282
1131, 534, 493, 925, 1291
1132, 217, 1009, 188, 1073
1133, 532, 911, 1063, 1170
1134, 504, 553, 1040, 1114
1135, 894, 987, 941, 1050
1136, 880, 1066, 1038, 1271
1137, 982, 1098, 1085, 1321
1138, 857, 1058, 983, 1325
1139, 935, 989, 1127, 1233
1140, 466, 1162, 1004, 1214
1141, 1028, 1117, 970, 1182
1142, 192, 1116, 229, 1297
1143, 950, 1175, 1084, 1307
1144, 150, 982, 1085, 1321
1145, 221, 258, 1031, 1299
1146, 860, 1120, 1182, 1252
1147, 164, 259, 988, 1140
1148, 875, 947, 990, 1196
1149, 370, 997, 345, 1009
1150, 270, 1062, 186, 1239
1151, 172, 1073, 188, 1083
1152, 401, 552, 570, 1248
1153, 886, 1084, 1175, 1307
1154, 970, 1028, 864, 1117
1155, 627, 1094, 968, 1229
1156, 984, 1039, 520, 1219
1157, 832, 789, 1107, 1159
1158, 612, 1033, 1150, 1223
1159, 534, 489, 493, 1291
1160, 832, 789, 836, 1107
1161, 865, 1028, 1129, 1146
1162, 850, 942, 987, 1304
1163, 902, 881, 1015, 1054
1164, 852, 1186, 923, 1215
1165, 435, 1004, 495, 1213
1166, 347, 348, 1160, 1212
1167, 212, 302, 201, 1157
1168, 286, 255, 1092, 1151
1169, 712, 915, 1034, 1280
1170, 924, 959, 903, 1166
1171, 218, 1059, 947, 1208
1172, 157, 159, 160, 946
1173, 953, 1028, 963, 1156
1174, 854, 969, 1056, 1324
1175, 425, 905, 1063, 1109
1176, 343, 1066, 962, 1271
1177, 644, 1044, 591, 1210
1178, 159, 160, 946, 1112
1179, 703, 1069, 1123, 1243
1180, 925, 976, 901, 1291
1181, 914, 1108, 871, 1206
1182, 588, 902, 1053, 1223
1183, 145, 274, 1241, 1267
1184, 866, 1018, 989, 1037
1185, 1074, 1102, 944, 1127
1186, 358, 394, 917, 1101
1187, 573, 661, 922, 1082
1188, 794, 806, 796, 917
1189, 689, 959, 1019, 1326
1190, 519, 1058, 563, 1281
1191, 928, 1118, 1137, 1235
1192, 358, 1066, 917, 1212
1193, 254, 632, 130, 1011
1194, 886, 1077, 1106, 1299
1195, 974, 1018, 872, 1175
1196, 533, 1058, 910, 1115
1197, 1074, 1127, 944, 1233
1198, 599, 912, 597, 1310
1199, 985, 1300, 885, 1327
1200, 852, 1186, 1215, 1264
1201, 963, 1085, 1129, 1251
1202, 920, 1112, 260, 1144
1203, 650, 1178, 656, 1318
1204, 958, 527, 1133, 1312
1205, 904, 1115, 505, 1283
1206, 886, 1295, 1084, 1307
1207, 649, 956, 644, 1210
1208, 545, 543, 730, 1068
1209, 773, 776, 775, 949
1210, 422, 420, 999, 1109
1211, 225, 1011, 288, 1164
1212, 147, 1098, 1256, 1321
1213, 626, 644, 649, 956
1214, 866, 1115, 958, 1128
1215, 958, 1128, 1115, 1312
1216, 468, 469, 1089, 1118
1217, 166, 963, 1046, 1251
1218, 145, 821, 143, 1038
1219, 390, 364, 1136, 1221
1220, 861, 949, 918, 1100
1221, 526, 1042, 940, 1063
1222, 412, 403, 954, 1207
1223, 1020, 1097, 868, 1300
1224, 1030, 1096, 889, 1218
1225, 427, 984, 520, 1219
1226, 761, 145, 981, 1267
1227, 1014, 1133, 527, 1312
1228, 599, 1094, 912, 1310
1229, 846, 1091, 1003, 1197
1230, 436, 527, 1014, 1133
1231, 914, 1079, 871, 1108
1232, 725, 1154, 903, 1200
1233, 230, 157, 1010, 1297
1234, 852, 979, 941, 1215
1235, 945, 977, 864, 1129
1236, 294, 1017, 207, 1083
1237, 344, 1038, 1101, 1271
1238, 984, 1063, 529, 1290
1239, 897, 1006, 1065, 1113
1240, 953, 1117, 1028, 1182
1241, 937, 856, 1061, 1278
1242, 519, 926, 1058, 1281
1243, 469, 437, 521, 1013
1244, 497, 572, 994, 1043
1245, 888, 1037, 905, 1070
1246, 877, 1123, 1069, 1243
1247, 221, 1297, 1116, 1299
1248, 847, 1125, 1071, 1128
1249, 188, 1009, 217, 1083
1250, 843, 936, 1064, 1119
1251, 533, 505, 1058, 1115
1252, 1020, 1112, 868, 1228
1253, 137, 956, 293, 1036
1254, 441, 983, 417, 1090
1255, 691, 1019, 959, 1202
1256, 415, 983, 1207, 1232
1257, 860, 997, 953, 1073
1258, 958, 1133, 1014, 1312
1259, 259, 170, 988, 1029
1260, 908, 855, 1059, 1088
1261, 204, 147, 1098, 1256
1262, 944, 1052, 187, 1108
1263, 166, 1046, 154, 1251
1264, 140, 923, 714, 1006
1265, 867, 1090, 1001, 1185
1266, 855, 990, 947, 1196
1267, 896, 1176, 1000, 1182
1268, 887, 957, 1121, 1282
1269, 619, 142, 584, 1036
1270, 984, 1039, 888, 1290
1271, 669, 401, 1023, 1248
1272, 630, 956, 649, 1210
1273, 533, 530, 433, 1115
1274, 923, 1006, 279, 1065
1275, 291, 1169, 1272, 1313
1276, 930, 1089, 903, 1171
1277, 145, 1038, 274, 1267
1278, 331, 332, 330, 1000
1279, 466, 948, 1162, 1214
1280, 814, 918, 833, 1080
1281, 844, 904, 1111, 1249
1282, 450, 987, 1087, 1262
1283, 677, 674, 552, 998
1284, 874, 1089, 930, 1171
1285, 876, 1127, 944, 1155
1286, 864, 1046, 963, 1129
1287, 888, 1039, 984, 1137
1288, 1116, 1297, 1031, 1299
1289, 1000, 1136, 334, 1221
1290, 870, 986, 1047, 1264
1291, 901, 1231, 1122, 1291
1292, 1109, 1213, 1091, 1214
1293, 905, 888, 1070, 1290
1294, 521, 1013, 437, 1294
1295, 776, 773, 814, 949
1296, 1004, 1091, 1213, 1214
1297, 952, 1163, 869, 1181
1298, 872, 1091, 1109, 1213
1299, 872, 974, 951, 1249
1300, 336, 1136, 1066, 1212
1301, 581, 978, 292, 1222
1302, 358, 917, 1066, 1101
1303, 468, 437, 469, 1118
1304, 287, 997, 215, 1217
1305, 238, 962, 239, 1241
1306, 497, 994, 363, 1043
1307, 986, 1047, 852, 1303
1308, 1038, 1241, 274, 1267
1309, 491, 487, 467, 1103
1310, 708, 1012, 672, 1068
1311, 311, 319, 133, 1017
1312, 834, 927, 800, 1135
1313, 918, 855, 1080, 1306
1314, 428, 524, 958, 1070
1315, 946, 977, 893, 1195
1316, 874, 985, 930, 1118
1317, 726, 942, 1023, 1200
1318, 775, 773, 949, 1078
1319, 984, 1039, 873, 1137
1320, 269, 920, 1144, 1270
1321, 978, 1222, 906, 1293
1322, 921, 952, 869, 1181
1323, 963, 1142, 953, 1156
1324, 440, 931, 1013, 1205
1325, 987, 1200, 903, 1262
1326, 919, 956, 859, 1210
1327, 1100, 1256, 1098, 1321
1328, 435, 540, 495, 1004
1329, 594, 943, 592, 1223
1330, 907, 876, 1010, 1155
1331, 893, 977, 946, 1307
1332, 875, 990, 914, 1099
1333, 341, 390, 364, 1136
1334, 1018, 1175, 974, 1249
1335, 890, 1193, 961, 1237
1336, 1085, 1098, 149, 1321
1337, 561, 476, 508, 1048
1338, 1062, 1189, 878, 1270
1339, 404, 508, 313, 994
1340, 910, 1014, 1071, 1138
1341, 197, 198, 990, 1130
1342, 397, 929, 553, 1114
1343, 977, 1228, 946, 1307
1344, 572, 994, 1043, 1190
1345, 150, 1085, 149, 1321
1346, 352, 359, 313, 994
1347, 848, 1163, 931, 1320
1348, 906, 1055, 967, 1079
1349, 983, 1058, 904, 1325
1350, 450, 987, 445, 1087
1351, 606, 627, 600, 1094
1352, 901, 1078, 938, 1141
1353, 904, 866, 1115, 1249
1354, 914, 1084, 886, 1116
1355, 852, 1186, 986, 1303
1356, 592, 594, 595, 943
1357, 683, 681, 942, 1126
1358, 537, 911, 1170, 1214
1359, 401, 998, 552, 1248
1360, 755, 253, 947, 1208
1361, 874, 985, 1118, 1235
1362, 849, 1000, 961, 1309
1363, 394, 917, 1093, 1212
1364, 941, 1215, 979, 1279
1365, 206, 1145, 180, 1189
1366, 1020, 1119, 921, 1209
1367, 466, 464, 948, 1214
1368, 943, 1015, 881, 1125
1369, 575, 633, 632, 1011
1370, 908, 1088, 918, 1098
1371, 544, 552, 674, 998
1372, 985, 1060, 885, 1300
1373, 683, 942, 685, 1032
1374, 858, 977, 945, 1045
1375, 898, 1025, 1168, 1237
1376, 725, 1166, 726, 1200
1377, 772, 770, 938, 1238
1378, 843, 985, 1064, 1292
1379, 853, 946, 1228, 1307
1380, 855, 974, 1003, 1106
1381, 869, 1133, 958, 1181
1382, 1033, 1053, 881, 1223
1383, 853, 1228, 977, 1307
1384, 851, 1008, 1051, 1315
1385, 952, 1015, 859, 1074
1386, 167, 172, 173, 1140
1387, 692, 694, 712, 915
1388, 940, 1063, 858, 1254
1389, 769, 770, 771, 1078
1390, 865, 963, 1027, 1129
1391, 953, 864, 1028, 1117
1392, 906, 871, 1079, 1322
1393, 524, 1070, 421, 1115
1394, 517, 813, 399, 992
1395, 327, 328, 975, 1120
1396, 852, 979, 1215, 1279
1397, 928, 1118, 1039, 1137
1398, 872, 1003, 950, 1301
1399, 861, 1098, 982, 1321
1400, 577, 635, 636, 1033
1401, 853, 1010, 946, 1031
1402, 151, 1085, 908, 1098
1403, 998, 899, 1220, 1276
1404, 934, 973, 1056, 1159
1405, 914, 990, 875, 1130
1406, 569, 1023, 450, 1262
1407, 502, 410, 558, 1030
1408, 538, 1004, 1213, 1214
1409, 813, 517, 757, 992
1410, 871, 935, 1102, 1257
1411, 238, 962, 1241, 1271
1412, 314, 362, 387, 1110
1413, 948, 976, 901, 1315
1414, 1169, 916, 1272, 1313
1415, 764, 411, 837, 1296
1416, 903, 1089, 549, 1154
1417, 597, 599, 605, 1178
1418, 554, 926, 515, 1033
1419, 534, 1122, 925, 1296
1420, 866, 989, 935, 1128
1421, 187, 186, 944, 1155
1422, 968, 1094, 857, 1229
1423, 844, 969, 1055, 1324
1424, 938, 1141, 1104, 1265
1425, 960, 1275, 1049, 1278
1426, 238, 239, 962, 1308
1427, 872, 1004, 1091, 1213
1428, 411, 565, 837, 1296
1429, 867, 954, 1139, 1207
1430, 918, 949, 1088, 1306
1431, 772, 774, 787, 1238
1432, 854, 1056, 1192, 1324
1433, 189, 953, 216, 1073
1434, 891, 1007, 929, 1309
1435, 946, 893, 1046, 1195
1436, 591, 644, 593, 919
1437, 903, 1200, 549, 1262
1438, 1081, 1082, 922, 1121
1439, 1056, 1159, 973, 1192
1440, 140, 714, 923, 1272
1441, 533, 433, 505, 1115
1442, 258, 1077, 1031, 1299
1443, 860, 1009, 997, 1073
1444, 707, 1012, 1041, 1202
1445, 474, 1054, 931, 1205
1446, 180, 1145, 996, 1189
1447, 852, 986, 1186, 1264
1448, 866, 1070, 958, 1115
1449, 935, 1173, 1102, 1257
1450, 875, 1099, 914, 1324
1451, 650, 656, 633, 1318
1452, 331, 339, 1095, 1252
1453, 691, 959, 1183, 1202
1454, 878, 1061, 936, 1064
1455, 160, 1010, 1112, 1239
1456, 859, 1074, 1011, 1151
1457, 1099, 1106, 886, 1175
1458, 1000, 1008, 891, 1309
1459, 874, 936, 1013, 1086
1460, 754, 922, 573, 1224
1461, 427, 984, 529, 1290
1462, 1026, 1131, 798, 1224
1463, 1027, 1129, 1085, 1266
1464, 895, 924, 1032, 1284
1465, 269, 260, 175, 1144
1466, 830, 918, 814, 1100
1467, 191, 187, 1052, 1108
1468, 854, 1192, 927, 1293
1469, 545, 1012, 558, 1068
1470, 498, 1026, 1177, 1232
1471, 950, 1226, 1045, 1255
1472, 951, 974, 882, 1246
1473, 871, 906, 1055, 1057
1474, 867, 934, 973, 1056
1475, 975, 1132, 1025, 1317
1476, 712, 702, 1034, 1123
1477, 933, 985, 873, 1050
1478, 440, 1013, 931, 1180
1479, 989, 1037, 921, 1330
1480, 575, 225, 630, 1011
1481, 409, 498, 412, 954
1482, 517, 757, 992, 1021
1483, 918, 1080, 949, 1306
1484, 925, 1093, 966, 1160
1485, 857, 968, 1229, 1329
1486, 793, 1081, 834, 1135
1487, 1084, 1099, 886, 1175
1488, 492, 553, 397, 929
1489, 945, 1045, 977, 1129
1490, 855, 974, 1106, 1175
1491, 691, 959, 719, 1183
1492, 930, 873, 985, 1050
1493, 548, 728, 1154, 1183
1494, 949, 775, 1078, 1174
1495, 1008, 1028, 865, 1146
1496, 889, 995, 1041, 1143
1497, 857, 1229, 1094, 1329
1498, 971, 1062, 878, 1119
1499, 941, 1050, 987, 1304
1500, 745, 1157, 1022, 1275
1501, 873, 985, 933, 1097
1502, 442, 930, 443, 1087
1503, 520, 984, 427, 1290
1504, 741, 702, 744, 1034
1505, 269, 1144, 175, 1270
1506, 466, 948, 465, 1231
1507, 944, 971, 876, 1155
1508, 1013, 1086, 936, 1199
1509, 961, 1193, 849, 1237
1510, 466, 1162, 948, 1231
1511, 657, 906, 1161, 1198
1512, 268, 953, 1142, 1156
1513, 854, 978, 967, 1293
1514, 861, 1051, 938, 1253
1515, 326, 1147, 980, 1152
1516, 961, 1182, 1120, 1252
1517, 939, 1051, 1027, 1146
1518, 129, 368, 310, 997
1519, 852, 1047, 986, 1264
1520, 901, 976, 948, 1231
1521, 870, 1126, 1023, 1220
1522, 450, 1023, 987, 1262
1523, 902, 1015, 881, 1223
1524, 934, 882, 1216, 1268
1525, 431, 1133, 928, 1240
1526, 897, 1065, 923, 1215
1527, 1003, 1106, 974, 1175
1528, 494, 758, 1001, 1165
1529, 150, 1085, 982, 1184
1530, 173, 955, 208, 1065
1531, 421, 423, 422, 1070
1532, 913, 1000, 891, 1136
1533, 206, 937, 1145, 1189
1534, 1015, 1054, 881, 1125
1535, 722, 1157, 745, 1275
1536, 534, 925, 1122, 1291
1537, 953, 896, 1028, 1156
1538, 608, 906, 657, 1198
1539, 466, 464, 465, 948
1540, 903, 959, 924, 1171
1541, 915, 692, 1202, 1280
1542, 479, 548, 1154, 1183
1543, 1025, 1132, 975, 1193
1544, 525, 427, 520, 1219
1545, 801, 797, 762, 954
1546, 598, 599, 597, 1310
1547, 498, 954, 409, 1026
1548, 934, 1056, 875, 1159
1549, 344, 1066, 343, 1271
1550, 685, 942, 726, 1166
1551, 386, 347, 348, 1160
1552, 660, 585, 840, 1135
1553, 861, 939, 1027, 1088
1554, 888, 928, 1181, 1240
1555, 367, 492, 929, 1247
1556, 688, 924, 687, 1326
1557, 999, 1115, 866, 1249
1558, 830, 833, 814, 918
1559, 368, 997, 129, 1172
1560, 859, 956, 919, 1277
1561, 635, 926, 515, 1281
1562, 871, 1052, 993, 1102
1563, 942, 1023, 870, 1126
1564, 807, 1080, 947, 1107
1565, 351, 916, 349, 1147
1566, 578, 1030, 402, 1258
1567, 947, 990, 855, 1059
1568, 782, 934, 1107, 1159
1569, 851, 1212, 917, 1265
1570, 875, 1159, 1056, 1192
1571, 423, 422, 1070, 1290
1572, 158, 221, 258, 1031
1573, 1093, 1160, 348, 1212
1574, 920, 868, 1112, 1327
1575, 844, 1055, 969, 1206
1576, 868, 964, 988, 1072
1577, 797, 783, 1131, 1139
1578, 290, 1069, 1036, 1145
1579, 854, 927, 978, 1293
1580, 894, 1002, 1187, 1236
1581, 847, 921, 1125, 1128
1582, 810, 1100, 814, 1238
1583, 907, 1116, 1084, 1206
1584, 865, 1028, 1008, 1176
1585, 739, 720, 1006, 1186
1586, 989, 1084, 935, 1127
1587, 991, 878, 1189, 1270
1588, 854, 967, 1192, 1293
1589, 712, 915, 694, 1123
1590, 287, 215, 216, 1217
1591, 163, 1140, 964, 1319
1592, 189, 216, 215, 1073
1593, 626, 956, 580, 1036
1594, 429, 1039, 520, 1240
1595, 919, 1044, 859, 1320
1596, 179, 1062, 1189, 1263
1597, 846, 939, 1027, 1146
1598, 373, 318, 393, 1160
1599, 973, 1081, 784, 1131
1600, 940, 1040, 898, 1285
1601, 963, 1046, 893, 1129
1602, 1065, 1179, 923, 1215
1603, 691, 689, 719, 959
1604, 213, 1069, 290, 1145
1605, 783, 782, 973, 1139
1606, 960, 1034, 233, 1278
1607, 497, 404, 363, 994
1608, 192, 229, 264, 1297
1609, 185, 187, 186, 944
1610, 930, 1039, 873, 1219
1611, 968, 983, 887, 1329
1612, 212, 202, 214, 1006
1613, 979, 1132, 900, 1317
1614, 920, 1112, 1144, 1327
1615, 679, 678, 669, 1220
1616, 517, 1021, 992, 1162
1617, 203, 218, 199, 1234
1618, 973, 1131, 783, 1139
1619, 657, 906, 608, 1222
1620, 849, 1008, 1176, 1309
1621, 1061, 1086, 915, 1288
1622, 841, 1026, 798, 1224
1623, 999, 1109, 420, 1213
1624, 867, 983, 969, 1149
1625, 267, 1059, 218, 1208
1626, 820, 762, 798, 954
1627, 784, 1081, 791, 1131
1628, 665, 715, 256, 1275
1629, 912, 1071, 943, 1150
1630, 963, 865, 1027, 1184
1631, 898, 1025, 1005, 1168
1632, 955, 1179, 1065, 1215
1633, 545, 558, 543, 1068
1634, 685, 683, 681, 942
1635, 688, 687, 689, 1326
1636, 896, 1000, 961, 1182
1637, 688, 1166, 924, 1284
1638, 830, 833, 918, 1256
1639, 1028, 1146, 1008, 1287
1640, 864, 963, 1028, 1129
1641, 474, 439, 1054, 1205
1642, 1018, 1084, 950, 1175
1643, 1011, 1074, 883, 1151
1644, 922, 1224, 1131, 1282
1645, 890, 1168, 1025, 1237
1646, 539, 517, 992, 1162
1647, 415, 983, 1090, 1207
1648, 721, 281, 280, 1006
1649, 798, 1026, 954, 1131
1650, 915, 1034, 937, 1191
1651, 569, 1200, 1023, 1262
1652, 739, 738, 697, 1186
1653, 871, 993, 1057, 1102
1654, 893, 1251, 1129, 1266
1655, 589, 590, 591, 1044
1656, 269, 1112, 920, 1239
1657, 537, 1109, 911, 1214
1658, 961, 1182, 849, 1193
1659, 692, 915, 712, 1280
1660, 953, 997, 896, 1217
1661, 784, 1081, 973, 1159
1662, 847, 952, 1074, 1125
1663, 856, 1060, 924, 1292
1664, 190, 1052, 944, 1151
1665, 874, 1013, 936, 1302
1666, 1041, 1143, 915, 1288
1667, 897, 1113, 1065, 1215
1668, 495, 951, 418, 1213
1669, 815, 992, 757, 1021
1670, 746, 960, 715, 1275
1671, 1059, 1080, 947, 1208
1672, 897, 1006, 1113, 1286
1673, 620, 1036, 1069, 1188
1674, 882, 1004, 951, 1185
1675, 466, 540, 538, 1004
1676, 782, 934, 780, 1107
1677, 643, 1011, 630, 1210
1678, 1102, 1173, 1057, 1257
1679, 1133, 1181, 928, 1240
1680, 730, 708, 672, 1068
1681, 870, 987, 942, 1304
1682, 494, 514, 758, 1165
1683, 856, 915, 1019, 1280
1684, 641, 573, 824, 1082
1685, 754, 824, 573, 1082
1686, 959, 1086, 874, 1305
1687, 907, 871, 1108, 1206
1688, 853, 946, 1010, 1228
1689, 303, 206, 937, 1145
1690, 859, 1067, 919, 1320
1691, 798, 820, 954, 1026
1692, 741, 712, 702, 1034
1693, 519, 506, 563, 1058
1694, 794, 917, 753, 1101
1695, 935, 1127, 1084, 1206
1696, 853, 1010, 1020, 1228
1697, 145, 1241, 981, 1267
1698, 879, 941, 1113, 1227
1699, 1010, 1031, 853, 1295
1700, 202, 259, 222, 1065
1701, 772, 938, 774, 1238
1702, 995, 1123, 1041, 1143
1703, 897, 1032, 942, 1126
1704, 855, 1106, 1099, 1175
1705, 961, 890, 975, 1193
1706, 754, 922, 842, 1082
1707, 887, 983, 968, 1232
1708, 345, 1009, 997, 1120
1709, 863, 975, 1025, 1317
1710, 879, 1065, 955, 1140
1711, 751, 708, 1068, 1167
1712, 1147, 1242, 1017, 1313
1713, 209, 290, 1036, 1145
1714, 429, 520, 426, 1240
1715, 196, 967, 262, 1130
1716, 694, 915, 1041, 1123
1717, 320, 1017, 1242, 1313
1718, 806, 1104, 774, 1141
1719, 725, 903, 1166, 1200
1720, 312, 962, 138, 1271
1721, 947, 1059, 855, 1080
1722, 1110, 1136, 891, 1221
1723, 660, 840, 298, 1135
1724, 1000, 1176, 1008, 1309
1725, 897, 1006, 923, 1065
1726, 1115, 1128, 910, 1312
1727, 642, 618, 628, 1075
1728, 868, 932, 1016, 1097
1729, 1022, 1157, 745, 1284
1730, 843, 1235, 985, 1292
1731, 913, 1201, 1066, 1265
1732, 234, 963, 152, 1085
1733, 415, 528, 983, 1232
1734, 915, 877, 1034, 1191
1735, 972, 1048, 994, 1152
1736, 442, 438, 443, 930
1737, 688, 686, 1166, 1284
1738, 572, 404, 497, 994
1739, 898, 1285, 1168, 1323
1740, 493, 534, 925, 1296
1741, 536, 1177, 968, 1232
1742, 905, 1037, 866, 1070
1743, 259, 173, 222, 1065
1744, 595, 943, 594, 1150
1745, 918, 1088, 861, 1098
1746, 921, 1119, 952, 1181
1747, 912, 1094, 926, 1310
1748, 815, 992, 1021, 1174
1749, 1002, 1042, 984, 1158
1750, 446, 1002, 444, 1087
1751, 861, 908, 1027, 1098
1752, 876, 1062, 971, 1119
1753, 289, 370, 346, 1009
1754, 885, 991, 1270, 1300
1755, 440, 1205, 1013, 1294
1756, 963, 1027, 1085, 1184
1757, 687, 924, 688, 1166
1758, 717, 746, 1022, 1280
1759, 807, 835, 947, 1080
1760, 930, 1089, 874, 1118
1761, 619, 250, 142, 1036
1762, 897, 1113, 1032, 1286
1763, 844, 1055, 1206, 1324
1764, 303, 1034, 213, 1145
1765, 194, 195, 197, 1116
1766, 861, 1027, 939, 1051
1767, 685, 1032, 942, 1166
1768, 978, 1135, 245, 1293
1769, 192, 1108, 194, 1116
1770, 715, 960, 232, 1275
1771, 195, 196, 262, 1130
1772, 951, 1004, 872, 1213
1773, 1084, 1116, 914, 1206
1774, 620, 1188, 1069, 1243
1775, 875, 914, 1130, 1324
1776, 177, 178, 1189, 1270
1777, 853, 932, 1020, 1037
1778, 284, 303, 206, 937
1779, 1041, 1123, 915, 1143
1780, 592, 1044, 943, 1318
1781, 649, 630, 580, 956
1782, 321, 1242, 1153, 1274
1783, 555, 1168, 513, 1190
1784, 514, 818, 758, 1165
1785, 876, 944, 1127, 1233
1786, 507, 1042, 1002, 1323
1787, 874, 1013, 928, 1118
1788, 415, 1207, 528, 1232
1789, 335, 337, 336, 1066
1790, 907, 1127, 871, 1206
1791, 867, 1131, 973, 1139
1792, 960, 1022, 746, 1280
1793, 216, 953, 268, 1156
1794, 1012, 892, 1202, 1316
1795, 873, 1097, 932, 1137
1796, 449, 446, 1005, 1323
1797, 969, 1257, 1055, 1329
1798, 334, 332, 333, 1000
1799, 856, 1049, 991, 1278
1800, 1186, 1245, 986, 1303
1801, 1005, 1168, 1043, 1190
1802, 1143, 1191, 915, 1288
1803, 164, 259, 170, 988
1804, 665, 746, 715, 1275
1805, 230, 157, 160, 1010
1806, 844, 935, 1084, 1206
1807, 244, 967, 243, 1293
1808, 332, 330, 1000, 1204
1809, 499, 498, 1026, 1177
1810, 943, 594, 1150, 1223
1811, 850, 985, 933, 1050
1812, 1001, 1139, 867, 1246
1813, 187, 944, 190, 1052
1814, 349, 916, 351, 1328
1815, 153, 155, 1077, 1314
1816, 142, 584, 1036, 1069
1817, 865, 1129, 1027, 1146
1818, 943, 1044, 592, 1223
1819, 163, 964, 162, 1260
1820, 538, 1004, 435, 1213
1821, 849, 1028, 1176, 1287
1822, 738, 1245, 1186, 1272
1823, 185, 186, 182, 971
1824, 1060, 1064, 885, 1300
1825, 332, 1000, 334, 1221
1826, 742, 712, 1034, 1280
1827, 778, 965, 776, 1080
1828, 1033, 881, 1150, 1223
1829, 657, 1161, 631, 1198
1830, 369, 310, 368, 997
1831, 327, 328, 325, 975
1832, 158, 1031, 157, 1297
1833, 133, 319, 251, 1017
1834, 928, 1133, 431, 1294
1835, 860, 1120, 961, 1182
1836, 919, 902, 1044, 1320
1837, 785, 784, 791, 1131
1838, 774, 1104, 938, 1141
1839, 279, 923, 140, 1006
1840, 479, 1183, 1154, 1305
1841, 204, 918, 267, 1256
1842, 405, 968, 579, 1281
1843, 740, 721, 666, 1006
1844, 557, 476, 998, 1048
1845, 963, 1085, 234, 1184
1846, 854, 1055, 969, 1324
1847, 172, 207, 955, 1083
1848, 153, 1077, 1251, 1314
1849, 864, 977, 1016, 1195
1850, 860, 1009, 1073, 1083
1851, 910, 1128, 1014, 1312
1852, 883, 943, 1074, 1318
1853, 555, 1043, 1168, 1190
1854, 956, 1036, 919, 1277
1855, 460, 458, 487, 1007
1856, 894, 987, 1087, 1105
1857, 289, 129, 310, 997
1858, 864, 1028, 945, 1129
1859, 974, 1111, 951, 1249
1860, 575, 254, 225, 1011
1861, 593, 919, 644, 1188
1862, 1008, 1176, 1028, 1287
1863, 1097, 1300, 985, 1327
1864, 781, 934, 782, 1139
1865, 245, 292, 249, 978
1866, 305, 261, 293, 956
1867, 920, 1119, 1020, 1300
1868, 341, 1110, 390, 1136
1869, 792, 927, 834, 1081
1870, 966, 1160, 1093, 1212
1871, 1153, 1242, 900, 1274
1872, 1103, 1110, 891, 1247
1873, 221, 1031, 158, 1297
1874, 472, 1105, 972, 1190
1875, 946, 1031, 157, 1314
1876, 918, 1100, 830, 1256
1877, 918, 1080, 1059, 1208
1878, 922, 1081, 854, 1149
1879, 360, 962, 1095, 1211
1880, 912, 993, 1057, 1198
1881, 644, 591, 607, 1210
1882, 843, 1020, 1119, 1300
1883, 1095, 1176, 1024, 1201
1884, 631, 1161, 993, 1198
1885, 859, 971, 952, 1074
1886, 1003, 1266, 950, 1301
1887, 963, 1085, 1027, 1129
1888, 738, 1186, 923, 1272
1889, 962, 880, 1201, 1241
1890, 363, 404, 313, 994
1891, 859, 919, 1067, 1277
1892, 874, 1086, 1013, 1305
1893, 919, 859, 1044, 1210
1894, 1146, 1197, 939, 1315
1895, 216, 268, 272, 1156
1896, 206, 284, 937, 1189
1897, 358, 342, 1066, 1212
1898, 363, 994, 382, 1043
1899, 871, 1102, 1057, 1257
1900, 951, 1111, 974, 1246
1901, 1096, 1143, 1041, 1288
1902, 491, 1110, 1103, 1247
1903, 861, 1027, 908, 1088
1904, 898, 1040, 1168, 1285
1905, 721, 280, 666, 1006
1906, 713, 669, 401, 1023
1907, 895, 1049, 1022, 1157
1908, 602, 600, 627, 1094
1909, 881, 1015, 943, 1223
1910, 855, 1088, 908, 1106
1911, 602, 957, 601, 1094
1912, 281, 212, 1006, 1157
1913, 333, 332, 331, 1000
1914, 846, 1088, 1003, 1266
1915, 242, 191, 1052, 1079
1916, 303, 937, 284, 1278
1917, 868, 1072, 1016, 1289
1918, 859, 996, 971, 1164
1919, 850, 1050, 941, 1304
1920, 1022, 1280, 1019, 1326
1921, 848, 1191, 1143, 1288
1922, 858, 1134, 940, 1254
1923, 287, 129, 997, 1172
1924, 952, 1119, 921, 1233
1925, 1003, 1106, 950, 1266
1926, 707, 1012, 708, 1041
1927, 922, 1131, 887, 1282
1928, 602, 1094, 627, 1229
1929, 816, 1021, 769, 1078
1930, 876, 1020, 920, 1119
1931, 829, 787, 981, 1100
1932, 935, 1102, 847, 1127
1933, 1002, 1158, 984, 1219
1934, 633, 656, 632, 1092
1935, 848, 1143, 1096, 1288
1936, 267, 918, 1059, 1208
1937, 1001, 1216, 1139, 1246
1938, 962, 1241, 1201, 1308
1939, 918, 1059, 908, 1098
1940, 875, 990, 1099, 1196
1941, 969, 983, 867, 1111
1942, 440, 1180, 931, 1218
1943, 912, 1057, 1094, 1198
1944, 831, 834, 792, 927
1945, 423, 424, 422, 1290
1946, 184, 1164, 971, 1263
1947, 941, 979, 852, 1047
1948, 832, 836, 805, 1035
1949, 844, 1206, 969, 1257
1950, 884, 940, 1007, 1287
1951, 969, 1206, 1055, 1257
1952, 852, 980, 1147, 1303
1953, 867, 1056, 973, 1149
1954, 849, 1176, 1028, 1182
1955, 636, 635, 606, 926
1956, 796, 753, 917, 1093
1957, 804, 828, 761, 981
1958, 912, 1102, 993, 1178
1959, 850, 1032, 942, 1304
1960, 1022, 1157, 1049, 1275
1961, 742, 1034, 960, 1280
1962, 853, 1084, 989, 1295
1963, 881, 902, 1053, 1054
1964, 451, 513, 1168, 1190
1965, 855, 1099, 974, 1175
1966, 970, 1025, 898, 1237
1967, 289, 304, 129, 997
1968, 569, 510, 450, 1023
1969, 883, 993, 1102, 1178
1970, 874, 928, 1013, 1302
1971, 1019, 1022, 856, 1280
1972, 915, 1086, 1019, 1288
1973, 394, 1093, 348, 1212
1974, 996, 1145, 956, 1277
1975, 768, 1141, 1122, 1296
1976, 1081, 1159, 927, 1192
1977, 472, 447, 1105, 1190
1978, 966, 1110, 341, 1136
1979, 657, 1161, 906, 1222
1980, 1019, 1202, 692, 1280
1981, 942, 987, 870, 1023
1982, 859, 1044, 1015, 1320
1983, 1031, 1077, 155, 1314
1984, 752, 1123, 995, 1243
1985, 906, 1079, 967, 1322
1986, 857, 969, 1257, 1325
1987, 258, 155, 1031, 1077
1988, 473, 480, 476, 972
1989, 921, 1181, 958, 1330
1990, 298, 640, 660, 1135
1991, 176, 282, 991, 1298
1992, 549, 1089, 903, 1262
1993, 1080, 1107, 807, 1268
1994, 871, 907, 1108, 1127
1995, 850, 987, 1050, 1304
1996, 415, 983, 441, 1090
1997, 916, 705, 1245, 1328
1998, 903, 1089, 930, 1262
1999, 343, 337, 335, 1066
2000, 847, 1102, 935, 1173
2001, 867, 973, 934, 1139
2002, 345, 370, 310, 997
2003, 871, 914, 1055, 1079
2004, 422, 523, 420, 1109
2005, 943, 1015, 859, 1044
2006, 882, 965, 1261, 1268
2007, 980, 863, 1148, 1152
2008, 891, 1110, 1103, 1203
2009, 978, 1082, 653, 1135
2010, 938, 1051, 851, 1265
2011, 435, 538, 540, 1004
2012, 953, 1073, 189, 1142
2013, 856, 1022, 1019, 1326
2014, 428, 1070, 958, 1240
2015, 416, 418, 951, 1283
2016, 869, 1014, 958, 1133
2017, 913, 1176, 1095, 1201
2018, 1090, 951, 1185, 1246
2019, 892, 959, 1086, 1202
2020, 876, 920, 1020, 1239
2021, 871, 1055, 914, 1206
2022, 665, 722, 745, 1275
2023, 891, 966, 1110, 1203
2024, 879, 1113, 1225, 1227
2025, 876, 1020, 1010, 1239
2026, 715, 232, 256, 1275
2027, 419, 505, 1115, 1283
2028, 908, 1085, 1027, 1098
2029, 244, 196, 243, 967
2030, 773, 810, 814, 1238
2031, 368, 369, 997, 1172
2032, 890, 1025, 975, 1193
2033, 431, 1118, 928, 1294
2034, 687, 688, 686, 1166
2035, 791, 1081, 922, 1131
2036, 894, 941, 1047, 1236
2037, 661, 922, 1082, 1121
2038, 1007, 1040, 940, 1285
2039, 846, 1266, 1003, 1301
2040, 794, 917, 1101, 1104
2041, 918, 1208, 267, 1256
2042, 988, 1029, 879, 1140
2043, 387, 341, 966, 1110
2044, 1072, 909, 1132, 1289
2045, 891, 1136, 966, 1259
2046, 625, 573, 661, 922
2047, 661, 609, 922, 1121
2048, 843, 1181, 1119, 1209
2049, 744, 673, 710, 1069
2050, 615, 978, 614, 1121
2051, 960, 1034, 915, 1280
2052, 1119, 1181, 921, 1209
2053, 558, 1012, 478, 1218
2054, 924, 1019, 959, 1326
2055, 192, 187, 1108, 1155
2056, 882, 1261, 1216, 1268
2057, 205, 996, 180, 1145
2058, 349, 1147, 916, 1313
2059, 333, 331, 339, 1095
2060, 177, 178, 179, 1189
2061, 416, 951, 418, 1185
2062, 721, 1006, 740, 1286
2063, 382, 1043, 994, 1148
2064, 908, 1251, 1077, 1266
2065, 904, 983, 1090, 1283
2066, 649, 580, 626, 956
2067, 474, 931, 1054, 1258
2068, 782, 781, 780, 934
2069, 199, 990, 198, 1234
2070, 166, 152, 234, 963
2071, 844, 1056, 969, 1324
2072, 268, 953, 189, 1142
2073, 245, 978, 249, 1135
2074, 416, 951, 1090, 1283
2075, 995, 1075, 889, 1167
2076, 833, 1080, 918, 1208
2077, 440, 475, 1180, 1218
2078, 325, 975, 328, 1269
2079, 994, 1148, 863, 1152
2080, 440, 931, 474, 1218
2081, 519, 926, 554, 1138
2082, 593, 1075, 919, 1188
2083, 1037, 1209, 921, 1330
2084, 439, 436, 455, 1205
2085, 845, 1072, 1132, 1289
2086, 1040, 504, 1114, 1168
2087, 282, 1049, 991, 1298
2088, 939, 1146, 846, 1197
2089, 1019, 1086, 959, 1202
2090, 294, 1017, 1083, 1153
2091, 166, 263, 154, 1046
2092, 988, 1072, 964, 1140
2093, 858, 945, 1134, 1254
2094, 173, 172, 207, 955
2095, 424, 529, 1063, 1290
2096, 415, 441, 417, 1090
2097, 493, 1160, 925, 1203
2098, 131, 1157, 722, 1275
2099, 910, 847, 1071, 1128
2100, 891, 1103, 1007, 1259
2101, 595, 592, 943, 1318
2102, 696, 745, 1157, 1284
2103, 815, 1021, 816, 1174
2104, 701, 709, 752, 995
2105, 182, 184, 971, 1263
2106, 474, 931, 440, 1205
2107, 915, 1202, 1019, 1280
2108, 705, 916, 736, 1328
2109, 339, 1172, 1095, 1252
2110, 940, 1063, 911, 1170
2111, 629, 139, 296, 1161
2112, 449, 1005, 1168, 1323
2113, 741, 744, 710, 1034
2114, 844, 914, 1099, 1324
2115, 718, 1183, 711, 1316
2116, 869, 1014, 1054, 1125
2117, 1052, 1079, 871, 1322
2118, 870, 1047, 972, 1105
2119, 867, 1131, 954, 1149
2120, 933, 1097, 985, 1327
2121, 918, 855, 1059, 1080
2122, 228, 141, 800, 1135
2123, 1003, 1091, 846, 1301
2124, 845, 1016, 1158, 1187
2125, 585, 823, 840, 1135
2126, 849, 1040, 1007, 1309
2127, 930, 985, 874, 1171
2128, 889, 1041, 1096, 1143
2129, 450, 1087, 443, 1262
2130, 936, 869, 1163, 1181
2131, 554, 515, 396, 1033
2132, 871, 1102, 935, 1127
2133, 210, 1179, 1017, 1313
2134, 746, 1022, 960, 1275
2135, 908, 1059, 855, 1106
2136, 416, 1090, 951, 1185
2137, 915, 1143, 1123, 1191
2138, 613, 556, 637, 1053
2139, 218, 947, 253, 1208
2140, 166, 963, 234, 1156
2141, 860, 975, 1132, 1193
2142, 969, 1149, 983, 1329
2143, 847, 1074, 952, 1233
2144, 358, 306, 394, 1101
2145, 903, 1089, 959, 1171
2146, 911, 1063, 940, 1254
2147, 925, 1203, 976, 1291
2148, 791, 922, 799, 1131
2149, 685, 681, 726, 942
2150, 959, 1089, 874, 1171
2151, 916, 1169, 736, 1328
2152, 885, 1064, 991, 1300
2153, 145, 146, 981, 1241
2154, 538, 1213, 1109, 1214
2155, 1186, 1245, 923, 1272
2156, 844, 974, 1175, 1249
2157, 876, 1119, 952, 1233
2158, 1088, 1106, 1003, 1266
2159, 161, 1046, 1142, 1260
2160, 849, 1193, 1182, 1237
2161, 586, 402, 578, 1030
2162, 859, 971, 1074, 1151
2163, 976, 1231, 901, 1291
2164, 191, 187, 190, 1052
2165, 856, 1019, 924, 1326
2166, 165, 162, 164, 988
2167, 537, 532, 461, 1170
2168, 619, 580, 250, 1036
2169, 884, 1007, 1103, 1259
2170, 191, 1052, 1079, 1108
2171, 138, 962, 312, 1211
2172, 197, 198, 199, 990
2173, 208, 1065, 955, 1179
2174, 884, 1007, 1170, 1244
2175, 230, 158, 157, 1297
2176, 870, 1264, 941, 1304
2177, 784, 783, 782, 973
2178, 592, 1210, 1044, 1318
2179, 654, 614, 978, 1222
2180, 595, 1150, 596, 1178
2181, 844, 1099, 1084, 1175
2182, 892, 1086, 959, 1305
2183, 1091, 1162, 948, 1214
2184, 912, 1150, 943, 1178
2185, 972, 899, 1048, 1152
2186, 855, 1099, 990, 1196
2187, 216, 189, 268, 953
2188, 540, 1004, 466, 1162
2189, 922, 1131, 1081, 1149
2190, 858, 1016, 932, 1158
2191, 904, 1090, 983, 1111
2192, 865, 1008, 1051, 1201
2193, 343, 962, 360, 1211
2194, 451, 1168, 1005, 1190
2195, 990, 1130, 198, 1234
2196, 844, 1111, 974, 1249
2197, 1013, 1086, 892, 1305
2198, 917, 880, 1066, 1101
2199, 524, 527, 428, 958
2200, 931, 1054, 869, 1205
2201, 902, 881, 1053, 1223
2202, 695, 707, 708, 1041
2203, 897, 1215, 1186, 1264
2204, 949, 1078, 773, 1238
2205, 1168, 1285, 452, 1323
2206, 606, 1094, 600, 1310
2207, 713, 401, 509, 1023
2208, 880, 962, 1066, 1271
2209, 661, 609, 625, 922
2210, 444, 446, 507, 1002
2211, 908, 861, 1088, 1098
2212, 580, 137, 250, 1036
2213, 441, 528, 536, 983
2214, 527, 958, 1133, 1240
2215, 629, 296, 576, 1161
2216, 131, 722, 665, 1275
2217, 881, 943, 1071, 1150
2218, 793, 1082, 1081, 1135
2219, 245, 292, 978, 1222
2220, 1004, 1162, 1091, 1214
2221, 884, 1007, 940, 1170
2222, 1023, 1200, 987, 1262
2223, 944, 1052, 883, 1151
2224, 343, 962, 312, 1271
2225, 412, 954, 413, 1207
2226, 614, 608, 603, 1121
2227, 974, 1003, 872, 1194
2228, 494, 1001, 403, 1207
2229, 412, 413, 403, 1207
2230, 308, 497, 363, 1043
2231, 770, 774, 772, 938
2232, 1081, 1131, 973, 1149
2233, 717, 1280, 1022, 1326
2234, 745, 1022, 746, 1275
2235, 834, 831, 800, 927
2236, 495, 418, 951, 1185
2237, 389, 388, 929, 1221
2238, 717, 699, 746, 1280
2239, 898, 1134, 1042, 1158
2240, 910, 1071, 847, 1173
2241, 854, 1081, 973, 1149
2242, 736, 916, 1245, 1272
2243, 972, 994, 561, 1190
2244, 991, 1270, 176, 1298
2245, 291, 1179, 210, 1313
2246, 206, 205, 180, 1145
2247, 960, 856, 1022, 1280
2248, 900, 1083, 1017, 1153
2249, 828, 761, 981, 1267
2250, 880, 1101, 917, 1104
2251, 944, 1127, 907, 1155
2252, 919, 1075, 902, 1320
2253, 874, 1235, 928, 1302
2254, 963, 1028, 865, 1156
2255, 640, 653, 585, 1135
2256, 573, 641, 661, 1082
2257, 494, 1001, 471, 1165
2258, 439, 455, 1054, 1205
2259, 866, 989, 1128, 1330
2260, 836, 807, 947, 1107
2261, 1014, 436, 1133, 1205
2262, 940, 1170, 911, 1254
2263, 856, 924, 1022, 1326
2264, 794, 796, 753, 917
2265, 921, 1128, 989, 1330
2266, 653, 1082, 585, 1135
2267, 1183, 1202, 892, 1316
2268, 995, 1075, 642, 1188
2269, 305, 261, 956, 1164
2270, 376, 1043, 382, 1148
2271, 161, 1142, 964, 1260
2272, 923, 916, 1179, 1272
2273, 929, 1204, 389, 1221
2274, 851, 1051, 939, 1315
2275, 864, 1195, 1016, 1289
2276, 448, 449, 446, 1005
2277, 776, 965, 777, 1174
2278, 148, 982, 150, 1321
2279, 962, 880, 1241, 1271
2280, 785, 797, 783, 1131
2281, 930, 873, 1087, 1219
2282, 736, 916, 705, 1245
2283, 982, 1085, 1027, 1184
2284, 846, 1027, 1088, 1266
2285, 923, 1065, 279, 1179
2286, 950, 872, 1018, 1175
2287, 1031, 886, 1116, 1299
2288, 849, 1176, 1008, 1287
2289, 725, 698, 687, 1166
2290, 963, 1046, 864, 1142
2291, 876, 921, 1119, 1233
2292, 956, 1145, 1036, 1277
2293, 865, 1176, 1008, 1201
2294, 537, 1170, 461, 1214
2295, 768, 817, 1141, 1296
2296, 908, 1085, 1251, 1266
2297, 858, 1042, 940, 1134
2298, 1008, 1176, 913, 1201
2299, 944, 1108, 187, 1155
2300, 755, 132, 253, 1208
2301, 665, 745, 746, 1275
2302, 415, 413, 528, 1207
2303, 859, 1015, 952, 1067
2304, 799, 841, 798, 1224
2305, 971, 1062, 182, 1263
2306, 526, 940, 1042, 1285
2307, 475, 440, 474, 1218
2308, 982, 1027, 865, 1184
2309, 414, 494, 403, 1207
2310, 351, 916, 1147, 1328
2311, 677, 727, 674, 998
2312, 770, 774, 938, 1141
2313, 457, 504, 553, 1040
2314, 884, 1197, 1146, 1315
2315, 367, 929, 389, 1247
2316, 470, 1021, 517, 1162
2317, 156, 159, 157, 946
2318, 606, 926, 635, 1281
2319, 866, 1018, 1037, 1226
2320, 389, 929, 1114, 1204
2321, 1015, 1044, 943, 1223
2322, 414, 1001, 494, 1207
2323, 536, 983, 528, 1232
2324, 710, 134, 670, 1034
2325, 1090, 1111, 951, 1246
2326, 644, 626, 645, 1188
2327, 932, 868, 1016, 1228
2328, 903, 942, 1166, 1200
2329, 192, 264, 187, 1155
2330, 887, 1026, 954, 1232
2331, 973, 1159, 1081, 1192
2332, 724, 720, 683, 1032
2333, 831, 802, 1035, 1159
2334, 473, 972, 1105, 1248
2335, 980, 1147, 899, 1152
2336, 911, 1063, 905, 1109
2337, 538, 523, 1109, 1213
2338, 1077, 1251, 893, 1266
2339, 816, 815, 757, 1021
2340, 498, 954, 1026, 1232
2341, 879, 1113, 941, 1215
2342, 935, 1128, 847, 1173
2343, 858, 1045, 945, 1254
2344, 585, 660, 640, 1135
2345, 850, 1113, 1032, 1304
2346, 582, 499, 1026, 1177
2347, 1201, 1241, 982, 1308
2348, 999, 1070, 866, 1115
2349, 875, 990, 947, 1234
2350, 904, 1115, 999, 1249
2351, 364, 334, 1136, 1221
2352, 294, 207, 1017, 1179
2353, 882, 1001, 1185, 1246
2354, 899, 998, 972, 1048
2355, 944, 1074, 883, 1102
2356, 991, 1189, 178, 1270
2357, 743, 696, 1157, 1284
2358, 150, 982, 174, 1184
2359, 287, 1172, 997, 1217
2360, 924, 1060, 1171, 1292
2361, 151, 149, 1085, 1098
2362, 853, 1031, 946, 1307
2363, 867, 969, 1056, 1149
2364, 859, 971, 1151, 1164
2365, 842, 922, 791, 1081
2366, 910, 847, 1128, 1173
2367, 908, 1077, 1059, 1106
2368, 459, 940, 526, 1285
2369, 265, 267, 1208, 1256
2370, 931, 1218, 902, 1258
2371, 872, 1003, 1091, 1194
2372, 743, 696, 745, 1157
2373, 725, 685, 726, 1166
2374, 928, 1118, 1013, 1294
2375, 629, 139, 1161, 1222
2376, 874, 936, 1235, 1302
2377, 940, 1042, 898, 1134
2378, 527, 1133, 430, 1240
2379, 615, 1082, 978, 1121
2380, 888, 1039, 928, 1240
2381, 940, 1042, 858, 1063
2382, 912, 1094, 1057, 1173
2383, 859, 943, 1210, 1318
2384, 930, 873, 1050, 1087
2385, 539, 470, 517, 1162
2386, 1020, 1037, 932, 1209
2387, 338, 389, 1204, 1221
2388, 558, 477, 1030, 1218
2389, 655, 993, 631, 1161
2390, 876, 920, 1062, 1119
2391, 240, 1024, 1172, 1217
2392, 755, 812, 132, 1208
2393, 311, 1017, 133, 1153
2394, 242, 1079, 1052, 1322
2395, 910, 926, 1071, 1173
2396, 876, 1155, 1062, 1239
2397, 784, 973, 782, 1159
2398, 868, 920, 1300, 1327
2399, 915, 1034, 877, 1123
2400, 844, 1206, 914, 1324
2401, 156, 159, 946, 1260
2402, 836, 807, 835, 947
2403, 413, 528, 1207, 1232
2404, 421, 524, 423, 1070
2405, 228, 927, 248, 1135
2406, 517, 516, 757, 1021
2407, 857, 1057, 1094, 1173
2408, 1013, 1199, 936, 1302
2409, 809, 1001, 758, 1165
2410, 896, 1156, 953, 1217
2411, 973, 1131, 867, 1149
2412, 209, 1036, 293, 1145
2413, 636, 1033, 926, 1310
2414, 912, 1178, 597, 1310
2415, 858, 932, 1016, 1255
2416, 881, 1014, 1071, 1125
2417, 663, 995, 752, 1167
2418, 835, 755, 947, 1208
2419, 206, 180, 284, 1189
2420, 843, 1064, 1235, 1292
2421, 944, 1052, 871, 1102
2422, 912, 1071, 926, 1173
2423, 420, 1109, 523, 1213
2424, 420, 421, 422, 999
2425, 143, 274, 145, 1038
2426, 875, 1107, 1035, 1234
2427, 524, 1115, 530, 1312
2428, 879, 1065, 1029, 1113
2429, 190, 944, 185, 1151
2430, 849, 1134, 945, 1287
2431, 754, 799, 842, 922
2432, 892, 1041, 1012, 1202
2433, 161, 1046, 263, 1142
2434, 192, 193, 194, 1108
2435, 868, 1097, 1020, 1228
2436, 356, 343, 312, 1271
2437, 605, 993, 655, 1092
2438, 945, 1129, 1028, 1146
2439, 364, 332, 334, 1221
2440, 855, 1003, 974, 1306
2441, 916, 736, 1169, 1272
2442, 421, 999, 419, 1115
2443, 757, 516, 803, 1021
2444, 268, 166, 272, 1156
2445, 799, 798, 1131, 1224
2446, 985, 1097, 873, 1137
2447, 859, 943, 1044, 1210
2448, 1000, 1204, 961, 1309
2449, 884, 1146, 1008, 1315
2450, 865, 1027, 982, 1051
2451, 349, 1313, 916, 1328
2452, 963, 234, 1156, 1184
2453, 883, 1092, 993, 1178
2454, 204, 1098, 918, 1256
2455, 389, 929, 388, 1247
2456, 799, 791, 842, 922
2457, 674, 998, 727, 1273
2458, 739, 697, 720, 1186
2459, 145, 146, 136, 981
2460, 703, 744, 702, 1123
2461, 832, 831, 802, 1035
2462, 945, 846, 1045, 1129
2463, 1036, 1069, 877, 1145
2464, 720, 1032, 724, 1286
2465, 1043, 1148, 376, 1269
2466, 258, 153, 155, 1077
2467, 972, 998, 870, 1248
2468, 977, 1016, 932, 1255
2469, 937, 1034, 877, 1191
2470, 778, 1080, 807, 1268
2471, 579, 639, 518, 1281
2472, 170, 1144, 988, 1298
2473, 912, 847, 1071, 1173
2474, 1032, 1113, 895, 1286
2475, 140, 671, 714, 1272
2476, 344, 358, 1066, 1101
2477, 1073, 1117, 860, 1132
2478, 844, 974, 1111, 1246
2479, 631, 993, 599, 1198
2480, 849, 1176, 1000, 1309
2481, 858, 1016, 977, 1255
2482, 909, 1117, 1073, 1132
2483, 452, 1168, 1040, 1285
2484, 1016, 1072, 845, 1289
2485, 758, 808, 801, 1001
2486, 595, 596, 597, 1178
2487, 415, 528, 441, 983
2488, 881, 1053, 1033, 1250
2489, 996, 1067, 937, 1191
2490, 190, 187, 185, 944
2491, 248, 228, 227, 927
2492, 861, 982, 1027, 1051
2493, 498, 1177, 500, 1232
2494, 1012, 889, 1096, 1218
2495, 714, 666, 140, 1006
2496, 197, 195, 198, 1130
2497, 828, 981, 787, 1267
2498, 849, 1287, 1008, 1309
2499, 710, 673, 285, 1069
2500, 192, 194, 229, 1116
2501, 602, 957, 1094, 1229
2502, 867, 1111, 1090, 1246
2503, 905, 1063, 984, 1290
2504, 165, 988, 170, 1144
2505, 957, 1094, 1229, 1329
2506, 231, 186, 1155, 1239
2507, 595, 943, 1150, 1178
2508, 599, 631, 605, 993
2509, 723, 1154, 725, 1200
2510, 847, 912, 1102, 1173
2511, 890, 1040, 929, 1114
2512, 849, 1028, 970, 1182
2513, 839, 385, 299, 1038
2514, 148, 174, 150, 982
2515, 522, 1042, 507, 1323
2516, 869, 1163, 931, 1302
2517, 916, 1017, 1179, 1313
2518, 998, 1124, 727, 1273
2519, 858, 1042, 1134, 1158
2520, 928, 1137, 888, 1181
2521, 611, 1177, 1026, 1282
2522, 887, 983, 1149, 1329
2523, 902, 1044, 1015, 1223
2524, 591, 1044, 607, 1210
2525, 630, 649, 643, 1210
2526, 215, 217, 188, 1073
2527, 768, 769, 1122, 1141
2528, 347, 966, 341, 1136
2529, 996, 1145, 937, 1189
2530, 945, 1045, 846, 1254
2531, 950, 1106, 1003, 1175
2532, 872, 1091, 1004, 1194
2533, 1106, 1266, 1077, 1307
2534, 898, 1005, 1002, 1323
2535, 866, 1018, 999, 1249
2536, 405, 579, 518, 1281
2537, 992, 1194, 1174, 1261
2538, 898, 1134, 970, 1237
2539, 134, 233, 960, 1034
2540, 898, 1168, 1040, 1237
2541, 308, 503, 497, 1043
2542, 832, 1035, 802, 1159
2543, 613, 588, 578, 1053
2544, 411, 541, 565, 1160
2545, 243, 1222, 245, 1293
2546, 1154, 1183, 959, 1305
2547, 450, 445, 443, 1087
2548, 869, 952, 1125, 1163
2549, 231, 270, 186, 1239
2550, 1008, 865, 1051, 1146
2551, 226, 135, 805, 1035
2552, 542, 1053, 402, 1258
2553, 843, 1119, 1020, 1209
2554, 377, 326, 324, 980
2555, 1026, 1177, 887, 1282
2556, 161, 266, 964, 1142
2557, 135, 760, 805, 1035
2558, 327, 1120, 975, 1274
2559, 494, 471, 514, 1165
2560, 754, 842, 824, 1082
2561, 377, 980, 324, 1148
2562, 727, 1124, 998, 1276
2563, 701, 995, 752, 1123
2564, 859, 1151, 1011, 1164
2565, 957, 601, 1094, 1198
2566, 344, 1038, 357, 1101
2567, 963, 1129, 893, 1251
2568, 499, 500, 498, 1177
2569, 579, 968, 627, 1281
2570, 817, 925, 1141, 1296
2571, 636, 926, 606, 1310
2572, 267, 219, 218, 1059
2573, 160, 1112, 269, 1239
2574, 414, 1185, 1001, 1207
2575, 414, 1090, 1185, 1207
2576, 948, 1162, 862, 1231
2577, 661, 1082, 615, 1121
2578, 573, 922, 625, 1224
2579, 449, 1005, 451, 1168
2580, 184, 182, 971, 1151
2581, 617, 1068, 616, 1167
2582, 615, 653, 614, 978
2583, 846, 1091, 1197, 1301
2584, 863, 1269, 975, 1317
2585, 598, 606, 600, 1310
2586, 285, 134, 710, 1034
2587, 937, 1067, 1061, 1191
2588, 328, 961, 330, 1204
2589, 863, 1148, 1269, 1317
2590, 173, 208, 222, 1065
2591, 492, 467, 553, 929
2592, 751, 709, 708, 1167
2593, 646, 734, 663, 1243
2594, 329, 961, 328, 1120
2595, 932, 853, 1020, 1228
2596, 817, 1093, 925, 1296
2597, 928, 1039, 888, 1137
2598, 389, 338, 388, 1221
2599, 880, 917, 1066, 1265
2600, 544, 557, 998, 1273
2601, 755, 836, 835, 947
2602, 446, 507, 1002, 1323
2603, 231, 230, 1010, 1155
2604, 252, 1083, 1009, 1153
2605, 880, 1104, 917, 1265
2606, 923, 1186, 897, 1215
2607, 923, 1006, 897, 1186
2608, 868, 933, 1072, 1327
2609, 382, 1148, 994, 1152
2610, 582, 1026, 611, 1177
2611, 953, 1028, 896, 1182
2612, 882, 1004, 992, 1194
2613, 1003, 1194, 974, 1306
2614, 992, 1004, 862, 1194
2615, 887, 954, 1131, 1149
2616, 240, 1024, 237, 1172
2617, 866, 1037, 989, 1330
2618, 862, 948, 1091, 1162
2619, 465, 464, 462, 948
2620, 714, 739, 666, 1006
2621, 881, 1071, 1014, 1138
2622, 833, 1208, 918, 1256
2623, 971, 1164, 996, 1263
2624, 431, 437, 1118, 1294
2625, 428, 426, 1070, 1240
2626, 993, 1052, 883, 1102
2627, 387, 341, 347, 966
2628, 530, 524, 433, 1115
2629, 305, 293, 137, 956
2630, 656, 605, 655, 1092
2631, 859, 1015, 1067, 1320
2632, 975, 1269, 1148, 1317
2633, 526, 529, 1042, 1063
2634, 256, 131, 665, 1275
2635, 602, 603, 601, 957
2636, 320, 319, 311, 1017
2637, 862, 1174, 992, 1194
2638, 663, 752, 709, 1167
2639, 642, 1075, 593, 1188
2640, 451, 1005, 448, 1190
2641, 565, 541, 373, 1160
2642, 579, 610, 627, 968
2643, 495, 418, 435, 1213
2644, 420, 999, 1213, 1283
2645, 684, 986, 680, 1126
2646, 680, 986, 684, 1220
2647, 1015, 1125, 952, 1163
2648, 424, 529, 425, 1063
2649, 738, 714, 671, 1272
2650, 777, 776, 778, 965
2651, 900, 1242, 1230, 1274
2652, 993, 1161, 1052, 1322
2653, 207, 208, 173, 955
2654, 431, 430, 1133, 1240
2655, 657, 655, 631, 1161
2656, 160, 260, 269, 1112
2657, 156, 946, 157, 1314
2658, 527, 958, 524, 1312
2659, 907, 1084, 1127, 1206
2660, 799, 922, 754, 1224
2661, 859, 996, 956, 1277
2662, 181, 1164, 184, 1263
2663, 382, 994, 359, 1152
2664, 593, 644, 645, 1188
2665, 887, 1177, 1026, 1232
2666, 973, 1081, 854, 1192
2667, 248, 245, 1135, 1293
2668, 887, 1131, 922, 1149
2669, 971, 184, 1151, 1164
2670, 441, 506, 505, 1058
2671, 848, 931, 1163, 1199
2672, 130, 286, 255, 1092
2673, 738, 700, 1186, 1245
2674, 885, 1270, 1144, 1300
2675, 620, 1036, 584, 1069
2676, 844, 935, 1206, 1257
2677, 953, 860, 1117, 1182
2678, 994, 863, 1043, 1190
2679, 1056, 1196, 1099, 1246
2680, 967, 1055, 914, 1079
2681, 254, 130, 255, 1011
2682, 486, 1013, 440, 1180
2683, 962, 1095, 1024, 1201
2684, 610, 968, 579, 1177
2685, 982, 1201, 880, 1241
2686, 991, 885, 1270, 1298
2687, 167, 1140, 163, 1319
2688, 515, 926, 519, 1281
2689, 1025, 1132, 979, 1317
2690, 883, 1052, 944, 1102
2691, 555, 451, 513, 1168
2692, 371, 370, 345, 1009
2693, 875, 1107, 947, 1196
2694, 456, 436, 527, 1014
2695, 663, 995, 574, 1243
2696, 639, 579, 627, 1281
2697, 428, 958, 527, 1240
2698, 467, 458, 457, 1007
2699, 871, 944, 1102, 1127
2700, 586, 502, 402, 1030
2701, 862, 1162, 1021, 1231
2702, 694, 1041, 695, 1123
2703, 870, 942, 1264, 1304
2704, 881, 1054, 1014, 1125
2705, 916, 1147, 1017, 1313
2706, 947, 1080, 835, 1208
2707, 867, 934, 1056, 1246
2708, 707, 1041, 693, 1202
2709, 389, 1114, 366, 1204
2710, 1035, 1107, 875, 1159
2711, 684, 986, 704, 1276
2712, 556, 577, 637, 1033
2713, 703, 1123, 752, 1243
2714, 419, 1115, 999, 1283
2715, 684, 704, 716, 1276
2716, 924, 688, 1284, 1326
2717, 1095, 1172, 896, 1252
2718, 752, 995, 709, 1167
2719, 926, 1033, 554, 1138
2720, 507, 444, 1002, 1219
2721, 795, 1104, 1101, 1267
2722, 1053, 1054, 501, 1250
2723, 601, 957, 603, 1198
2724, 636, 1150, 1033, 1310
2725, 947, 1107, 1080, 1196
2726, 778, 965, 1080, 1268
2727, 852, 1215, 955, 1279
2728, 307, 737, 664, 1076
2729, 137, 293, 250, 1036
2730, 484, 1053, 501, 1250
2731, 1117, 1132, 909, 1289
2732, 680, 684, 716, 1220
2733, 579, 968, 405, 1177
2734, 1014, 1128, 958, 1312
2735, 287, 241, 129, 1172
2736, 882, 1216, 1001, 1246
2737, 787, 1104, 790, 1267
2738, 556, 396, 577, 1033
2739, 961, 1000, 896, 1252
2740, 332, 1204, 1000, 1221
2741, 948, 1170, 884, 1197
2742, 367, 389, 388, 1247
2743, 323, 322, 321, 1242
2744, 932, 1016, 977, 1228
2745, 953, 1156, 216, 1217
2746, 312, 962, 343, 1211
2747, 582, 623, 499, 1177
2748, 405, 563, 968, 1281
2749, 1099, 1196, 974, 1246
2750, 269, 177, 1062, 1270
2751, 1058, 1115, 904, 1325
2752, 780, 934, 781, 1268
2753, 1070, 1240, 426, 1290
2754, 814, 786, 776, 1080
2755, 912, 1057, 993, 1102
2756, 368, 129, 241, 1172
2757, 474, 440, 439, 1205
2758, 884, 1259, 1008, 1287
2759, 859, 1210, 1011, 1318
2760, 867, 1090, 983, 1207
2761, 844, 1111, 1056, 1246
2762, 449, 1168, 452, 1323
2763, 1062, 1239, 269, 1270
2764, 698, 719, 689, 959
2765, 612, 1033, 636, 1150
2766, 440, 1013, 521, 1294
2767, 750, 300, 277, 1069
2768, 888, 1137, 932, 1209
2769, 922, 1081, 842, 1082
2770, 970, 845, 1132, 1289
2771, 886, 1106, 1077, 1307
2772, 846, 1146, 945, 1254
2773, 661, 615, 609, 1121
2774, 555, 1043, 1114, 1168
2775, 860, 975, 1120, 1274
2776, 884, 1170, 948, 1244
2777, 713, 679, 669, 1023
2778, 761, 826, 821, 1267
2779, 752, 995, 663, 1243
2780, 877, 915, 1123, 1191
2781, 515, 554, 519, 926
2782, 1144, 1270, 885, 1298
2783, 263, 166, 268, 1142
2784, 877, 1123, 1143, 1191
2785, 226, 253, 203, 1234
2786, 884, 1254, 940, 1287
2787, 909, 964, 1072, 1140
2788, 325, 327, 975, 1274
2789, 773, 1078, 771, 1238
2790, 603, 957, 602, 1229
2791, 519, 554, 483, 1138
2792, 944, 883, 1074, 1151
2793, 377, 1148, 382, 1152
2794, 1010, 1155, 230, 1297
2795, 818, 809, 758, 1165
2796, 787, 828, 829, 981
2797, 920, 876, 1062, 1239
2798, 873, 1039, 984, 1219
2799, 1122, 1141, 925, 1296
2800, 890, 1114, 929, 1204
2801, 1045, 1197, 846, 1254
2802, 423, 428, 426, 1070
2803, 798, 954, 797, 1131
2804, 910, 1115, 1058, 1325
2805, 405, 968, 536, 1177
2806, 183, 991, 282, 1049
2807, 419, 505, 433, 1115
2808, 994, 1043, 863, 1148
2809, 587, 589, 628, 1075
2810, 898, 1168, 1005, 1323
2811, 492, 467, 929, 1247
2812, 170, 988, 1029, 1298
2813, 420, 1213, 418, 1283
2814, 926, 1071, 912, 1310
2815, 861, 918, 1098, 1100
2816, 667, 713, 550, 1200
2817, 161, 964, 163, 1260
2818, 330, 328, 329, 961
2819, 947, 1080, 855, 1196
2820, 277, 285, 673, 1069
2821, 217, 1009, 252, 1083
2822, 486, 521, 440, 1013
2823, 1080, 1196, 1107, 1268
2824, 142, 1036, 250, 1069
2825, 421, 420, 419, 999
2826, 323, 1230, 322, 1242
2827, 200, 1052, 1092, 1161
2828, 208, 279, 1065, 1179
2829, 959, 1154, 719, 1183
2830, 274, 1241, 1038, 1271
2831, 1163, 1199, 931, 1302
2832, 189, 1142, 1073, 1319
2833, 680, 1126, 986, 1220
2834, 646, 663, 574, 1243
2835, 934, 875, 1056, 1196
2836, 398, 549, 1154, 1200
2837, 1067, 1191, 919, 1320
2838, 862, 1021, 992, 1174
2839, 629, 1161, 657, 1222
2840, 1024, 1176, 865, 1201
2841, 927, 854, 1081, 1192
2842, 700, 1245, 738, 1272
2843, 161, 266, 163, 964
2844, 956, 996, 859, 1164
2845, 796, 827, 753, 1093
2846, 941, 979, 1227, 1279
2847, 651, 1210, 592, 1318
2848, 451, 448, 513, 1190
2849, 934, 1139, 1216, 1246
2850, 1007, 1287, 849, 1309
2851, 363, 313, 382, 994
2852, 609, 922, 1121, 1282
2853, 962, 913, 1095, 1201
2854, 389, 366, 383, 1204
2855, 920, 1144, 1270, 1300
2856, 574, 995, 663, 1167
2857, 719, 959, 698, 1154
2858, 625, 922, 609, 1282
2859, 891, 1136, 1000, 1221
2860, 843, 1097, 1020, 1300
2861, 1030, 902, 1218, 1258
2862, 869, 1054, 1014, 1205
2863, 983, 1090, 867, 1111
2864, 858, 1042, 984, 1063
2865, 643, 575, 630, 1011
2866, 399, 992, 813, 1165
2867, 848, 1061, 936, 1163
2868, 530, 533, 483, 1312
2869, 1090, 1111, 904, 1283
2870, 350, 1313, 349, 1328
2871, 382, 359, 377, 1152
2872, 185, 971, 182, 1151
2873, 1021, 1078, 816, 1174
2874, 887, 1229, 957, 1282
2875, 399, 496, 992, 1165
2876, 775, 771, 773, 1078
2877, 803, 769, 816, 1021
2878, 227, 248, 927, 1293
2879, 595, 651, 592, 1318
2880, 326, 980, 377, 1152
2881, 888, 932, 1037, 1209
2882, 653, 978, 615, 1082
2883, 964, 1140, 909, 1319
2884, 152, 963, 166, 1251
2885, 880, 1051, 982, 1253
2886, 907, 1084, 989, 1127
2887, 868, 1195, 1016, 1228
2888, 873, 984, 1158, 1219
2889, 979, 1047, 941, 1236
2890, 946, 893, 1307, 1314
2891, 1066, 1201, 880, 1265
2892, 874, 1089, 959, 1305
2893, 941, 1215, 1113, 1304
2894, 359, 1048, 353, 1152
2895, 627, 968, 610, 1229
2896, 1007, 1040, 929, 1309
2897, 979, 1132, 845, 1279
2898, 509, 713, 1023, 1200
2899, 230, 1010, 160, 1239
2900, 732, 676, 617, 1167
2901, 982, 1051, 880, 1201
2902, 880, 1066, 962, 1201
2903, 264, 230, 1155, 1297
2904, 895, 1157, 1022, 1284
2905, 1028, 1176, 896, 1182
2906, 991, 1049, 885, 1298
2907, 893, 1077, 1266, 1307
2908, 456, 1014, 527, 1312
2909, 933, 1050, 873, 1187
2910, 479, 547, 548, 1183
2911, 514, 88, 494, 758
2912, 176, 991, 178, 1270
2913, 1031, 1116, 886, 1297
2914, 509, 550, 713, 1200
2915, 233, 232, 134, 960
2916, 997, 1009, 860, 1120
2917, 351, 349, 361, 1147
2918, 949, 1100, 861, 1238
2919, 863, 1025, 979, 1317
2920, 934, 875, 1107, 1159
2921, 473, 972, 472, 1105
2922, 710, 670, 741, 1034
2923, 972, 870, 1105, 1248
2924, 930, 443, 1087, 1262
2925, 871, 1052, 944, 1108
2926, 869, 1125, 1015, 1163
2927, 1020, 1097, 932, 1228
2928, 704, 986, 684, 1245
2929, 689, 691, 690, 1019
2930, 849, 945, 1028, 1287
2931, 911, 1197, 1045, 1254
2932, 1002, 873, 1087, 1187
2933, 485, 516, 470, 1021
2934, 1089, 1154, 959, 1305
2935, 618, 995, 574, 1167
2936, 1146, 1197, 884, 1254
2937, 870, 1023, 987, 1248
2938, 1031, 886, 1295, 1297
2939, 870, 1220, 1023, 1248
2940, 950, 1018, 872, 1226
2941, 517, 399, 539, 992
2942, 485, 1021, 470, 1231
2943, 582, 611, 623, 1177
2944, 161, 163, 162, 1260
2945, 1161, 1222, 139, 1322
2946, 911, 1045, 1197, 1301
2947, 340, 376, 382, 1148
2948, 1116, 1295, 886, 1297
2949, 862, 1004, 992, 1162
2950, 188, 217, 252, 1083
2951, 213, 285, 290, 1069
2952, 853, 932, 1037, 1255
2953, 610, 1229, 1177, 1282
2954, 388, 929, 1221, 1247
2955, 942, 1126, 870, 1264
2956, 474, 1218, 931, 1258
2957, 872, 951, 1213, 1249
2958, 846, 1197, 1045, 1301
2959, 437, 432, 431, 1118
2960, 920, 269, 1239, 1270
2961, 544, 557, 552, 998
2962, 728, 719, 1154, 1183
2963, 908, 1088, 1027, 1266
2964, 872, 1213, 999, 1249
2965, 85, 757, 517, 516
2966, 937, 1061, 915, 1191
2967, 925, 901, 1122, 1291
2968, 899, 1147, 980, 1303
2969, 786, 814, 833, 1080
2970, 584, 620, 619, 1036
2971, 892, 1086, 1013, 1199
2972, 455, 1054, 1014, 1250
2973, 208, 955, 207, 1179
2974, 251, 210, 1017, 1313
2975, 846, 1197, 1146, 1254
2976, 400, 803, 84, 516
2977, 88, 514, 818, 758
2978, 898, 1042, 940, 1285
2979, 877, 995, 1123, 1243
2980, 795, 1101, 1038, 1267
2981, 944, 1074, 971, 1151
2982, 211, 140, 923, 1272
2983, 844, 1175, 1018, 1249
2984, 251, 1017, 319, 1313
2985, 912, 1150, 1178, 1310
2986, 84, 759, 803, 400
2987, 279, 1006, 214, 1065
2988, 863, 1047, 980, 1317
2989, 780, 1107, 934, 1268
2990, 1033, 1150, 1071, 1310
2991, 955, 1140, 909, 1279
2992, 561, 508, 404, 994
2993, 1066, 1136, 913, 1212
2994, 757, 85, 803, 516
2995, 182, 181, 184, 1263
2996, 787, 1100, 810, 1238
2997, 946, 1046, 893, 1314
2998, 657, 629, 576, 1161
2999, 223, 168, 219, 1059
3000, 237, 1172, 1024, 1211
3001, 863, 994, 972, 1190
3002, 862, 949, 1174, 1306
3003, 887, 968, 1177, 1232
3004, 946, 1307, 1031, 1314
3005, 667, 550, 723, 1200
3006, 845, 1072, 1227, 1279
3007, 428, 423, 524, 1070
3008, 298, 249, 640, 1135
3009, 838, 652, 566, 1026
3010, 870, 1047, 941, 1264
3011, 847, 921, 1128, 1233
3012, 979, 1025, 863, 1236
3013, 852, 941, 1047, 1264
3014, 861, 1100, 1098, 1321
3015, 999, 1018, 872, 1249
3016, 1016, 1195, 977, 1228
3017, 324, 1148, 980, 1230
3018, 87, 514, 399, 1165
3019, 908, 1027, 1085, 1266
3020, 879, 1140, 955, 1279
3021, 538, 1109, 523, 1214
3022, 1050, 1087, 873, 1187
3023, 966, 1136, 347, 1212
3024, 419, 999, 420, 1283
3025, 993, 1161, 906, 1198
3026, 863, 1148, 1043, 1269
3027, 286, 190, 255, 1151
3028, 89, 403, 494, 801
3029, 270, 269, 177, 1062
3030, 924, 1060, 850, 1171
3031, 1174, 1194, 965, 1261
3032, 324, 980, 326, 1230
3033, 855, 1003, 1088, 1106
3034, 751, 676, 732, 1167
3035, 1181, 1209, 888, 1330
3036, 1031, 1077, 886, 1299
3037, 496, 539, 399, 992
3038, 1002, 898, 1042, 1158
3039, 941, 1227, 979, 1236
3040, 941, 1227, 1215, 1279
3041, 843, 1020, 1097, 1209
3042, 1038, 1241, 880, 1271
3043, 352, 353, 359, 1048
3044, 915, 1191, 1061, 1288
3045, 805, 135, 24, 760
3046, 182, 1062, 270, 1263
3047, 929, 891, 1221, 1247
3048, 24, 226, 135, 805
3049, 934, 1216, 781, 1268
3050, 945, 1146, 1028, 1287
3051, 807, 778, 786, 1080
3052, 877, 1034, 937, 1145
3053, 992, 1021, 862, 1162
3054, 321, 320, 1153, 1242
3055, 302, 1157, 131, 1275
3056, 964, 1142, 1046, 1260
3057, 813, 399, 86, 517
3058, 934, 867, 1139, 1246
3059, 340, 376, 1148, 1269
3060, 377, 980, 1148, 1152
3061, 864, 1046, 964, 1142
3062, 742, 712, 741, 1034
3063, 171, 176, 1270, 1298
3064, 968, 1177, 610, 1229
3065, 801, 494, 89, 758
3066, 728, 547, 668, 1183
3067, 512, 549, 1200, 1262
3068, 325, 1148, 1230, 1269
3069, 826, 1038, 821, 1267
3070, 864, 964, 1046, 1195
3071, 499, 623, 560, 1177
3072, 290, 250, 1036, 1069
3073, 848, 936, 1061, 1199
3074, 989, 1128, 921, 1233
3075, 869, 1181, 936, 1302
3076, 848, 1061, 1191, 1288
3077, 896, 1024, 1156, 1217
3078, 511, 443, 438, 930
3079, 363, 382, 376, 1043
3080, 231, 264, 230, 1155
3081, 87, 818, 514, 1165
3082, 326, 1230, 980, 1242
3083, 86, 757, 813, 517
3084, 868, 1097, 933, 1327
3085, 690, 689, 1019, 1326
3086, 1032, 1113, 897, 1304
3087, 344, 337, 343, 1066
3088, 308, 1043, 376, 1114
3089, 938, 1253, 1051, 1265
3090, 152, 1085, 963, 1251
3091, 1014, 1138, 910, 1312
3092, 694, 695, 701, 1123
3093, 680, 679, 1126, 1220
3094, 919, 1036, 1188, 1277
3095, 602, 601, 600, 1094
3096, 25, 253, 226, 755
3097, 890, 1040, 1168, 1237
3098, 231, 230, 160, 1239
3099, 854, 1149, 969, 1329
3100, 704, 986, 1245, 1276
3101, 869, 1014, 1133, 1205
3102, 336, 1066, 337, 1212
3103, 885, 1225, 988, 1298
3104, 444, 1087, 1002, 1219
3105, 988, 1225, 1029, 1298
3106, 218, 253, 132, 1208
3107, 845, 1072, 933, 1227
3108, 458, 467, 487, 1007
3109, 919, 1191, 1067, 1277
3110, 752, 663, 734, 1243
3111, 1027, 1051, 865, 1146
3112, 848, 1067, 1061, 1163
3113, 867, 1056, 969, 1111
3114, 159, 1112, 946, 1260
3115, 884, 1103, 1007, 1244
3116, 931, 902, 1054, 1258
3117, 843, 985, 1097, 1300
3118, 962, 1066, 913, 1201
3119, 936, 1061, 1086, 1292
3120, 975, 1120, 961, 1193
3121, 774, 806, 794, 1104
3122, 800, 141, 763, 1135
3123, 868, 964, 1072, 1289
3124, 191, 200, 242, 1052
3125, 813, 992, 788, 1165
3126, 204, 267, 265, 1256
3127, 813, 757, 815, 992
3128, 556, 571, 396, 1033
3129, 997, 1172, 369, 1252
3130, 281, 212, 280, 1006
3131, 919, 1188, 1143, 1277
3132, 671, 140, 278, 1272
3133, 905, 1045, 1226, 1255
3134, 231, 1010, 230, 1239
3135, 807, 786, 835, 1080
3136, 390, 1221, 1110, 1247
3137, 942, 1032, 897, 1304
3138, 431, 429, 430, 1240
3139, 1144, 1300, 920, 1327
3140, 312, 343, 360, 1211
3141, 158, 258, 155, 1031
3142, 1065, 1113, 879, 1215
3143, 860, 1120, 1009, 1274
3144, 345, 997, 369, 1252
3145, 870, 987, 1105, 1248
3146, 805, 25, 226, 755
3147, 1033, 1071, 926, 1310
3148, 949, 1080, 965, 1306
3149, 862, 949, 1078, 1174
3150, 366, 308, 376, 1114
3151, 871, 1108, 944, 1127
3152, 238, 962, 236, 1308
3153, 1146, 1254, 884, 1287
3154, 952, 1067, 1015, 1163
3155, 414, 1090, 416, 1185
3156, 923, 1245, 916, 1272
3157, 289, 346, 273, 1009
3158, 936, 1064, 1061, 1292
3159, 414, 471, 1001, 1185
3160, 29, 756, 136, 224
3161, 882, 1194, 992, 1261
3162, 335, 336, 334, 1136
3163, 970, 1132, 1117, 1289
3164, 901, 925, 1122, 1141
3165, 548, 547, 728, 1183
3166, 686, 683, 685, 1032
3167, 684, 986, 1126, 1186
3168, 1000, 1095, 913, 1176
3169, 471, 1165, 1001, 1185
3170, 504, 1040, 452, 1168
3171, 998, 1048, 899, 1124
3172, 345, 1120, 997, 1252
3173, 156, 1260, 946, 1314
3174, 811, 265, 812, 1208
3175, 863, 1025, 1005, 1236
3176, 979, 845, 1227, 1279
3177, 248, 245, 249, 1135
3178, 668, 711, 1183, 1316
3179, 358, 342, 337, 1066
3180, 150, 151, 149, 1085
3181, 601, 599, 1094, 1198
3182, 430, 428, 527, 1240
3183, 290, 142, 250, 1069
3184, 320, 1017, 311, 1153
3185, 1101, 1104, 880, 1267
3186, 765, 825, 357, 1101
3187, 618, 617, 616, 1167
3188, 811, 27, 812, 265
3189, 620, 622, 1188, 1243
3190, 1061, 856, 1086, 1292
3191, 686, 1032, 685, 1166
3192, 158, 157, 1031, 1314
3193, 174, 982, 239, 1308
3194, 165, 1144, 170, 1298
3195, 756, 804, 29, 136
3196, 204, 224, 147, 1256
3197, 239, 174, 148, 982
3198, 454, 459, 526, 1285
3199, 555, 1114, 504, 1168
3200, 27, 132, 812, 265
3201, 163, 964, 266, 1319
3202, 352, 408, 317, 1048
3203, 929, 1221, 891, 1309
3204, 1001, 1185, 1090, 1207
3205, 315, 299, 385, 1038
3206, 812, 265, 132, 1208
3207, 238, 1241, 274, 1271
3208, 782, 1107, 789, 1159
3209, 843, 936, 1181, 1235
3210, 982, 1253, 861, 1321
3211, 930, 1087, 987, 1262
3212, 231, 1155, 1010, 1239
3213, 489, 976, 1203, 1291
3214, 585, 1082, 823, 1135
3215, 235, 1024, 240, 1156
3216, 1076, 1245, 705, 1328
3217, 926, 910, 1071, 1138
3218, 581, 654, 653, 1222
3219, 132, 253, 26, 755
3220, 993, 906, 1161, 1322
3221, 495, 416, 418, 1185
3222, 547, 1183, 479, 1305
3223, 667, 550, 110, 723
3224, 861, 981, 1100, 1321
3225, 136, 804, 30, 761
3226, 176, 282, 183, 991
3227, 200, 242, 1052, 1322
3228, 925, 1160, 493, 1296
3229, 642, 574, 618, 995
3230, 889, 1075, 995, 1143
3231, 529, 522, 526, 1042
3232, 971, 878, 1062, 1263
3233, 197, 990, 199, 1299
3234, 755, 26, 132, 812
3235, 821, 839, 299, 1038
3236, 379, 307, 355, 1124
3237, 412, 90, 762, 403
3238, 932, 1097, 1020, 1209
3239, 171, 1270, 1144, 1298
3240, 858, 1134, 1016, 1158
3241, 860, 1120, 975, 1193
3242, 330, 961, 329, 1252
3243, 326, 322, 1230, 1242
3244, 743, 1284, 1157, 1286
3245, 765, 357, 1038, 1101
3246, 261, 181, 205, 996
3247, 405, 563, 536, 968
3248, 912, 1057, 1102, 1173
3249, 449, 451, 452, 1168
3250, 859, 1067, 996, 1277
3251, 717, 699, 1280, 1326
3252, 799, 1131, 922, 1224
3253, 676, 1068, 617, 1167
3254, 535, 1122, 534, 1296
3255, 936, 1086, 1061, 1199
3256, 794, 1101, 795, 1104
3257, 653, 654, 614, 978
3258, 677, 678, 727, 998
3259, 413, 1207, 954, 1232
3260, 409, 91, 762, 412
3261, 715, 256, 49, 665
3262, 951, 1111, 1090, 1283
3263, 149, 151, 223, 1098
3264, 878, 1189, 1062, 1263
3265, 768, 1122, 767, 1296
3266, 927, 1159, 1035, 1192
3267, 1061, 1199, 1086, 1288
3268, 919, 1191, 1143, 1320
3269, 426, 423, 1070, 1290
3270, 861, 1238, 1100, 1253
3271, 252, 294, 1083, 1153
3272, 555, 1043, 503, 1114
3273, 394, 348, 342, 1212
3274, 970, 845, 1025, 1132
3275, 777, 1261, 965, 1268
3276, 843, 1119, 1064, 1300
3277, 682, 720, 697, 1186
3278, 138, 236, 962, 1211
3279, 325, 1148, 340, 1230
3280, 303, 284, 233, 1278
3281, 713, 726, 1023, 1200
3282, 200, 1052, 286, 1092
3283, 1061, 1064, 856, 1292
3284, 797, 798, 762, 954
3285, 200, 1052, 1161, 1322
3286, 855, 1080, 965, 1196
3287, 1001, 1165, 809, 1216
3288, 948, 1244, 976, 1315
3289, 778, 776, 786, 1080
3290, 853, 1228, 932, 1255
3291, 927, 248, 1135, 1293
3292, 1017, 1153, 320, 1242
3293, 145, 136, 30, 761
3294, 581, 653, 978, 1222
3295, 557, 1048, 998, 1273
3296, 970, 1117, 860, 1182
3297, 862, 1078, 1021, 1174
3298, 953, 860, 1073, 1117
3299, 180, 205, 181, 996
3300, 384, 325, 328, 1269
3301, 370, 371, 346, 1009
3302, 246, 1161, 139, 1322
3303, 704, 1245, 1076, 1276
3304, 877, 1143, 1188, 1277
3305, 948, 884, 1244, 1315
3306, 1008, 1146, 884, 1287
3307, 1044, 1210, 943, 1318
3308, 877, 1069, 1188, 1243
3309, 862, 1091, 1004, 1162
3310, 250, 209, 290, 1036
3311, 935, 871, 1127, 1206
3312, 996, 1191, 937, 1277
3313, 325, 340, 1148, 1269
3314, 843, 1064, 936, 1235
3315, 777, 965, 778, 1268
3316, 691, 692, 1019, 1202
3317, 882, 1185, 951, 1246
3318, 893, 1251, 1077, 1314
3319, 607, 649, 644, 1210
3320, 138, 962, 238, 1271
3321, 894, 1002, 1087, 1187
3322, 654, 978, 653, 1222
3323, 1215, 1227, 879, 1279
3324, 527, 436, 430, 1133
3325, 924, 1166, 903, 1171
3326, 471, 496, 1165, 1185
3327, 893, 1046, 963, 1251
3328, 135, 800, 23, 760
3329, 236, 962, 1211, 1308
3330, 611, 610, 1177, 1282
3331, 921, 1209, 1181, 1330
3332, 999, 1213, 951, 1249
3333, 289, 217, 304, 1009
3334, 181, 996, 261, 1164
3335, 228, 800, 23, 135
3336, 788, 1165, 992, 1261
3337, 813, 815, 788, 992
3338, 413, 412, 498, 954
3339, 1032, 1166, 686, 1284
3340, 405, 518, 563, 1281
3341, 930, 1050, 987, 1087
3342, 314, 387, 386, 1160
3343, 854, 967, 1055, 1192
3344, 944, 1108, 907, 1127
3345, 403, 90, 762, 801
3346, 862, 1174, 965, 1306
3347, 927, 227, 1293, 1311
3348, 896, 1095, 1000, 1176
3349, 469, 521, 486, 1013
3350, 868, 932, 1097, 1228
3351, 964, 909, 1072, 1289
3352, 751, 1068, 676, 1167
3353, 849, 970, 1134, 1237
3354, 520, 427, 426, 1290
3355, 165, 171, 1144, 1298
3356, 474, 439, 501, 1054
3357, 959, 892, 1183, 1202
3358, 869, 931, 1205, 1302
3359, 892, 1012, 1041, 1096
3360, 951, 418, 1213, 1283
3361, 351, 1147, 1076, 1328
3362, 1013, 1205, 931, 1302
3363, 222, 214, 202, 1065
3364, 996, 937, 1145, 1277
3365, 424, 427, 529, 1290
3366, 848, 1199, 1061, 1288
3367, 908, 1106, 1088, 1266
3368, 477, 502, 558, 1030
3369, 239, 982, 148, 1241
3370, 196, 195, 193, 1079
3371, 531, 463, 489, 976
3372, 511, 443, 930, 1262
3373, 861, 938, 1238, 1253
3374, 964, 1117, 909, 1289
3375, 883, 1052, 993, 1092
3376, 300, 584, 142, 1069
3377, 961, 896, 1182, 1252
3378, 782, 780, 789, 1107
3379, 134, 303, 233, 1034
3380, 894, 987, 1050, 1087
3381, 332, 338, 1204, 1221
3382, 875, 934, 1107, 1196
3383, 272, 216, 1156, 1217
3384, 604, 603, 602, 1229
3385, 1098, 1100, 918, 1256
3386, 180, 996, 181, 1263
3387, 240, 1156, 1024, 1217
3388, 472, 972, 561, 1190
3389, 863, 1047, 979, 1236
3390, 890, 1040, 1114, 1168
3391, 1051, 880, 1201, 1265
3392, 383, 328, 330, 1204
3393, 325, 1230, 975, 1269
3394, 862, 965, 1174, 1194
3395, 683, 682, 681, 1126
3396, 478, 1012, 1180, 1218
3397, 715, 746, 742, 960
3398, 354, 353, 1048, 1124
3399, 877, 1069, 1036, 1188
3400, 693, 695, 694, 1041
3401, 811, 1208, 833, 1256
3402, 270, 269, 1062, 1239
3403, 886, 1116, 1084, 1295
3404, 493, 490, 1160, 1203
3405, 543, 568, 748, 1068
3406, 251, 291, 210, 1313
3407, 238, 138, 236, 962
3408, 184, 185, 182, 1151
3409, 345, 310, 369, 997
3410, 1080, 965, 1196, 1268
3411, 855, 974, 1099, 1196
3412, 937, 1191, 1145, 1277
3413, 337, 344, 358, 1066
3414, 690, 1280, 699, 1326
3415, 976, 1103, 463, 1203
3416, 867, 1139, 1001, 1207
3417, 191, 1079, 193, 1108
3418, 413, 954, 498, 1232
3419, 931, 848, 1096, 1199
3420, 1024, 1156, 235, 1184
3421, 1002, 1087, 873, 1219
3422, 980, 1147, 326, 1242
3423, 252, 294, 207, 1083
3424, 868, 1072, 988, 1327
3425, 829, 828, 804, 981
3426, 538, 435, 523, 1213
3427, 881, 1033, 1071, 1138
3428, 809, 808, 1001, 1216
3429, 211, 140, 279, 923
3430, 656, 650, 605, 1178
3431, 280, 140, 666, 1006
3432, 136, 146, 147, 981
3433, 907, 1108, 944, 1155
3434, 350, 1169, 1313, 1328
3435, 939, 1197, 948, 1315
3436, 948, 1197, 1091, 1214
3437, 692, 690, 691, 1019
3438, 917, 1212, 1066, 1265
3439, 457, 452, 504, 1040
3440, 680, 679, 681, 1126
3441, 771, 816, 769, 1078
3442, 288, 1011, 1151, 1164
3443, 873, 1158, 1002, 1219
3444, 914, 1055, 967, 1324
3445, 489, 976, 463, 1203
3446, 811, 265, 1208, 1256
3447, 785, 791, 799, 1131
3448, 621, 620, 1069, 1243
3449, 609, 603, 604, 1121
3450, 215, 287, 304, 997
3451, 371, 1153, 1009, 1274
3452, 411, 493, 1160, 1296
3453, 857, 1057, 957, 1094
3454, 482, 1033, 571, 1250
3455, 848, 1143, 1191, 1320
3456, 161, 263, 266, 1142
3457, 958, 1070, 866, 1330
3458, 91, 762, 820, 409
3459, 158, 155, 157, 1314
3460, 601, 603, 608, 1198
3461, 916, 1313, 1169, 1328
3462, 894, 1087, 1050, 1187
3463, 238, 236, 239, 1308
3464, 957, 857, 1094, 1329
3465, 494, 414, 471, 1001
3466, 568, 410, 583, 1068
3467, 868, 946, 1112, 1260
3468, 1091, 1197, 911, 1214
3469, 196, 244, 262, 967
3470, 531, 463, 976, 1244
3471, 250, 293, 209, 1036
3472, 1001, 1090, 867, 1207
3473, 702, 712, 694, 1123
3474, 350, 349, 351, 1328
3475, 626, 580, 619, 1036
3476, 1038, 1101, 880, 1267
3477, 875, 1099, 1056, 1196
3478, 843, 1097, 985, 1137
3479, 879, 1029, 988, 1225
3480, 1086, 1202, 1019, 1288
3481, 737, 706, 1076, 1124
3482, 387, 390, 341, 1110
3483, 815, 788, 992, 1261
3484, 907, 1084, 1116, 1295
3485, 339, 360, 1095, 1211
3486, 835, 1080, 786, 1208
3487, 888, 1181, 1137, 1209
3488, 143, 821, 299, 1038
3489, 703, 701, 752, 1123
3490, 845, 933, 1187, 1227
3491, 717, 690, 699, 1326
3492, 753, 306, 381, 1101
3493, 325, 975, 1230, 1274
3494, 178, 1189, 991, 1278
3495, 868, 1195, 946, 1260
3496, 879, 955, 1065, 1215
3497, 371, 346, 1009, 1153
3498, 991, 1049, 183, 1278
3499, 829, 810, 787, 1100
3500, 808, 1139, 1001, 1216
3501, 340, 1148, 324, 1230
3502, 503, 1043, 308, 1114
3503, 891, 1110, 966, 1136
3504, 542, 556, 613, 1053
3505, 611, 1026, 1224, 1282
3506, 531, 976, 489, 1291
3507, 935, 871, 1206, 1257
3508, 872, 950, 1226, 1301
3509, 578, 402, 96, 613
3510, 371, 321, 1153, 1274
3511, 164, 170, 165, 988
3512, 932, 1137, 1097, 1209
3513, 179, 270, 1062, 1263
3514, 109, 550, 667, 713
3515, 855, 1088, 1003, 1306
3516, 862, 965, 1194, 1306
3517, 704, 705, 1076, 1245
3518, 508, 408, 352, 1048
3519, 325, 340, 324, 1230
3520, 436, 456, 455, 1014
3521, 620, 584, 621, 1069
3522, 1245, 1276, 986, 1303
3523, 750, 277, 673, 1069
3524, 1050, 1187, 933, 1227
3525, 888, 1037, 1070, 1330
3526, 1049, 1275, 183, 1278
3527, 572, 561, 994, 1190
3528, 219, 267, 223, 1059
3529, 763, 834, 800, 1135
3530, 981, 1253, 982, 1321
3531, 442, 1087, 444, 1219
3532, 491, 488, 1103, 1110
3533, 543, 748, 730, 1068
3534, 684, 1126, 682, 1186
3535, 965, 1174, 949, 1306
3536, 998, 1124, 899, 1276
3537, 951, 904, 1111, 1283
3538, 906, 957, 1057, 1198
3539, 407, 672, 711, 1012
3540, 245, 1222, 978, 1293
3541, 652, 838, 766, 1026
3542, 315, 1038, 344, 1271
3543, 869, 936, 1163, 1302
3544, 1031, 1307, 893, 1314
3545, 874, 1118, 928, 1235
3546, 307, 1076, 355, 1124
3547, 857, 1057, 1257, 1329
3548, 512, 1200, 569, 1262
3549, 853, 977, 1228, 1255
3550, 745, 717, 746, 1022
3551, 179, 182, 270, 1263
3552, 860, 961, 1120, 1193
3553, 507, 525, 444, 1219
3554, 941, 852, 1215, 1264
3555, 881, 943, 1150, 1223
3556, 875, 1035, 1192, 1311
3557, 479, 1154, 1089, 1305
3558, 781, 782, 783, 1139
3559, 981, 1241, 982, 1253
3560, 790, 1104, 795, 1267
3561, 357, 344, 315, 1038
3562, 765, 385, 839, 1038
3563, 535, 767, 83, 1122
3564, 497, 555, 572, 1043
3565, 868, 1016, 1195, 1289
3566, 896, 1024, 1095, 1176
3567, 472, 476, 561, 972
3568, 612, 1150, 594, 1223
3569, 861, 982, 1051, 1253
3570, 857, 957, 1057, 1329
3571, 220, 1234, 1130, 1311
3572, 526, 532, 529, 1063
3573, 586, 587, 616, 1030
3574, 599, 600, 601, 1094
3575, 670, 742, 741, 1034
3576, 786, 1080, 833, 1208
3577, 874, 936, 1086, 1292
3578, 871, 1079, 1052, 1108
3579, 609, 1121, 604, 1282
3580, 790, 787, 774, 1104
3581, 662, 838, 652, 566
3582, 758, 809, 808, 1001
3583, 213, 290, 209, 1145
3584, 1048, 1124, 998, 1273
3585, 1076, 1276, 1245, 1303
3586, 13, 225, 630, 575
3587, 363, 308, 67, 497
3588, 488, 1110, 406, 1203
3589, 777, 779, 1261, 1268
3590, 655, 1092, 993, 1161
3591, 319, 1017, 320, 1313
3592, 864, 970, 1117, 1289
3593, 868, 1195, 964, 1289
3594, 99, 577, 396, 635
3595, 934, 1216, 882, 1246
3596, 979, 1132, 1025, 1236
3597, 1072, 1225, 933, 1227
3598, 982, 1241, 239, 1308
3599, 232, 256, 49, 715
3600, 953, 1117, 1073, 1142
3601, 595, 943, 1178, 1318
3602, 555, 503, 504, 1114
3603, 969, 1056, 844, 1111
3604, 934, 1196, 1056, 1246
3605, 272, 166, 234, 1156
3606, 564, 309, 362, 1110
3607, 977, 1045, 858, 1255
3608, 879, 988, 1072, 1225
3609, 558, 545, 478, 1012
3610, 1113, 1215, 897, 1304
3611, 288, 225, 254, 1011
3612, 1015, 1044, 902, 1320
3613, 706, 664, 737, 1076
3614, 220, 1035, 1234, 1311
3615, 816, 1078, 775, 1174
3616, 879, 1225, 1072, 1227
3617, 934, 1139, 781, 1216
3618, 863, 979, 1047, 1317
3619, 839, 395, 299, 385
3620, 825, 381, 357, 1101
3621, 776, 777, 775, 1174
3622, 925, 1160, 966, 1203
3623, 354, 1124, 1048, 1273
3624, 707, 695, 693, 1041
3625, 83, 767, 759, 1122
3626, 817, 819, 1093, 1296
3627, 158, 1031, 155, 1314
3628, 266, 964, 1142, 1319
3629, 892, 1202, 1086, 1288
3630, 560, 579, 405, 1177
3631, 510, 1023, 401, 1248
3632, 993, 1092, 1052, 1161
3633, 339, 372, 360, 1211
3634, 585, 653, 615, 1082
3635, 981, 861, 1253, 1321
3636, 239, 274, 238, 1241
3637, 181, 996, 1164, 1263
3638, 559, 314, 373, 1160
3639, 586, 578, 587, 1030
3640, 588, 1053, 638, 1223
3641, 1095, 1172, 339, 1211
3642, 279, 211, 923, 1179
3643, 163, 167, 164, 1140
3644, 499, 498, 409, 1026
3645, 824, 823, 641, 1082
3646, 449, 448, 451, 1005
3647, 324, 326, 322, 1230
3648, 1025, 1132, 845, 1236
3649, 826, 795, 1038, 1267
3650, 303, 213, 206, 1145
3651, 473, 472, 447, 1105
3652, 31, 821, 145, 761
3653, 300, 750, 659, 1069
3654, 536, 500, 1177, 1232
3655, 400, 535, 83, 1122
3656, 713, 667, 726, 1200
3657, 875, 1192, 1130, 1311
3658, 770, 806, 774, 1141
3659, 147, 981, 146, 1321
3660, 493, 535, 534, 1296
3661, 933, 1225, 1072, 1327
3662, 244, 262, 967, 1311
3663, 353, 317, 354, 1048
3664, 946, 868, 1112, 1228
3665, 865, 963, 1156, 1184
3666, 886, 1077, 1031, 1307
3667, 106, 677, 674, 552
3668, 474, 1054, 501, 1258
3669, 845, 1227, 1187, 1236
3670, 848, 1191, 1067, 1320
3671, 830, 814, 810, 1100
3672, 862, 1091, 1003, 1194
3673, 858, 984, 1042, 1158
3674, 979, 845, 1132, 1236
3675, 179, 270, 177, 1062
3676, 941, 879, 1215, 1227
3677, 175, 1144, 171, 1270
3678, 447, 472, 448, 1190
3679, 865, 1024, 1201, 1308
3680, 915, 1019, 1202, 1288
3681, 768, 767, 817, 1296
3682, 628, 593, 642, 1075
3683, 588, 638, 590, 1223
3684, 279, 140, 214, 1006
3685, 788, 1216, 1165, 1261
3686, 893, 1077, 1031, 1314
3687, 692, 690, 1019, 1280
3688, 283, 232, 960, 1275
3689, 877, 1188, 995, 1243
3690, 203, 199, 198, 1234
3691, 263, 161, 156, 1046
3692, 881, 1071, 1033, 1150
3693, 446, 444, 445, 1087
3694, 551, 447, 445, 1105
3695, 469, 1013, 486, 1305
3696, 821, 143, 31, 145
3697, 885, 988, 1144, 1298
3698, 788, 809, 1165, 1216
3699, 875, 947, 1107, 1234
3700, 955, 909, 1083, 1279
3701, 242, 193, 191, 1079
3702, 866, 1070, 1037, 1330
3703, 228, 22, 800, 141
3704, 550, 109, 509, 713
3705, 211, 278, 140, 1272
3706, 848, 1163, 936, 1199
3707, 351, 375, 1076, 1147
3708, 156, 1046, 161, 1260
3709, 202, 212, 201, 1029
3710, 453, 1042, 522, 1323
3711, 560, 623, 579, 1177
3712, 879, 955, 1215, 1279
3713, 180, 1189, 996, 1263
3714, 825, 753, 381, 1101
3715, 668, 407, 711, 1316
3716, 400, 83, 759, 1122
3717, 101, 579, 639, 518
3718, 956, 1164, 859, 1210
3719, 835, 812, 755, 1208
3720, 964, 1117, 864, 1142
3721, 845, 979, 1227, 1236
3722, 156, 1046, 1260, 1314
3723, 862, 1004, 1091, 1194
3724, 768, 770, 769, 1141
3725, 953, 864, 1117, 1142
3726, 1072, 1225, 988, 1327
3727, 354, 737, 379, 1124
3728, 252, 1009, 273, 1153
3729, 582, 566, 652, 1026
3730, 865, 1184, 1024, 1308
3731, 482, 554, 571, 1033
3732, 995, 1143, 1075, 1188
3733, 669, 401, 108, 713
3734, 134, 213, 303, 1034
3735, 860, 1117, 970, 1132
3736, 1013, 1294, 1205, 1302
3737, 868, 1300, 1097, 1327
3738, 798, 841, 820, 1026
3739, 178, 176, 183, 991
3740, 707, 693, 718, 1202
3741, 452, 1040, 457, 1285
3742, 875, 1130, 990, 1234
3743, 482, 1138, 1033, 1250
3744, 961, 1120, 329, 1252
3745, 342, 337, 1066, 1212
3746, 508, 65, 313, 352
3747, 472, 473, 476, 972
3748, 501, 1054, 1053, 1258
3749, 169, 167, 163, 1319
3750, 509, 1023, 569, 1200
3751, 622, 995, 642, 1188
3752, 911, 1109, 1091, 1214
3753, 865, 1051, 982, 1201
3754, 959, 1089, 903, 1154
3755, 765, 1038, 795, 1101
3756, 354, 1048, 317, 1273
3757, 879, 1072, 988, 1140
3758, 766, 822, 624, 1224
3759, 868, 964, 1195, 1260
3760, 766, 624, 1026, 1224
3761, 950, 1266, 1106, 1307
3762, 999, 1115, 904, 1283
3763, 754, 573, 648, 1224
3764, 149, 204, 147, 1098
3765, 250, 619, 11, 580
3766, 624, 611, 1026, 1224
3767, 887, 1229, 968, 1329
3768, 515, 99, 396, 635
3769, 853, 1295, 1031, 1307
3770, 336, 347, 1136, 1212
3771, 844, 1099, 1056, 1324
3772, 884, 1170, 940, 1254
3773, 713, 726, 679, 1023
3774, 372, 339, 1172, 1211
3775, 612, 636, 596, 1150
3776, 872, 1109, 999, 1213
3777, 854, 1192, 1055, 1324
3778, 299, 315, 275, 1038
3779, 802, 784, 782, 1159
3780, 1055, 1192, 967, 1324
3781, 226, 220, 1035, 1234
3782, 288, 1011, 255, 1151
3783, 172, 252, 207, 1083
3784, 956, 1011, 1164, 1210
3785, 217, 273, 252, 1009
3786, 288, 1151, 184, 1164
3787, 744, 703, 673, 1069
3788, 385, 765, 357, 1038
3789, 283, 1275, 960, 1278
3790, 982, 1241, 880, 1253
3791, 897, 1126, 942, 1304
3792, 523, 422, 425, 1109
3793, 384, 366, 376, 1269
3794, 175, 171, 176, 1270
3795, 846, 1129, 945, 1146
3796, 874, 1235, 936, 1292
3797, 793, 823, 1082, 1135
3798, 285, 213, 134, 1034
3799, 235, 1156, 234, 1184
3800, 828, 787, 790, 1267
3801, 519, 533, 506, 1058
3802, 889, 1041, 1012, 1096
3803, 291, 211, 1179, 1272
3804, 877, 1145, 937, 1191
3805, 271, 168, 258, 1077
3806, 760, 831, 832, 1035
3807, 674, 544, 106, 552
3808, 211, 923, 1179, 1272
3809, 13, 225, 575, 254
3810, 503, 67, 308, 497
3811, 865, 982, 1184, 1201
3812, 869, 1133, 1181, 1302
3813, 456, 1014, 1138, 1250
3814, 605, 631, 655, 993
3815, 732, 617, 647, 1167
3816, 488, 1103, 1110, 1203
3817, 904, 951, 1111, 1249
3818, 165, 170, 171, 1298
3819, 148, 150, 149, 1321
3820, 664, 1076, 705, 1328
3821, 989, 1084, 907, 1295
3822, 881, 1138, 1014, 1250
3823, 167, 173, 259, 1140
3824, 928, 1181, 1133, 1302
3825, 865, 1201, 1184, 1308
3826, 277, 290, 285, 1069
3827, 478, 1180, 1012, 1316
3828, 237, 1024, 235, 1308
3829, 1073, 1142, 1117, 1319
3830, 326, 1147, 361, 1242
3831, 241, 1172, 287, 1217
3832, 241, 295, 1172, 1211
3833, 1096, 1180, 1012, 1218
3834, 861, 1100, 981, 1253
3835, 723, 698, 725, 1154
3836, 937, 1189, 284, 1278
3837, 429, 432, 520, 1039
3838, 372, 1172, 295, 1211
3839, 541, 411, 493, 1160
3840, 794, 753, 795, 1101
3841, 900, 1009, 1083, 1153
3842, 478, 546, 1180, 1316
3843, 1002, 1042, 898, 1323
3844, 1043, 1114, 890, 1269
3845, 697, 738, 700, 1186
3846, 850, 1060, 985, 1171
3847, 909, 1117, 964, 1319
3848, 170, 259, 202, 1029
3849, 958, 1240, 1070, 1330
3850, 946, 977, 1195, 1228
3851, 296, 139, 246, 1161
3852, 510, 509, 401, 1023
3853, 948, 1197, 884, 1315
3854, 272, 235, 240, 1156
3855, 222, 208, 279, 1065
3856, 317, 352, 64, 408
3857, 874, 1171, 985, 1292
3858, 37, 289, 370, 346
3859, 637, 613, 97, 556
3860, 651, 607, 592, 1210
3861, 10, 142, 584, 619
3862, 720, 740, 1006, 1286
3863, 1070, 1240, 888, 1330
3864, 880, 1051, 1253, 1265
3865, 455, 1014, 456, 1250
3866, 739, 720, 740, 1006
3867, 817, 764, 819, 1296
3868, 1024, 1184, 235, 1308
3869, 404, 65, 313, 508
3870, 312, 138, 42, 297
3871, 313, 359, 382, 994
3872, 220, 135, 1035, 1311
3873, 864, 1117, 964, 1289
3874, 1103, 1244, 884, 1259
3875, 308, 363, 376, 1043
3876, 926, 1071, 1033, 1138
3877, 559, 72, 314, 362
3878, 856, 1064, 1060, 1292
3879, 1037, 1226, 853, 1255
3880, 137, 250, 11, 580
3881, 711, 672, 707, 1012
3882, 347, 341, 336, 1136
3883, 266, 1142, 189, 1319
3884, 906, 1057, 993, 1198
3885, 893, 1031, 1077, 1307
3886, 234, 1085, 150, 1184
3887, 943, 883, 1178, 1318
3888, 1057, 1173, 857, 1257
3889, 150, 234, 152, 1085
3890, 241, 240, 237, 1172
3891, 920, 1239, 1062, 1270
3892, 362, 406, 564, 1110
3893, 768, 769, 759, 1122
3894, 867, 1056, 1111, 1246
3895, 463, 1103, 976, 1244
3896, 258, 271, 1077, 1299
3897, 1067, 1191, 996, 1277
3898, 552, 557, 480, 998
3899, 986, 1186, 684, 1245
3900, 995, 1188, 622, 1243
3901, 793, 792, 834, 1081
3902, 453, 522, 507, 1323
3903, 101, 579, 518, 405
3904, 416, 1090, 417, 1283
3905, 401, 509, 108, 713
3906, 243, 139, 1222, 1322
3907, 877, 1191, 1143, 1277
3908, 723, 398, 1154, 1200
3909, 976, 884, 1244, 1259
3910, 622, 574, 995, 1243
3911, 763, 840, 823, 1135
3912, 486, 1305, 1180, 1316
3913, 632, 14, 575, 254
3914, 308, 68, 503, 365
3915, 733, 1069, 703, 1243
3916, 643, 633, 1011, 1318
3917, 482, 554, 1033, 1138
3918, 575, 643, 633, 1011
3919, 1157, 1284, 895, 1286
3920, 779, 781, 1216, 1268
3921, 896, 1172, 997, 1252
3922, 400, 1122, 485, 1291
3923, 273, 1009, 346, 1153
3924, 849, 1182, 970, 1237
3925, 138, 238, 297, 1271
3926, 750, 733, 659, 1069
3927, 556, 542, 484, 1053
3928, 488, 406, 490, 1203
3929, 879, 1072, 1140, 1279
3930, 965, 1080, 855, 1306
3931, 577, 98, 396, 556
3932, 310, 38, 289, 370
3933, 98, 577, 637, 556
3934, 407, 545, 672, 1012
3935, 332, 338, 330, 1204
3936, 1137, 1181, 928, 1235
3937, 634, 130, 632, 1092
3938, 237, 235, 236, 1308
3939, 724, 696, 743, 1286
3940, 570, 480, 473, 1248
3941, 636, 596, 1150, 1310
3942, 1184, 1201, 982, 1308
3943, 815, 992, 1174, 1261
3944, 708, 707, 672, 1012
3945, 577, 612, 637, 1033
3946, 503, 308, 365, 1114
3947, 724, 1284, 696, 1286
3948, 574, 642, 622, 995
3949, 670, 232, 48, 715
3950, 388, 1221, 390, 1247
3951, 678, 1220, 716, 1276
3952, 880, 1241, 1038, 1267
3953, 665, 131, 50, 722
3954, 859, 1164, 1011, 1210
3955, 951, 1213, 999, 1283
3956, 844, 974, 1099, 1175
3957, 147, 149, 1098, 1321
3958, 637, 638, 613, 1053
3959, 645, 642, 593, 1188
3960, 1033, 1138, 881, 1250
3961, 928, 1294, 1013, 1302
3962, 659, 584, 300, 1069
3963, 724, 1032, 686, 1284
3964, 616, 617, 583, 1068
3965, 851, 1259, 1008, 1315
3966, 612, 594, 638, 1223
3967, 888, 1240, 1070, 1290
3968, 241, 237, 295, 1211
3969, 892, 1096, 1041, 1288
3970, 872, 1091, 1003, 1301
3971, 834, 763, 793, 1135
3972, 865, 1156, 1024, 1184
3973, 915, 1202, 1041, 1288
3974, 843, 1137, 985, 1235
3975, 523, 1109, 537, 1214
3976, 785, 798, 797, 1131
3977, 1009, 1153, 900, 1274
3978, 841, 766, 1026, 1224
3979, 257, 302, 131, 1275
3980, 696, 1284, 743, 1286
3981, 178, 991, 183, 1278
3982, 102, 579, 405, 560
3983, 220, 227, 135, 1311
3984, 1024, 1211, 962, 1308
3985, 906, 1222, 1161, 1322
3986, 341, 364, 334, 1136
3987, 704, 705, 664, 1076
3988, 647, 574, 663, 1167
3989, 1071, 1150, 912, 1310
3990, 976, 1244, 1103, 1259
3991, 871, 1057, 1055, 1257
3992, 262, 1130, 967, 1311
3993, 771, 775, 816, 1078
3994, 732, 647, 663, 1167
3995, 470, 1162, 466, 1231
3996, 414, 416, 471, 1185
3997, 909, 1140, 1072, 1279
3998, 196, 1079, 242, 1322
3999, 137, 12, 225, 630
4000, 946, 1195, 868, 1228
4001, 294, 210, 207, 1179
4002, 877, 1123, 995, 1143
4003, 442, 443, 444, 1087
4004, 924, 1166, 1032, 1284
4005, 434, 1133, 436, 1205
4006, 877, 1188, 1036, 1277
4007, 860, 1132, 970, 1193
4008, 636, 612, 577, 1033
4009, 1012, 1096, 892, 1180
4010, 355, 307, 375, 1076
4011, 691, 1183, 718, 1202
4012, 140, 54, 714, 671
4013, 446, 449, 507, 1323
4014, 982, 1241, 981, 1321
4015, 497, 66, 363, 404
4016, 657, 608, 654, 1222
4017, 200, 1092, 247, 1161
4018, 177, 176, 178, 1270
4019, 1093, 1160, 925, 1296
4020, 454, 452, 457, 1285
4021, 487, 1103, 463, 1244
4022, 714, 666, 53, 140
4023, 904, 1249, 999, 1283
4024, 835, 786, 833, 1208
4025, 777, 1174, 965, 1261
4026, 154, 1251, 1046, 1314
4027, 520, 1039, 442, 1219
4028, 628, 589, 593, 1075
4029, 967, 1130, 914, 1324
4030, 509, 569, 550, 1200
4031, 356, 312, 42, 297
4032, 12, 137, 580, 630
4033, 843, 1097, 1137, 1209
4034, 272, 234, 235, 1156
4035, 1013, 1180, 486, 1305
4036, 559, 373, 541, 1160
4037, 388, 364, 390, 1221
4038, 1143, 1191, 919, 1277
4039, 405, 536, 500, 1177
4040, 777, 778, 779, 1268
4041, 543, 115, 545, 730
4042, 470, 466, 465, 1231
4043, 159, 162, 1112, 1260
4044, 711, 407, 1012, 1316
4045, 766, 624, 652, 1026
4046, 102, 579, 560, 623
4047, 486, 1180, 546, 1316
4048, 66, 313, 363, 404
4049, 278, 276, 731, 1272
4050, 294, 1017, 210, 1179
4051, 241, 295, 372, 1172
4052, 1110, 1221, 891, 1247
4053, 352, 508, 64, 408
4054, 72, 559, 406, 362
4055, 151, 1085, 152, 1251
4056, 691, 719, 718, 1183
4057, 10, 142, 619, 250
4058, 719, 698, 728, 1154
4059, 50, 256, 131, 665
4060, 723, 725, 667, 1200
4061, 470, 516, 517, 1021
4062, 866, 1128, 958, 1330
4063, 294, 133, 1017, 1153
4064, 737, 79, 354, 379
4065, 958, 1128, 921, 1330
4066, 897, 1215, 1264, 1304
4067, 822, 754, 648, 1224
4068, 641, 823, 585, 1082
4069, 198, 1130, 220, 1234
4070, 765, 795, 825, 1101
4071, 398, 723, 550, 1200
4072, 523, 425, 537, 1109
4073, 36, 311, 133, 1153
4074, 134, 47, 710, 670
4075, 320, 311, 321, 1153
4076, 360, 335, 333, 1095
4077, 607, 1044, 592, 1210
4078, 369, 1172, 339, 1252
4079, 919, 1143, 1075, 1320
4080, 400, 485, 534, 1291
4081, 145, 274, 146, 1241
4082, 892, 959, 1183, 1305
4083, 431, 1133, 430, 1294
4084, 975, 1230, 1148, 1269
4085, 524, 421, 433, 1115
4086, 456, 1138, 482, 1250
4087, 904, 951, 1249, 1283
4088, 374, 827, 61, 819
4089, 820, 766, 838, 1026
4090, 717, 1022, 1284, 1326
4091, 1024, 1095, 962, 1211
4092, 36, 346, 311, 1153
4093, 706, 704, 1076, 1276
4094, 400, 534, 1122, 1291
4095, 941, 1264, 1215, 1304
4096, 827, 819, 374, 1093
4097, 456, 1138, 1014, 1312
4098, 690, 1019, 1280, 1326
4099, 568, 583, 658, 1068
4100, 562, 402, 1030, 1258
4101, 635, 100, 639, 1281
4102, 936, 1199, 1163, 1302
4103, 566, 582, 499, 1026
4104, 345, 1120, 327, 1274
4105, 668, 1183, 547, 1316
4106, 668, 711, 407, 113
4107, 275, 274, 1038, 1271
4108, 846, 1129, 1027, 1266
4109, 875, 1192, 1056, 1324
4110, 526, 522, 453, 1042
4111, 228, 248, 141, 1135
4112, 478, 1180, 475, 1218
4113, 757, 803, 816, 1021
4114, 176, 171, 282, 1298
4115, 1015, 1163, 1067, 1320
4116, 283, 183, 1275, 1278
4117, 997, 1172, 896, 1217
4118, 244, 967, 1293, 1311
4119, 641, 573, 120, 824
4120, 371, 345, 327, 1274
4121, 945, 1254, 1146, 1287
4122, 564, 309, 1110, 1247
4123, 678, 716, 727, 1276
4124, 1014, 1054, 881, 1250
4125, 229, 1116, 221, 1297
4126, 276, 1169, 731, 1272
4127, 882, 965, 1194, 1261
4128, 148, 1241, 982, 1321
4129, 876, 1010, 1155, 1239
4130, 415, 1090, 414, 1207
4131, 724, 1032, 1284, 1286
4132, 946, 1260, 1046, 1314
4133, 325, 1230, 323, 1274
4134, 932, 1228, 977, 1255
4135, 371, 321, 346, 1153
4136, 843, 1181, 1137, 1235
4137, 351, 375, 307, 1076
4138, 846, 1027, 1129, 1146
4139, 996, 1189, 878, 1263
4140, 111, 728, 723, 1154
4141, 327, 329, 328, 1120
4142, 1001, 1165, 882, 1185
4143, 172, 188, 252, 1083
4144, 864, 964, 1195, 1289
4145, 291, 1169, 276, 1272
4146, 841, 822, 766, 1224
4147, 526, 1042, 453, 1285
4148, 460, 487, 463, 1244
4149, 730, 115, 545, 672
4150, 531, 462, 463, 1244
4151, 278, 731, 671, 1272
4152, 779, 780, 781, 1268
4153, 985, 1171, 1060, 1292
4154, 156, 154, 1046, 1314
4155, 543, 558, 410, 1068
4156, 718, 668, 711, 1183
4157, 302, 257, 201, 1049
4158, 750, 673, 733, 1069
4159, 595, 594, 596, 1150
4160, 870, 998, 1220, 1248
4161, 540, 466, 539, 1162
4162, 241, 372, 368, 1172
4163, 830, 811, 833, 1256
4164, 260, 159, 162, 1112
4165, 635, 515, 100, 1281
4166, 899, 1076, 1147, 1303
4167, 315, 275, 1038, 1271
4168, 772, 773, 771, 1238
4169, 793, 763, 823, 1135
4170, 414, 415, 416, 1090
4171, 875, 1035, 1159, 1192
4172, 174, 1184, 982, 1308
4173, 860, 1182, 961, 1193
4174, 662, 652, 582, 566
4175, 315, 299, 395, 385
4176, 781, 1139, 808, 1216
4177, 625, 1224, 922, 1282
4178, 622, 646, 574, 1243
4179, 241, 1172, 237, 1211
4180, 573, 754, 120, 824
4181, 421, 419, 433, 1115
4182, 927, 1135, 978, 1293
4183, 379, 737, 78, 307
4184, 432, 442, 520, 1039
4185, 900, 1153, 1017, 1242
4186, 684, 680, 682, 1126
4187, 590, 592, 1044, 1223
4188, 1126, 1264, 942, 1304
4189, 874, 985, 1235, 1292
4190, 896, 1095, 1024, 1172
4191, 133, 311, 35, 319
4192, 95, 586, 402, 578
4193, 240, 235, 237, 1024
4194, 908, 1077, 1106, 1266
4195, 1177, 1229, 887, 1282
4196, 416, 417, 418, 1283
4197, 419, 420, 418, 1283
4198, 294, 133, 251, 1017
4199, 641, 824, 121, 823
4200, 289, 273, 217, 1009
4201, 344, 357, 358, 1101
4202, 1008, 1259, 884, 1315
4203, 975, 900, 1230, 1274
4204, 143, 275, 274, 1038
4205, 292, 139, 18, 1222
4206, 999, 1249, 951, 1283
4207, 288, 255, 184, 1151
4208, 970, 1132, 1025, 1193
4209, 655, 634, 1092, 1161
4210, 629, 18, 139, 1222
4211, 491, 488, 487, 1103
4212, 153, 258, 168, 1077
4213, 931, 1199, 1013, 1302
4214, 844, 1084, 1018, 1175
4215, 307, 1076, 664, 1328
4216, 307, 664, 380, 1328
4217, 529, 532, 425, 1063
4218, 572, 561, 404, 994
4219, 604, 1229, 610, 1282
4220, 22, 763, 800, 141
4221, 257, 183, 1049, 1275
4222, 436, 434, 430, 1133
4223, 398, 110, 550, 723
4224, 1013, 931, 1180, 1199
4225, 471, 495, 496, 1185
4226, 821, 765, 839, 1038
4227, 1075, 1143, 919, 1188
4228, 283, 960, 233, 1278
4229, 266, 268, 189, 1142
4230, 463, 1103, 488, 1203
4231, 785, 799, 798, 1131
4232, 733, 659, 1069, 1243
4233, 314, 373, 73, 559
4234, 737, 354, 729, 1124
4235, 468, 438, 437, 1118
4236, 830, 829, 756, 1100
4237, 329, 1120, 345, 1252
4238, 560, 499, 103, 623
4239, 263, 156, 154, 1046
4240, 271, 197, 199, 1299
4241, 860, 970, 1182, 1193
4242, 751, 708, 730, 1068
4243, 543, 410, 568, 1068
4244, 566, 499, 409, 1026
4245, 240, 1172, 241, 1217
4246, 342, 336, 337, 1212
4247, 760, 832, 805, 1035
4248, 700, 684, 1186, 1245
4249, 558, 478, 477, 1218
4250, 1181, 1235, 936, 1302
4251, 350, 735, 675, 1328
4252, 471, 496, 514, 1165
4253, 151, 152, 153, 1251
4254, 1011, 1210, 643, 1318
4255, 241, 40, 368, 372
4256, 793, 842, 1081, 1082
4257, 615, 614, 609, 1121
4258, 542, 501, 484, 1053
4259, 154, 152, 166, 1251
4260, 299, 275, 143, 1038
4261, 882, 1165, 1001, 1216
4262, 765, 826, 795, 1038
4263, 673, 703, 733, 1069
4264, 350, 675, 1169, 1328
4265, 254, 632, 14, 130
4266, 68, 397, 503, 365
4267, 111, 548, 728, 1154
4268, 322, 326, 361, 1242
4269, 624, 822, 648, 1224
4270, 568, 658, 748, 1068
4271, 196, 242, 243, 1322
4272, 169, 189, 188, 1073
4273, 135, 226, 220, 1035
4274, 48, 134, 232, 670
4275, 307, 351, 1076, 1328
4276, 745, 722, 743, 1157
4277, 830, 1100, 756, 1256
4278, 354, 355, 353, 1124
4279, 899, 986, 1276, 1303
4280, 40, 241, 295, 372
4281, 466, 538, 464, 1214
4282, 538, 523, 537, 1214
4283, 728, 668, 719, 1183
4284, 537, 461, 464, 1214
4285, 385, 357, 315, 1038
4286, 455, 501, 1054, 1250
4287, 272, 1156, 240, 1217
4288, 881, 1054, 1053, 1250
4289, 286, 200, 190, 1052
4290, 555, 497, 503, 1043
4291, 1064, 936, 1235, 1292
4292, 1012, 1180, 892, 1316
4293, 899, 1276, 1076, 1303
4294, 1182, 1193, 970, 1237
4295, 221, 1116, 197, 1299
4296, 843, 1137, 1181, 1209
4297, 631, 608, 657, 1198
4298, 365, 397, 503, 1114
4299, 222, 279, 214, 1065
4300, 735, 380, 664, 1328
4301, 576, 629, 17, 296
4302, 71, 564, 309, 362
4303, 740, 666, 739, 1006
4304, 736, 1245, 700, 1272
4305, 398, 512, 549, 1200
4306, 209, 293, 205, 1145
4307, 440, 434, 1205, 1294
4308, 885, 1300, 1144, 1327
4309, 724, 683, 686, 1032
4310, 118, 624, 766, 822
4311, 892, 1041, 1202, 1288
4312, 980, 1148, 863, 1317
4313, 666, 721, 52, 280
4314, 884, 1259, 976, 1315
4315, 278, 55, 671, 731
4316, 233, 283, 232, 960
4317, 964, 1046, 1195, 1260
4318, 280, 721, 52, 281
4319, 875, 1056, 1099, 1324
4320, 326, 377, 378, 1152
4321, 1053, 1054, 902, 1258
4322, 572, 513, 561, 1190
4323, 254, 255, 288, 1011
4324, 957, 1229, 887, 1329
4325, 711, 407, 114, 672
4326, 244, 243, 245, 1293
4327, 815, 1174, 777, 1261
4328, 897, 1264, 1126, 1304
4329, 132, 267, 218, 1208
4330, 809, 781, 808, 1216
4331, 16, 576, 247, 634
4332, 289, 129, 38, 310
4333, 317, 1048, 408, 1273
4334, 461, 532, 459, 1170
4335, 794, 795, 790, 1104
4336, 731, 278, 55, 276
4337, 251, 133, 35, 319
4338, 95, 586, 502, 402
4339, 981, 1241, 146, 1321
4340, 887, 1177, 968, 1229
4341, 197, 221, 194, 1116
4342, 848, 1061, 1067, 1191
4343, 130, 634, 247, 1092
4344, 189, 1073, 169, 1319
4345, 1076, 1147, 916, 1328
4346, 132, 265, 267, 1208
4347, 986, 1220, 1126, 1264
4348, 783, 797, 808, 1139
4349, 717, 696, 688, 1284
4350, 967, 1192, 1130, 1324
4351, 877, 1143, 995, 1188
4352, 975, 1148, 1230, 1317
4353, 885, 1144, 988, 1327
4354, 204, 149, 223, 1098
4355, 200, 286, 247, 1092
4356, 697, 700, 684, 1186
4357, 434, 430, 1133, 1294
4358, 717, 1284, 688, 1326
4359, 890, 1025, 1193, 1237
4360, 16, 576, 296, 247
4361, 381, 306, 358, 1101
4362, 247, 634, 576, 1161
4363, 1021, 1162, 470, 1231
4364, 897, 1186, 1126, 1264
4365, 598, 597, 596, 1310
4366, 877, 1036, 1145, 1277
4367, 900, 975, 1230, 1317
4368, 321, 322, 320, 1242
4369, 329, 345, 369, 1252
4370, 1035, 927, 1192, 1311
4371, 772, 787, 810, 1238
4372, 706, 1076, 1124, 1276
4373, 473, 1105, 551, 1248
4374, 735, 350, 380, 1328
4375, 140, 54, 671, 278
4376, 399, 514, 496, 1165
4377, 727, 1124, 729, 1273
4378, 500, 499, 560, 1177
4379, 892, 1013, 1180, 1199
4380, 981, 880, 1241, 1253
4381, 535, 767, 1122, 1296
4382, 779, 1216, 1261, 1268
4383, 617, 732, 124, 676
4384, 907, 1155, 1010, 1297
4385, 896, 1172, 1024, 1217
4386, 806, 768, 817, 1141
4387, 226, 203, 220, 1234
4388, 986, 870, 1220, 1264
4389, 591, 590, 592, 1044
4390, 862, 1194, 1003, 1306
4391, 664, 706, 704, 1076
4392, 139, 17, 629, 296
4393, 564, 71, 406, 362
4394, 667, 725, 726, 1200
4395, 905, 1226, 1037, 1255
4396, 957, 1094, 1057, 1198
4397, 502, 562, 402, 1030
4398, 296, 247, 576, 1161
4399, 170, 1029, 201, 1298
4400, 779, 1216, 788, 1261
4401, 318, 374, 61, 819
4402, 542, 501, 1053, 1258
4403, 935, 1173, 1257, 1325
4404, 634, 656, 655, 1092
4405, 873, 1002, 1158, 1187
4406, 309, 564, 70, 1247
4407, 1126, 1220, 870, 1264
4408, 857, 1257, 1173, 1325
4409, 220, 1130, 262, 1311
4410, 318, 374, 819, 1093
4411, 282, 201, 1049, 1298
4412, 285, 46, 277, 673
4413, 900, 1230, 980, 1317
4414, 809, 818, 788, 1165
4415, 710, 285, 47, 134
4416, 187, 264, 186, 1155
4417, 607, 591, 592, 1044
4418, 280, 212, 214, 1006
4419, 879, 1227, 1072, 1279
4420, 367, 309, 70, 1247
4421, 869, 1205, 1133, 1302
4422, 191, 192, 187, 1108
4423, 623, 499, 103, 582
4424, 621, 1069, 659, 1243
4425, 1000, 1221, 1204, 1309
4426, 479, 549, 1089, 1154
4427, 962, 1201, 1024, 1308
4428, 402, 542, 96, 613
4429, 144, 316, 301, 1169
4430, 1126, 1186, 986, 1264
4431, 229, 221, 158, 1297
4432, 528, 413, 498, 1232
4433, 456, 483, 1138, 1312
4434, 257, 183, 282, 1049
4435, 791, 784, 792, 1081
4436, 461, 1170, 460, 1244
4437, 851, 976, 1259, 1315
4438, 243, 246, 139, 1322
4439, 505, 506, 533, 1058
4440, 159, 260, 160, 1112
4441, 481, 547, 479, 1305
4442, 1096, 1180, 931, 1199
4443, 619, 620, 626, 1036
4444, 620, 622, 645, 1188
4445, 788, 779, 809, 1216
4446, 435, 418, 420, 1213
4447, 611, 582, 624, 1026
4448, 911, 1170, 1197, 1254
4449, 668, 547, 407, 1316
4450, 884, 1197, 1170, 1254
4451, 815, 816, 775, 1174
4452, 976, 1244, 884, 1315
4453, 818, 813, 788, 1165
4454, 508, 476, 557, 1048
4455, 900, 980, 1230, 1242
4456, 888, 1209, 1037, 1330
4457, 287, 129, 304, 997
4458, 611, 1224, 625, 1282
4459, 200, 1161, 246, 1322
4460, 890, 1114, 1043, 1168
4461, 431, 521, 437, 1294
4462, 317, 353, 352, 1048
4463, 857, 1257, 969, 1329
4464, 875, 1130, 1192, 1324
4465, 331, 330, 329, 1252
4466, 307, 737, 78, 664
4467, 924, 1284, 1022, 1326
4468, 604, 610, 611, 1282
4469, 696, 724, 686, 1284
4470, 721, 722, 51, 1157
4471, 992, 1165, 882, 1261
4472, 721, 51, 281, 1157
4473, 434, 431, 430, 1294
4474, 164, 167, 259, 1140
4475, 356, 344, 343, 1271
4476, 1055, 914, 1206, 1324
4477, 278, 291, 276, 1272
4478, 639, 100, 518, 1281
4479, 359, 353, 378, 1152
4480, 46, 285, 710, 673
4481, 130, 632, 15, 634
4482, 397, 69, 367, 365
4483, 595, 1178, 650, 1318
4484, 342, 348, 347, 1212
4485, 684, 682, 697, 1186
4486, 793, 842, 791, 1081
4487, 493, 489, 490, 1203
4488, 911, 1197, 1091, 1301
4489, 907, 1295, 1116, 1297
4490, 515, 518, 100, 1281
4491, 264, 229, 230, 1297
4492, 262, 220, 198, 1130
4493, 627, 606, 639, 1281
4494, 651, 643, 1210, 1318
4495, 700, 736, 705, 1245
4496, 283, 256, 232, 1275
4497, 455, 501, 439, 1054
4498, 247, 1092, 634, 1161
4499, 354, 729, 79, 737
4500, 485, 1231, 531, 1291
4501, 229, 194, 221, 1116
4502, 1103, 1203, 976, 1259
4503, 129, 368, 39, 310
4504, 531, 485, 465, 1231
4505, 394, 374, 348, 1093
4506, 43, 356, 297, 1271
4507, 455, 484, 501, 1250
4508, 559, 373, 73, 541
4509, 43, 297, 275, 1271
4510, 1046, 1251, 893, 1314
4511, 733, 621, 659, 1243
4512, 272, 240, 216, 1217
4513, 1031, 1295, 1010, 1297
4514, 201, 170, 202, 1029
4515, 879, 1113, 1029, 1225
4516, 450, 512, 569, 1262
4517, 624, 625, 611, 1224
4518, 325, 323, 327, 1274
4519, 21, 298, 840, 141
4520, 1024, 1172, 1095, 1211
4521, 305, 288, 261, 1164
4522, 1055, 1206, 871, 1257
4523, 585, 641, 121, 823
4524, 369, 339, 331, 1252
4525, 491, 564, 1110, 1247
4526, 386, 318, 373, 1160
4527, 571, 554, 396, 1033
4528, 280, 53, 666, 140
4529, 820, 841, 766, 1026
4530, 397, 553, 504, 1114
4531, 43, 315, 356, 1271
4532, 822, 118, 624, 648
4533, 375, 361, 326, 1147
4534, 486, 440, 475, 1180
4535, 613, 638, 588, 1053
4536, 43, 275, 315, 1271
4537, 567, 317, 408, 1273
4538, 928, 1235, 1181, 1302
4539, 527, 524, 530, 1312
4540, 37, 289, 346, 273
4541, 613, 542, 97, 556
4542, 916, 1245, 1076, 1328
4543, 886, 1031, 1295, 1307
4544, 545, 114, 407, 672
4545, 907, 1010, 1295, 1297
4546, 453, 1285, 1042, 1323
4547, 892, 1180, 1096, 1199
4548, 510, 569, 509, 1023
4549, 186, 264, 231, 1155
4550, 981, 880, 1253, 1267
4551, 280, 214, 140, 1006
4552, 748, 676, 730, 1068
4553, 562, 1030, 477, 1218
4554, 825, 58, 765, 357
4555, 408, 1048, 557, 1273
4556, 594, 612, 596, 1150
4557, 1117, 1142, 964, 1319
4558, 621, 622, 620, 1243
4559, 1205, 1294, 1133, 1302
4560, 437, 438, 432, 1118
4561, 245, 243, 139, 1222
4562, 848, 1067, 1163, 1320
4563, 416, 415, 417, 1090
4564, 251, 210, 294, 1017
4565, 138, 237, 236, 1211
4566, 460, 461, 459, 1170
4567, 799, 754, 822, 1224
4568, 880, 981, 1241, 1267
4569, 174, 235, 1184, 1308
4570, 1045, 1226, 950, 1301
4571, 277, 300, 142, 1069
4572, 536, 528, 500, 1232
4573, 702, 701, 703, 1123
4574, 885, 988, 1225, 1327
4575, 729, 1124, 354, 1273
4576, 189, 215, 188, 1073
4577, 692, 699, 690, 1280
4578, 826, 790, 795, 1267
4579, 191, 193, 192, 1108
4580, 623, 610, 579, 1177
4581, 124, 647, 732, 617
4582, 144, 1169, 291, 1313
4583, 780, 807, 1107, 1268
4584, 203, 198, 220, 1234
4585, 440, 521, 434, 1294
4586, 645, 622, 642, 1188
4587, 877, 1145, 1191, 1277
4588, 129, 39, 368, 241
4589, 748, 658, 676, 1068
4590, 478, 546, 475, 1180
4591, 257, 283, 183, 1275
4592, 892, 1180, 1013, 1305
4593, 734, 646, 127, 1243
4594, 165, 175, 260, 1144
4595, 691, 693, 692, 1202
4596, 365, 366, 389, 1114
4597, 387, 362, 390, 1110
4598, 240, 241, 287, 1217
4599, 435, 420, 523, 1213
4600, 970, 1193, 1025, 1237
4601, 566, 92, 838, 409
4602, 648, 573, 625, 1224
4603, 360, 333, 339, 1095
4604, 350, 735, 76, 675
4605, 298, 141, 249, 1135
4606, 462, 461, 460, 1244
4607, 138, 41, 295, 1211
4608, 200, 191, 190, 1052
4609, 319, 34, 251, 1313
4610, 712, 742, 699, 1280
4611, 722, 131, 51, 1157
4612, 372, 295, 41, 1211
4613, 489, 463, 488, 1203
4614, 350, 1169, 316, 1313
4615, 178, 284, 1189, 1278
4616, 605, 650, 597, 1178
4617, 967, 1130, 1192, 1311
4618, 541, 493, 490, 1160
4619, 891, 1221, 1000, 1309
4620, 486, 481, 1305, 1316
4621, 138, 312, 41, 1211
4622, 525, 520, 442, 1219
4623, 811, 812, 833, 1208
4624, 92, 820, 838, 409
4625, 899, 1124, 1076, 1276
4626, 195, 262, 198, 1130
4627, 491, 406, 488, 1110
4628, 590, 594, 592, 1223
4629, 680, 678, 679, 1220
4630, 789, 832, 802, 1159
4631, 584, 659, 621, 1069
4632, 131, 281, 51, 1157
4633, 815, 777, 788, 1261
4634, 749, 731, 301, 1169
4635, 367, 70, 492, 1247
4636, 759, 767, 768, 1122
4637, 795, 753, 825, 1101
4638, 802, 782, 789, 1159
4639, 258, 221, 271, 1299
4640, 34, 144, 251, 1313
4641, 721, 743, 1157, 1286
4642, 736, 700, 738, 1272
4643, 609, 614, 603, 1121
4644, 576, 655, 657, 1161
4645, 372, 41, 312, 1211
4646, 732, 663, 709, 1167
4647, 598, 636, 606, 1310
4648, 309, 390, 362, 1110
4649, 179, 1189, 180, 1263
4650, 279, 208, 211, 1179
4651, 309, 390, 1110, 1247
4652, 323, 321, 371, 1274
4653, 34, 316, 144, 1313
4654, 492, 491, 467, 1247
4655, 643, 651, 633, 1318
4656, 400, 534, 535, 1122
4657, 564, 492, 70, 1247
4658, 611, 610, 623, 1177
4659, 247, 130, 15, 634
4660, 492, 69, 367, 397
4661, 434, 1133, 1205, 1294
4662, 210, 208, 207, 1179
4663, 706, 1124, 727, 1276
4664, 562, 1030, 1218, 1258
4665, 734, 126, 646, 663
4666, 357, 825, 58, 381
4667, 282, 201, 257, 1049
4668, 486, 546, 481, 1316
4669, 351, 361, 375, 1147
4670, 634, 632, 656, 1092
4671, 547, 668, 407, 113
4672, 174, 235, 234, 1184
4673, 827, 60, 306, 374
4674, 407, 478, 1012, 1316
4675, 463, 487, 488, 1103
4676, 34, 319, 316, 1313
4677, 601, 631, 599, 1198
4678, 477, 562, 502, 1030
4679, 276, 301, 731, 1169
4680, 76, 380, 735, 350
4681, 406, 491, 564, 1110
4682, 77, 380, 664, 735
4683, 148, 146, 1241, 1321
4684, 307, 380, 351, 1328
4685, 316, 1169, 144, 1313
4686, 826, 765, 821, 1038
4687, 456, 530, 483, 1312
4688, 244, 1293, 227, 1311
4689, 895, 1284, 1032, 1286
4690, 322, 361, 320, 1242
4691, 111, 723, 398, 1154
4692, 181, 261, 184, 1164
4693, 946, 1195, 1046, 1260
4694, 836, 789, 807, 1107
4695, 647, 618, 574, 1167
4696, 36, 133, 273, 1153
4697, 641, 585, 615, 1082
4698, 473, 551, 510, 1248
4699, 419, 417, 505, 1283
4700, 339, 369, 368, 1172
4701, 482, 455, 456, 1250
4702, 909, 1073, 1117, 1319
4703, 541, 490, 559, 1160
4704, 346, 36, 273, 1153
4705, 150, 152, 151, 1085
4706, 349, 319, 320, 1313
4707, 381, 825, 59, 753
4708, 175, 177, 269, 1270
4709, 928, 1133, 1294, 1302
4710, 615, 661, 641, 1082
4711, 651, 643, 607, 1210
4712, 916, 1076, 1245, 1303
4713, 1104, 1253, 880, 1267
4714, 655, 576, 634, 1161
4715, 59, 381, 753, 306
4716, 391, 301, 316, 1169
4717, 234, 150, 174, 1184
4718, 338, 332, 364, 1221
4719, 251, 144, 291, 1313
4720, 687, 686, 685, 1166
4721, 456, 483, 482, 1138
4722, 938, 1104, 1253, 1265
4723, 1204, 1221, 929, 1309
4724, 306, 753, 60, 827
4725, 81, 411, 837, 764
4726, 789, 780, 807, 1107
4727, 829, 830, 810, 1100
4728, 720, 724, 740, 1286
4729, 658, 617, 676, 1068
4730, 196, 193, 242, 1079
4731, 733, 734, 127, 1243
4732, 674, 727, 729, 1273
4733, 650, 595, 597, 1178
4734, 690, 688, 689, 1326
4735, 548, 111, 398, 1154
4736, 606, 635, 639, 1281
4737, 980, 1230, 1148, 1317
4738, 119, 648, 822, 754
4739, 931, 1180, 1096, 1218
4740, 380, 307, 77, 664
4741, 595, 650, 651, 1318
4742, 452, 1285, 453, 1323
4743, 840, 763, 21, 141
4744, 568, 410, 93, 583
4745, 316, 33, 144, 301
4746, 562, 542, 402, 1258
4747, 511, 450, 443, 1262
4748, 916, 1147, 1076, 1303
4749, 649, 607, 643, 1210
4750, 531, 489, 534, 1291
4751, 127, 646, 621, 1243
4752, 466, 470, 539, 1162
4753, 551, 473, 447, 1105
4754, 469, 479, 468, 1089
4755, 567, 317, 63, 408
4756, 725, 687, 685, 1166
4757, 699, 692, 712, 1280
4758, 350, 316, 349, 1313
4759, 300, 9, 142, 584
4760, 180, 179, 178, 1189
4761, 245, 139, 292, 1222
4762, 557, 408, 508, 1048
4763, 721, 740, 743, 1286
4764, 270, 231, 269, 1239
4765, 1165, 1216, 882, 1261
4766, 314, 386, 373, 1160
4767, 750, 300, 45, 277
4768, 268, 266, 263, 1142
4769, 727, 706, 729, 1124
4770, 266, 189, 169, 1319
4771, 565, 81, 411, 837
4772, 244, 227, 262, 1311
4773, 469, 479, 1089, 1305
4774, 731, 1169, 736, 1272
4775, 544, 408, 557, 1273
4776, 567, 392, 317, 1273
4777, 700, 704, 684, 1245
4778, 439, 434, 436, 1205
4779, 504, 451, 555, 1168
4780, 206, 213, 209, 1145
4781, 407, 478, 545, 1012
4782, 1096, 1199, 848, 1288
4783, 146, 239, 148, 1241
4784, 790, 774, 794, 1104
4785, 414, 403, 413, 1207
4786, 125, 647, 663, 732
4787, 415, 414, 413, 1207
4788, 358, 357, 381, 1101
4789, 179, 180, 181, 1263
4790, 793, 823, 824, 1082
4791, 249, 141, 248, 1135
4792, 428, 429, 426, 1240
4793, 28, 265, 811, 1256
4794, 833, 812, 835, 1208
4795, 119, 648, 754, 573
4796, 510, 401, 570, 1248
4797, 1180, 1305, 892, 1316
4798, 28, 756, 224, 1256
4799, 694, 701, 702, 1123
4800, 815, 775, 777, 1174
4801, 791, 792, 793, 1081
4802, 696, 686, 688, 1284
4803, 206, 209, 205, 1145
4804, 817, 819, 796, 1093
4805, 732, 709, 751, 1167
4806, 275, 238, 274, 1271
4807, 156, 155, 154, 1314
4808, 175, 165, 171, 1144
4809, 315, 344, 356, 1271
4810, 334, 336, 341, 1136
4811, 116, 543, 748, 730
4812, 627, 610, 602, 1229
4813, 681, 682, 680, 1126
4814, 625, 609, 604, 1282
4815, 646, 126, 574, 663
4816, 751, 730, 676, 1068
4817, 1086, 1199, 892, 1288
4818, 156, 157, 155, 1314
4819, 318, 348, 374, 1093
4820, 291, 278, 211, 1272
4821, 255, 190, 185, 1151
4822, 1042, 1285, 898, 1323
4823, 323, 325, 324, 1230
4824, 934, 1107, 1196, 1268
4825, 142, 290, 277, 1069
4826, 652, 624, 582, 1026
4827, 434, 439, 440, 1205
4828, 892, 1199, 1096, 1288
4829, 773, 772, 810, 1238
4830, 780, 778, 807, 1268
4831, 391, 350, 675, 1169
4832, 200, 247, 246, 1161
4833, 479, 398, 549, 1154
4834, 309, 388, 390, 1247
4835, 345, 329, 327, 1120
4836, 163, 266, 169, 1319
4837, 445, 444, 443, 1087
4838, 336, 342, 347, 1212
4839, 28, 224, 265, 1256
4840, 405, 500, 560, 1177
4841, 160, 269, 231, 1239
4842, 156, 161, 159, 1260
4843, 377, 340, 382, 1148
4844, 116, 543, 568, 748
4845, 82, 767, 535, 1296
4846, 822, 841, 799, 1224
4847, 127, 621, 733, 1243
4848, 252, 273, 294, 1153
4849, 322, 323, 324, 1230
4850, 391, 749, 301, 1169
4851, 783, 808, 781, 1139
4852, 768, 806, 770, 1141
4853, 308, 366, 365, 1114
4854, 512, 398, 550, 1200
4855, 525, 442, 444, 1219
4856, 28, 811, 756, 1256
4857, 629, 657, 654, 1222
4858, 747, 544, 674, 1273
4859, 675, 736, 731, 1169
4860, 716, 678, 680, 1220
4861, 368, 372, 339, 1172
4862, 340, 377, 324, 1148
4863, 385, 765, 58, 357
4864, 495, 471, 416, 1185
4865, 777, 779, 788, 1261
4866, 159, 161, 162, 1260
4867, 729, 354, 392, 1273
4868, 360, 372, 312, 1211
4869, 700, 705, 704, 1245
4870, 426, 424, 423, 1290
4871, 731, 56, 749, 301
4872, 407, 546, 478, 1316
4873, 880, 1253, 1104, 1265
4874, 474, 562, 1218, 1258
4875, 478, 475, 477, 1218
4876, 227, 244, 248, 1293
4877, 277, 45, 750, 673
4878, 482, 483, 554, 1138
4879, 705, 675, 735, 1328
4880, 377, 359, 378, 1152
4881, 451, 504, 452, 1168
4882, 291, 211, 210, 1179
4883, 839, 32, 821, 299
4884, 397, 504, 503, 1114
4885, 624, 766, 652, 118
4886, 515, 519, 518, 1281
4887, 647, 663, 574, 125
4888, 411, 764, 82, 1296
4889, 200, 246, 242, 1322
4890, 180, 178, 284, 1189
4891, 294, 273, 133, 1153
4892, 465, 485, 470, 1231
4893, 636, 598, 596, 1310
4894, 647, 617, 618, 1167
4895, 518, 519, 563, 1281
4896, 144, 276, 291, 1169
4897, 779, 781, 809, 1216
4898, 158, 230, 229, 1297
4899, 56, 731, 276, 301
4900, 475, 474, 477, 1218
4901, 631, 601, 608, 1198
4902, 735, 664, 705, 1328
4903, 698, 723, 728, 1154
4904, 178, 183, 284, 1278
4905, 567, 544, 747, 1273
4906, 9, 300, 659, 584
4907, 63, 392, 317, 567
4908, 182, 179, 181, 1263
4909, 32, 143, 821, 299
4910, 33, 316, 391, 301
4911, 583, 93, 568, 658
4912, 338, 389, 383, 1204
4913, 240, 287, 216, 1217
4914, 526, 453, 454, 1285
4915, 706, 716, 704, 1276
4916, 82, 764, 767, 1296
4917, 411, 82, 535, 1296
4918, 171, 170, 201, 1298
4919, 428, 430, 429, 1240
4920, 892, 1305, 1183, 1316
4921, 693, 691, 718, 1202
4922, 62, 837, 393, 318
4923, 482, 571, 484, 1250
4924, 638, 594, 590, 1223
4925, 548, 398, 479, 1154
4926, 130, 247, 286, 1092
4927, 671, 731, 736, 1272
4928, 452, 453, 449, 1323
4929, 105, 674, 747, 544
4930, 793, 824, 842, 1082
4931, 311, 346, 321, 1153
4932, 224, 204, 265, 1256
4933, 220, 262, 227, 1311
4934, 354, 379, 355, 1124
4935, 542, 562, 501, 1258
4936, 148, 147, 146, 1321
4937, 271, 221, 197, 1299
4938, 549, 512, 511, 1262
4939, 528, 498, 500, 1232
4940, 448, 472, 513, 1190
4941, 131, 256, 257, 1275
4942, 456, 527, 530, 1312
4943, 513, 472, 561, 1190
4944, 569, 512, 550, 1200
4945, 629, 654, 581, 1222
4946, 668, 718, 719, 1183
4947, 604, 602, 610, 1229
4948, 737, 729, 706, 1124
4949, 796, 819, 827, 1093
4950, 583, 617, 658, 1068
4951, 393, 565, 74, 373
4952, 660, 298, 20, 640
4953, 325, 384, 340, 1269
4954, 452, 454, 453, 1285
4955, 570, 473, 510, 1248
4956, 364, 388, 338, 1221
4957, 633, 651, 650, 1318
4958, 174, 239, 236, 1308
4959, 23, 24, 135, 760
4960, 721, 743, 722, 1157
4961, 183, 283, 233, 1278
4962, 302, 212, 281, 1157
4963, 235, 174, 236, 1308
4964, 62, 837, 318, 819
4965, 759, 84, 83, 400
4966, 424, 426, 427, 1290
4967, 176, 177, 175, 1270
4968, 567, 105, 747, 544
4969, 338, 383, 330, 1204
4970, 803, 85, 84, 516
4971, 757, 86, 85, 517
4972, 88, 89, 494, 758
4973, 481, 469, 486, 1305
4974, 491, 492, 564, 1247
4975, 535, 82, 83, 767
4976, 474, 562, 477, 1218
4977, 89, 90, 403, 801
4978, 87, 88, 514, 818
4979, 399, 86, 87, 813
4980, 464, 538, 537, 1214
4981, 239, 146, 274, 1241
4982, 288, 184, 261, 1164
4983, 391, 675, 749, 1169
4984, 624, 648, 625, 1224
4985, 756, 29, 28, 224
4986, 185, 184, 255, 1151
4987, 811, 28, 27, 265
4988, 468, 479, 549, 1089
4989, 282, 171, 201, 1298
4990, 391, 316, 350, 1169
4991, 307, 78, 77, 664
4992, 367, 388, 309, 1247
4993, 226, 24, 25, 805
4994, 734, 703, 752, 1243
4995, 738, 671, 736, 1272
4996, 384, 376, 340, 1269
4997, 734, 733, 703, 1243
4998, 91, 90, 762, 412
4999, 44, 275, 299, 315
5000, 147, 148, 149, 1321
5001, 780, 779, 778, 1268
5002, 144, 301, 276, 1169
5003, 131, 302, 281, 1157
5004, 373, 565, 74, 541
5005, 640, 298, 20, 249
5006, 460, 463, 462, 1244
5007, 567, 747, 392, 1273
5008, 154, 153, 152, 1251
5009, 299, 395, 44, 315
5010, 499, 104, 582, 566
5011, 486, 475, 546, 1180
5012, 392, 729, 79, 354
5013, 26, 27, 132, 812
5014, 138, 42, 41, 312
5015, 749, 675, 731, 1169
5016, 92, 91, 820, 409
5017, 535, 493, 411, 1296
5018, 323, 371, 327, 1274
5019, 552, 106, 677, 107
5020, 35, 34, 251, 319
5021, 586, 94, 95, 502
5022, 145, 30, 31, 761
5023, 485, 531, 534, 1291
5024, 579, 101, 102, 405
5025, 392, 354, 317, 1273
5026, 417, 419, 418, 1283
5027, 411, 81, 82, 764
5028, 724, 743, 740, 1286
5029, 331, 329, 369, 1252
5030, 138, 295, 237, 1211
5031, 662, 582, 104, 566
5032, 253, 25, 26, 755
5033, 619, 11, 10, 250
5034, 64, 65, 508, 352
5035, 828, 826, 761, 1267
5036, 48, 47, 134, 670
5037, 716, 706, 727, 1276
5038, 764, 817, 767, 1296
5039, 453, 507, 449, 1323
5040, 318, 61, 62, 819
5041, 543, 116, 115, 730
5042, 717, 688, 690, 1326
5043, 248, 244, 245, 1293
5044, 39, 40, 368, 241
5045, 804, 30, 29, 136
5046, 108, 509, 109, 713
5047, 474, 501, 562, 1258
5048, 611, 625, 604, 1282
5049, 110, 109, 550, 667
5050, 521, 431, 434, 1294
5051, 629, 18, 17, 139
5052, 406, 71, 72, 362
5053, 380, 350, 351, 1328
5054, 391, 350, 76, 675
5055, 256, 50, 49, 665
5056, 489, 488, 490, 1203
5057, 246, 247, 296, 1161
5058, 51, 52, 721, 281
5059, 392, 747, 729, 1273
5060, 233, 284, 183, 1278
5061, 515, 100, 99, 635
5062, 567, 408, 544, 1273
5063, 800, 23, 22, 228
5064, 297, 238, 275, 1271
5065, 211, 208, 210, 1179
5066, 658, 617, 124, 676
5067, 455, 482, 484, 1250
5068, 143, 31, 32, 821
5069, 1, 300, 750, 659
5070, 575, 14, 13, 254
5071, 67, 68, 503, 308
5072, 748, 568, 8, 658
5073, 4, 391, 749, 301
5074, 512, 450, 511, 1262
5075, 811, 830, 756, 1256
5076, 247, 15, 16, 634
5077, 367, 70, 69, 492
5078, 763, 22, 21, 141
5079, 639, 100, 101, 518
5080, 51, 50, 131, 722
5081, 837, 565, 5, 393
5082, 753, 60, 59, 306
5083, 8, 748, 658, 123
5084, 401, 108, 107, 669
5085, 824, 120, 641, 121
5086, 747, 392, 6, 567
5087, 499, 104, 103, 582
5088, 46, 45, 277, 673
5089, 577, 98, 99, 396
5090, 663, 126, 574, 125
5091, 349, 316, 319, 1313
5092, 660, 2, 298, 840
5093, 242, 246, 243, 1322
5094, 275, 44, 43, 315
5095, 1, 750, 128, 659
5096, 828, 790, 826, 1267
5097, 114, 545, 115, 672
5098, 316, 33, 34, 144
5099, 94, 93, 410, 583
5100, 67, 66, 363, 497
5101, 225, 12, 13, 630
5102, 54, 55, 671, 278
5103, 622, 621, 646, 1243
5104, 391, 75, 4, 749
5105, 300, 1, 9, 659
5106, 392, 63, 6, 567
5107, 391, 4, 33, 301
5108, 93, 8, 568, 658
5109, 20, 19, 640, 249
5110, 74, 73, 373, 541
5111, 105, 674, 544, 106
5112, 731, 55, 56, 276
5113, 64, 63, 317, 408
5114, 232, 49, 48, 715
5115, 142, 9, 10, 584
5116, 285, 47, 46, 710
5117, 621, 733, 659, 127
5118, 573, 754, 119, 120
5119, 41, 40, 295, 372
5120, 546, 407, 481, 1316
5121, 542, 97, 96, 613
5122, 36, 37, 346, 273
5123, 766, 652, 117, 838
5124, 113, 711, 407, 114
5125, 137, 11, 12, 580
5126, 110, 398, 111, 723
5127, 66, 65, 313, 404
5128, 121, 122, 585, 823
5129, 469, 481, 479, 1305
5130, 714, 53, 54, 140
5131, 52, 53, 666, 280
5132, 392, 6, 80, 747
5133, 632, 15, 14, 130
5134, 68, 69, 397, 365
5135, 112, 548, 728, 111
5136, 73, 72, 314, 559
5137, 18, 19, 292, 581
5138, 765, 57, 839, 385
5139, 38, 37, 289, 370
5140, 637, 97, 98, 556
5141, 80, 729, 392, 747
5142, 729, 79, 80, 392
5143, 35, 36, 311, 133
5144, 402, 96, 95, 578
5145, 674, 729, 747, 1273
5146, 5, 81, 565, 837
5147, 547, 112, 668, 113
5148, 748, 658, 123, 676
5149, 58, 57, 765, 385
5150, 564, 70, 71, 309
5151, 576, 17, 16, 296
5152, 3, 839, 395, 299
5153, 7, 838, 662, 566
5154, 827, 61, 60, 374
5155, 283, 257, 256, 1275
5156, 391, 76, 75, 675
5157, 39, 38, 129, 310
5158, 675, 75, 391, 749
5159, 750, 733, 128, 659
5160, 839, 3, 32, 299
5161, 117, 652, 766, 118
5162, 123, 658, 124, 676
5163, 407, 547, 481, 1316
5164, 648, 822, 118, 119
5165, 560, 103, 102, 623
5166, 838, 7, 92, 566
5167, 356, 42, 43, 297
5168, 2, 21, 298, 840
5169, 733, 128, 659, 127
5170, 126, 127, 734, 646
5171, 298, 20, 2, 660
5172, 652, 117, 838, 662
5173, 565, 74, 5, 393
5174, 837, 5, 62, 393
5175, 660, 122, 2, 840
5176, 732, 125, 647, 124
5177, 747, 6, 105, 567
5178, 395, 839, 57, 385
5179, 78, 79, 737, 379
5180, 59, 58, 825, 381
5181, 56, 4, 749, 301
5182, 380, 77, 76, 735
5183, 8, 116, 568, 748
5184, 395, 44, 3, 299
5185, 300, 45, 1, 750
5186, 104, 7, 662, 566
5187, 838, 117, 7, 662
5188, 839, 57, 3, 395
5189, 1237, 1309, 1204, 890
5190, 1204, 1309, 1237, 849
5191, 1204, 961, 1237, 890
5192, 1237, 961, 1204, 849
5193, 1137, 930, 1118, 1039
5194, 1137, 1118, 930, 985
5195, 990, 218, 1234, 199
5196, 990, 1234, 218, 947
5197, 1123, 695, 709, 1041
5198, 1123, 709, 695, 701
5199, 1204, 1269, 366, 383
5200, 366, 1269, 1204, 890
5201, 1231, 1244, 462, 531
5202, 462, 1244, 1231, 948
5203, 996, 1189, 1067, 878
5204, 996, 1067, 1189, 937
5205, 1061, 1067, 1189, 878
5206, 1061, 1189, 1067, 937
5207, 1023, 681, 1126, 942
5208, 1023, 1126, 681, 679
5209, 1152, 355, 375, 899
5210, 1152, 375, 355, 378
5211, 1157, 201, 1049, 302
5212, 1157, 1049, 201, 895
5213, 375, 1152, 326, 378
5214, 326, 1152, 375, 1147
5215, 1212, 925, 851, 917
5216, 1212, 851, 925, 966
5217, 1285, 1040, 458, 1007
5218, 1138, 533, 519, 1058
5219, 1138, 519, 533, 483
5220, 1039, 431, 1118, 928
5221, 1039, 1118, 431, 432
5222, 1250, 556, 571, 484
5223, 1250, 571, 556, 1033
5224, 1098, 267, 1059, 223
5225, 1098, 1059, 267, 918
5226, 1058, 563, 536, 506
5227, 1058, 536, 563, 968
5228, 1233, 971, 944, 1074
5229, 1233, 944, 971, 876
5230, 1160, 819, 318, 837
5231, 1160, 318, 819, 1093
5232, 1317, 852, 1047, 980
5233, 1317, 1047, 852, 979
5234, 996, 293, 261, 956
5235, 996, 261, 293, 205
5236, 1118, 1305, 874, 1013
5237, 874, 1305, 1118, 1089
5238, 1201, 851, 1008, 1051
5239, 1201, 1008, 851, 913
5240, 1116, 195, 193, 194
5241, 1116, 193, 195, 914
5242, 1212, 394, 358, 342
5243, 1212, 358, 394, 917
5244, 199, 1299, 219, 271
5245, 1063, 1255, 984, 858
5246, 984, 1255, 1063, 905
5247, 1299, 219, 1077, 1059
5248, 1299, 1077, 219, 271
5249, 168, 1077, 219, 1059
5250, 168, 219, 1077, 271
5251, 1059, 199, 1299, 219
5252, 1059, 1299, 199, 990
5253, 1303, 923, 1186, 1245
5254, 1303, 1186, 923, 852
5255, 226, 755, 1234, 805
5256, 1234, 755, 226, 253
5257, 1134, 1289, 845, 970
5258, 845, 1289, 1134, 1016
5259, 583, 502, 94, 586
5260, 94, 502, 583, 410
5261, 1105, 450, 445, 551
5262, 1105, 445, 450, 987
5263, 1130, 196, 1079, 195
5264, 1130, 1079, 196, 967
5265, 1299, 914, 886, 1116
5266, 1299, 886, 914, 990
5267, 1175, 1307, 1106, 886
5268, 1106, 1307, 1175, 950
5269, 1307, 1084, 853, 1295
5270, 1307, 853, 1084, 950
5271, 552, 669, 107, 677
5272, 107, 669, 552, 401
5273, 442, 1118, 432, 438
5274, 432, 1118, 442, 1039
5275, 1248, 552, 480, 998
5276, 1248, 480, 552, 570
5277, 1206, 1116, 1108, 907
5278, 1206, 1108, 1116, 914
5279, 792, 1159, 784, 802
5280, 784, 1159, 792, 1081
5281, 559, 362, 1110, 406
5282, 1110, 362, 559, 314
5283, 1144, 162, 260, 165
5284, 1144, 260, 162, 1112
5285, 1278, 303, 1034, 233
5286, 1278, 1034, 303, 937
5287, 948, 1244, 464, 462
5288, 948, 464, 1244, 1170
5289, 461, 464, 1244, 462
5290, 461, 1244, 464, 1170
5291, 1195, 893, 864, 977
5292, 1195, 864, 893, 1046
5293, 1219, 427, 522, 525
5294, 1219, 522, 427, 984
5295, 1205, 455, 1014, 436
5296, 1205, 1014, 455, 1054
5297, 1178, 596, 1310, 1150
5298, 1178, 1310, 596, 597
5299, 1219, 507, 522, 1002
5300, 1219, 522, 507, 525
5301, 1160, 387, 1110, 314
5302, 1160, 1110, 387, 966
5303, 1306, 965, 1196, 855
5304, 1196, 965, 1306, 1194
5305, 1196, 974, 1306, 855
5306, 1306, 974, 1196, 1194
5307, 1226, 1109, 999, 872
5308, 1226, 999, 1109, 905
5309, 1138, 533, 1312, 483
5310, 1138, 1312, 533, 910
5311, 1203, 891, 1259, 1103
5312, 1203, 1259, 891, 966
5313, 1322, 196, 967, 243
5314, 1322, 967, 196, 1079
5315, 468, 1262, 549, 511
5316, 549, 1262, 468, 1089
5317, 1327, 1112, 988, 868
5318, 1327, 988, 1112, 1144
5319, 1072, 1132, 1279, 845
5320, 1279, 1132, 1072, 909
5321, 1073, 1132, 1083, 909
5322, 1083, 1132, 1073, 860
5323, 1312, 533, 1115, 530
5324, 1312, 1115, 533, 910
5325, 1282, 957, 604, 1229
5326, 1282, 604, 957, 1121
5327, 603, 604, 957, 1229
5328, 603, 957, 604, 1121
5329, 1131, 784, 783, 785
5330, 1131, 783, 784, 973
5331, 1192, 1293, 1311, 927
5332, 1311, 1293, 1192, 967
5333, 1160, 347, 387, 386
5334, 1160, 387, 347, 966
5335, 821, 1267, 145, 761
5336, 145, 1267, 821, 1038
5337, 1314, 153, 154, 1251
5338, 1314, 154, 153, 155
5339, 312, 297, 1271, 138
5340, 1271, 297, 312, 356
5341, 1128, 1115, 1325, 866
5342, 1128, 1325, 1115, 910
5343, 1109, 1301, 1091, 872
5344, 1091, 1301, 1109, 911
5345, 1234, 218, 253, 203
5346, 1234, 253, 218, 947
5347, 1285, 459, 458, 454
5348, 1285, 458, 459, 940
5349, 1276, 684, 1220, 716
5350, 1276, 1220, 684, 986
5351, 1135, 1081, 978, 1082
5352, 1135, 978, 1081, 927
5353, 585, 840, 122, 660
5354, 122, 840, 585, 823
5355, 376, 1114, 1269, 366
5356, 1269, 1114, 376, 1043
5357, 1242, 323, 1274, 321
5358, 1242, 1274, 323, 1230
5359, 1128, 1325, 1173, 935
5360, 1173, 1325, 1128, 910
5361, 1190, 555, 572, 513
5362, 1190, 572, 555, 1043
5363, 1274, 345, 1009, 371
5364, 1274, 1009, 345, 1120
5365, 1134, 1254, 1287, 940
5366, 1287, 1254, 1134, 945
5367, 1301, 1266, 1045, 846
5368, 1301, 1045, 1266, 950
5369, 600, 1310, 599, 598
5370, 599, 1310, 600, 1094
5371, 1099, 1246, 844, 1056
5372, 844, 1246, 1099, 974
5373, 1244, 487, 1007, 460
5374, 1244, 1007, 487, 1103
5375, 1165, 87, 813, 399
5376, 1165, 813, 87, 818
5377, 1280, 746, 742, 699
5378, 1280, 742, 746, 960
5379, 457, 1285, 458, 454
5380, 458, 1285, 457, 1040
5381, 736, 1328, 675, 705
5382, 675, 1328, 736, 1169
5383, 249, 581, 19, 640
5384, 19, 581, 249, 292
5385, 1160, 1203, 559, 1110
5386, 1160, 559, 1203, 490
5387, 406, 559, 1203, 1110
5388, 406, 1203, 559, 490
5389, 1275, 302, 1049, 257
5390, 1275, 1049, 302, 1157
5391, 1188, 626, 620, 1036
5392, 1188, 620, 626, 645
5393, 1214, 1197, 1170, 948
5394, 1214, 1170, 1197, 911
5395, 1124, 307, 737, 379
5396, 1124, 737, 307, 1076
5397, 1298, 1225, 895, 885
5398, 1298, 895, 1225, 1029
5399, 402, 613, 1053, 542
5400, 1053, 613, 402, 578
5401, 1284, 745, 717, 696
5402, 1284, 717, 745, 1022
5403, 1308, 237, 1211, 236
5404, 1308, 1211, 237, 1024
5405, 1222, 18, 581, 629
5406, 1222, 581, 18, 292
5407, 1276, 678, 998, 727
5408, 1276, 998, 678, 1220
5409, 1234, 1311, 875, 1130
5410, 875, 1311, 1234, 1035
5411, 348, 1160, 318, 386
5412, 318, 1160, 348, 1093
5413, 1330, 1240, 1181, 958
5414, 1330, 1181, 1240, 888
5415, 728, 547, 112, 668
5416, 112, 547, 728, 548
5417, 1305, 547, 1316, 481
5418, 1305, 1316, 547, 1183
5419, 838, 409, 1026, 566
5420, 1026, 409, 838, 820
5421, 141, 840, 1135, 298
5422, 141, 1135, 840, 763

*NSET, NSET=CONSTRAINT_1
1, 2, 7, 8, 9, 10, 11, 12, 13, 14, 15, 16, 17, 18, 19, 20
93, 94, 95, 96, 97, 98, 99, 100, 101, 102, 103, 104, 117, 118, 119, 120
121, 122, 123, 124, 125, 126, 127, 128, 573, 574, 575, 576, 577, 578, 579, 580
581, 582, 583, 584, 585, 586, 587, 588, 589, 590, 591, 592, 593, 594, 595, 596
597, 598, 599, 600, 601, 602, 603, 604, 605, 606, 607, 608, 609, 610, 611, 612
613, 614, 615, 616, 617, 618, 619, 620, 621, 622, 623, 624, 625, 626, 627, 628
629, 630, 631, 632, 633, 634, 635, 636, 637, 638, 639, 640, 641, 642, 643, 644
645, 646, 647, 648, 649, 650, 651, 652, 653, 654, 655, 656, 657, 658, 659, 660
661, 662

*NSET, NSET=LOAD_1
306

*MATERIAL, NAME=ALUMINUM_6061_T6
*ELASTIC
68900.000000, 0.330000

*SOLID SECTION, ELSET=ALL_ELEMENTS, MATERIAL=ALUMINUM_6061_T6

*BOUNDARY
CONSTRAINT_1, 1, 3

*STEP, NLGEOM=NO
*STATIC
0.1, 1.0

*CLOAD
LOAD_1, 3, -5000.000000

*NODE FILE
U, RF
*EL FILE
S, E

*END STEP
