*HEADING
Vertical mast with combined top-mounted loads: point load (axial) and side distributed load. Simulates antenna with wind + gravity. Tests multi-axis loading on slender cantilever.

*NODE, NSET=ALL_NODES
1, -5.000000, -5.000000, 0.000000
2, -5.000000, -5.000000, 100.000000
3, 5.000000, -5.000000, 100.000000
4, 5.000000, -5.000000, 0.000000
5, 5.000000, 5.000000, 100.000000
6, 5.000000, 5.000000, 0.000000
7, -5.000000, 5.000000, 100.000000
8, -5.000000, 5.000000, 0.000000
9, -5.000000, -5.000000, 2.222222
10, -5.000000, -5.000000, 4.444445
11, -5.000000, -5.000000, 6.666667
12, -5.000000, -5.000000, 8.888889
13, -5.000000, -5.000000, 11.111111
14, -5.000000, -5.000000, 13.333333
15, -5.000000, -5.000000, 15.555555
16, -5.000000, -5.000000, 17.777779
17, -5.000000, -5.000000, 20.000000
18, -5.000000, -5.000000, 22.222221
19, -5.000000, -5.000000, 24.444445
20, -5.000000, -5.000000, 26.666666
21, -5.000000, -5.000000, 28.888889
22, -5.000000, -5.000000, 31.111111
23, -5.000000, -5.000000, 33.333332
24, -5.000000, -5.000000, 35.555557
25, -5.000000, -5.000000, 37.777779
26, -5.000000, -5.000000, 40.000000
27, -5.000000, -5.000000, 42.222221
28, -5.000000, -5.000000, 44.444443
29, -5.000000, -5.000000, 46.666668
30, -5.000000, -5.000000, 48.888889
31, -5.000000, -5.000000, 51.111111
32, -5.000000, -5.000000, 53.333332
33, -5.000000, -5.000000, 55.555557
34, -5.000000, -5.000000, 57.777779
35, -5.000000, -5.000000, 60.000000
36, -5.000000, -5.000000, 62.222221
37, -5.000000, -5.000000, 64.444443
38, -5.000000, -5.000000, 66.666664
39, -5.000000, -5.000000, 68.888885
40, -5.000000, -5.000000, 71.111115
41, -5.000000, -5.000000, 73.333336
42, -5.000000, -5.000000, 75.555557
43, -5.000000, -5.000000, 77.777779
44, -5.000000, -5.000000, 80.000000
45, -5.000000, -5.000000, 82.222221
46, -5.000000, -5.000000, 84.444443
47, -5.000000, -5.000000, 86.666664
48, -5.000000, -5.000000, 88.888885
49, -5.000000, -5.000000, 91.111115
50, -5.000000, -5.000000, 93.333336
51, -5.000000, -5.000000, 95.555557
52, -5.000000, -5.000000, 97.777779
53, -3.000000, -5.000000, 100.000000
54, -1.000000, -5.000000, 100.000000
55, 1.000000, -5.000000, 100.000000
56, 3.000000, -5.000000, 100.000000
57, 5.000000, -5.000000, 2.222222
58, 5.000000, -5.000000, 4.444445
59, 5.000000, -5.000000, 6.666667
60, 5.000000, -5.000000, 8.888889
61, 5.000000, -5.000000, 11.111111
62, 5.000000, -5.000000, 13.333333
63, 5.000000, -5.000000, 15.555555
64, 5.000000, -5.000000, 17.777779
65, 5.000000, -5.000000, 20.000000
66, 5.000000, -5.000000, 22.222221
67, 5.000000, -5.000000, 24.444445
68, 5.000000, -5.000000, 26.666666
69, 5.000000, -5.000000, 28.888889
70, 5.000000, -5.000000, 31.111111
71, 5.000000, -5.000000, 33.333332
72, 5.000000, -5.000000, 35.555557
73, 5.000000, -5.000000, 37.777779
74, 5.000000, -5.000000, 40.000000
75, 5.000000, -5.000000, 42.222221
76, 5.000000, -5.000000, 44.444443
77, 5.000000, -5.000000, 46.666668
78, 5.000000, -5.000000, 48.888889
79, 5.000000, -5.000000, 51.111111
80, 5.000000, -5.000000, 53.333332
81, 5.000000, -5.000000, 55.555557
82, 5.000000, -5.000000, 57.777779
83, 5.000000, -5.000000, 60.000000
84, 5.000000, -5.000000, 62.222221
85, 5.000000, -5.000000, 64.444443
86, 5.000000, -5.000000, 66.666664
87, 5.000000, -5.000000, 68.888885
88, 5.000000, -5.000000, 71.111115
89, 5.000000, -5.000000, 73.333336
90, 5.000000, -5.000000, 75.555557
91, 5.000000, -5.000000, 77.777779
92, 5.000000, -5.000000, 80.000000
93, 5.000000, -5.000000, 82.222221
94, 5.000000, -5.000000, 84.444443
95, 5.000000, -5.000000, 86.666664
96, 5.000000, -5.000000, 88.888885
97, 5.000000, -5.000000, 91.111115
98, 5.000000, -5.000000, 93.333336
99, 5.000000, -5.000000, 95.555557
100, 5.000000, -5.000000, 97.777779
101, -3.000000, -5.000000, 0.000000
102, -1.000000, -5.000000, 0.000000
103, 1.000000, -5.000000, 0.000000
104, 3.000000, -5.000000, 0.000000
105, 5.000000, -3.000000, 100.000000
106, 5.000000, -1.000000, 100.000000
107, 5.000000, 1.000000, 100.000000
108, 5.000000, 3.000000, 100.000000
109, 5.000000, 5.000000, 2.222222
110, 5.000000, 5.000000, 4.444445
111, 5.000000, 5.000000, 6.666667
112, 5.000000, 5.000000, 8.888889
113, 5.000000, 5.000000, 11.111111
114, 5.000000, 5.000000, 13.333333
115, 5.000000, 5.000000, 15.555555
116, 5.000000, 5.000000, 17.777779
117, 5.000000, 5.000000, 20.000000
118, 5.000000, 5.000000, 22.222221
119, 5.000000, 5.000000, 24.444445
120, 5.000000, 5.000000, 26.666666
121, 5.000000, 5.000000, 28.888889
122, 5.000000, 5.000000, 31.111111
123, 5.000000, 5.000000, 33.333332
124, 5.000000, 5.000000, 35.555557
125, 5.000000, 5.000000, 37.777779
126, 5.000000, 5.000000, 40.000000
127, 5.000000, 5.000000, 42.222221
128, 5.000000, 5.000000, 44.444443
129, 5.000000, 5.000000, 46.666668
130, 5.000000, 5.000000, 48.888889
131, 5.000000, 5.000000, 51.111111
132, 5.000000, 5.000000, 53.333332
133, 5.000000, 5.000000, 55.555557
134, 5.000000, 5.000000, 57.777779
135, 5.000000, 5.000000, 60.000000
136, 5.000000, 5.000000, 62.222221
137, 5.000000, 5.000000, 64.444443
138, 5.000000, 5.000000, 66.666664
139, 5.000000, 5.000000, 68.888885
140, 5.000000, 5.000000, 71.111115
141, 5.000000, 5.000000, 73.333336
142, 5.000000, 5.000000, 75.555557
143, 5.000000, 5.000000, 77.777779
144, 5.000000, 5.000000, 80.000000
145, 5.000000, 5.000000, 82.222221
146, 5.000000, 5.000000, 84.444443
147, 5.000000, 5.000000, 86.666664
148, 5.000000, 5.000000, 88.888885
149, 5.000000, 5.000000, 91.111115
150, 5.000000, 5.000000, 93.333336
151, 5.000000, 5.000000, 95.555557
152, 5.000000, 5.000000, 97.777779
153, 5.000000, -3.000000, 0.000000
154, 5.000000, -1.000000, 0.000000
155, 5.000000, 1.000000, 0.000000
156, 5.000000, 3.000000, 0.000000
157, 3.000000, 5.000000, 100.000000
158, 1.000000, 5.000000, 100.000000
159, -1.000000, 5.000000, 100.000000
160, -3.000000, 5.000000, 100.000000
161, -5.000000, 5.000000, 2.222222
162, -5.000000, 5.000000, 4.444445
163, -5.000000, 5.000000, 6.666667
164, -5.000000, 5.000000, 8.888889
165, -5.000000, 5.000000, 11.111111
166, -5.000000, 5.000000, 13.333333
167, -5.000000, 5.000000, 15.555555
168, -5.000000, 5.000000, 17.777779
169, -5.000000, 5.000000, 20.000000
170, -5.000000, 5.000000, 22.222221
171, -5.000000, 5.000000, 24.444445
172, -5.000000, 5.000000, 26.666666
173, -5.000000, 5.000000, 28.888889
174, -5.000000, 5.000000, 31.111111
175, -5.000000, 5.000000, 33.333332
176, -5.000000, 5.000000, 35.555557
177, -5.000000, 5.000000, 37.777779
178, -5.000000, 5.000000, 40.000000
179, -5.000000, 5.000000, 42.222221
180, -5.000000, 5.000000, 44.444443
181, -5.000000, 5.000000, 46.666668
182, -5.000000, 5.000000, 48.888889
183, -5.000000, 5.000000, 51.111111
184, -5.000000, 5.000000, 53.333332
185, -5.000000, 5.000000, 55.555557
186, -5.000000, 5.000000, 57.777779
187, -5.000000, 5.000000, 60.000000
188, -5.000000, 5.000000, 62.222221
189, -5.000000, 5.000000, 64.444443
190, -5.000000, 5.000000, 66.666664
191, -5.000000, 5.000000, 68.888885
192, -5.000000, 5.000000, 71.111115
193, -5.000000, 5.000000, 73.333336
194, -5.000000, 5.000000, 75.555557
195, -5.000000, 5.000000, 77.777779
196, -5.000000, 5.000000, 80.000000
197, -5.000000, 5.000000, 82.222221
198, -5.000000, 5.000000, 84.444443
199, -5.000000, 5.000000, 86.666664
200, -5.000000, 5.000000, 88.888885
201, -5.000000, 5.000000, 91.111115
202, -5.000000, 5.000000, 93.333336
203, -5.000000, 5.000000, 95.555557
204, -5.000000, 5.000000, 97.777779
205, 3.000000, 5.000000, 0.000000
206, 1.000000, 5.000000, 0.000000
207, -1.000000, 5.000000, 0.000000
208, -3.000000, 5.000000, 0.000000
209, -5.000000, 3.000000, 100.000000
210, -5.000000, 1.000000, 100.000000
211, -5.000000, -1.000000, 100.000000
212, -5.000000, -3.000000, 100.000000
213, -5.000000, 3.000000, 0.000000
214, -5.000000, 1.000000, 0.000000
215, -5.000000, -1.000000, 0.000000
216, -5.000000, -3.000000, 0.000000
217, 0.000827, -5.000000, 98.368401
218, 0.002075, -5.000000, 1.628918
219, -3.042962, -5.000000, 83.339584
220, -3.077029, -5.000000, 92.233147
221, -3.075500, -5.000000, 76.666664
222, -3.061418, -5.000000, 87.783714
223, 3.133226, -5.000000, 72.149132
224, -3.075457, -5.000000, 16.666666
225, -3.075607, -5.000000, 12.220140
226, 3.146342, -5.000000, 7.840820
227, -3.291542, -5.000000, 54.504135
228, -3.075499, -5.000000, 21.111111
229, -3.075499, -5.000000, 25.555555
230, -3.075499, -5.000000, 30.000000
231, -3.075499, -5.000000, 34.444443
232, -3.075499, -5.000000, 38.888889
233, -3.029424, -5.000000, 43.314690
234, -3.150394, -5.000000, 47.849407
235, -3.075499, -5.000000, 58.888889
236, -3.029424, -5.000000, 63.351978
237, -3.075499, -5.000000, 67.777779
238, 3.231103, -5.000000, 78.760979
239, 3.004093, -5.000000, 89.965324
240, 3.075499, -5.000000, 85.555557
241, 3.289830, -5.000000, 14.501571
242, 3.075499, -5.000000, 18.888889
243, 3.075499, -5.000000, 27.777779
244, 3.075499, -5.000000, 45.555557
245, 3.075499, -5.000000, 61.111111
246, 3.075499, -5.000000, 23.333334
247, 3.075499, -5.000000, 36.666668
248, 3.075499, -5.000000, 56.666668
249, 3.075499, -5.000000, 41.111111
250, 3.075499, -5.000000, 52.222221
251, 3.029424, -5.000000, 32.240868
252, 2.976391, -5.000000, 65.453232
253, -3.075499, -5.000000, 72.222221
254, -3.078555, -5.000000, 7.776553
255, 3.011719, -5.000000, 94.481949
256, -2.983663, -5.000000, 96.753876
257, -2.981237, -5.000000, 3.248893
258, 3.284585, -5.000000, 3.145452
259, -3.069874, -5.000000, 94.464050
260, -1.164897, -5.000000, 93.354973
261, -1.145146, -5.000000, 91.138092
262, 0.758113, -5.000000, 92.265999
263, 0.733912, -5.000000, 94.473305
264, 0.783390, -5.000000, 90.056076
265, -1.127343, -5.000000, 88.919647
266, 0.815530, -5.000000, 87.837471
267, -1.100819, -5.000000, 86.698990
268, -3.067832, -5.000000, 5.541278
269, -1.162970, -5.000000, 6.661117
270, -1.155233, -5.000000, 8.881539
271, 0.856982, -5.000000, 7.809698
272, 0.735727, -5.000000, 10.075446
273, 0.751277, -5.000000, 5.554900
274, -1.074719, -5.000000, 4.566559
275, 3.086801, -5.000000, 5.535981
276, -1.079927, -5.000000, 95.440903
277, 3.270708, -5.000000, 96.854797
278, 3.134105, -5.000000, 92.227188
279, 0.844582, -5.000000, 85.616516
280, -1.078977, -5.000000, 84.477417
281, 0.873304, -5.000000, 83.394722
282, -1.052093, -5.000000, 82.255455
283, 0.901774, -5.000000, 81.172745
284, -1.071932, -5.000000, 80.033852
285, -1.158174, -5.000000, 11.118835
286, 0.631486, -5.000000, 12.230391
287, 2.642154, -5.000000, 11.149668
288, -3.047363, -5.000000, 85.568474
289, 3.037280, -5.000000, 87.777779
290, -3.067055, -5.000000, 90.008881
291, -3.042634, -5.000000, 78.894531
292, -1.110827, -5.000000, 77.802406
293, -1.144304, -5.000000, 75.559662
294, 0.754582, -5.000000, 76.605934
295, 0.638925, -5.000000, 74.435013
296, 2.662840, -5.000000, 75.515663
297, -3.012776, -5.000000, 81.120514
298, -1.172312, -5.000000, 73.332443
299, 0.855071, -5.000000, 72.179604
300, 3.075499, -5.000000, 50.000000
301, 1.150998, -5.000000, 51.111111
302, 1.150998, -5.000000, 48.888889
303, 1.150998, -5.000000, 53.333332
304, -0.725256, -5.000000, 50.083565
305, -0.865752, -5.000000, 47.825634
306, 1.135623, -5.000000, 46.674644
307, -0.773503, -5.000000, 45.555557
308, 1.148436, -5.000000, 44.445774
309, -0.692392, -5.000000, 43.259232
310, 3.075072, -5.000000, 43.333553
311, 3.107228, -5.000000, 63.232712
312, 1.204533, -5.000000, 62.121887
313, 1.159921, -5.000000, 59.983276
314, -0.773503, -5.000000, 61.111111
315, -0.652138, -5.000000, 63.327377
316, -0.773503, -5.000000, 58.888889
317, 1.152485, -5.000000, 57.774990
318, -0.773503, -5.000000, 56.666668
319, 3.077234, -5.000000, 58.885635
320, 1.151246, -5.000000, 55.555092
321, -0.773503, -5.000000, 54.444443
322, -0.632923, -5.000000, 52.236149
323, -2.661529, -5.000000, 51.152027
324, 3.075540, -5.000000, 54.444366
325, -3.075499, -5.000000, 27.777779
326, -1.150998, -5.000000, 28.888889
327, -1.150998, -5.000000, 31.111111
328, 0.773503, -5.000000, 30.000000
329, 0.692026, -5.000000, 32.296513
330, 0.773503, -5.000000, 27.777779
331, -1.150998, -5.000000, 26.666666
332, -1.150998, -5.000000, 24.444445
333, 0.773503, -5.000000, 25.555555
334, 0.773503, -5.000000, 23.333334
335, -1.150998, -5.000000, 22.222221
336, 0.773503, -5.000000, 21.111111
337, -1.150998, -5.000000, 20.000000
338, 0.773503, -5.000000, 18.888889
339, -1.150991, -5.000000, 17.777779
340, 0.773503, -5.000000, 16.666666
341, -1.150920, -5.000000, 15.555604
342, 0.698980, -5.000000, 14.444417
343, -1.188247, -5.000000, 13.335639
344, -3.081705, -5.000000, 14.444489
345, -3.075499, -5.000000, 36.666668
346, -1.150998, -5.000000, 35.555557
347, -3.143866, -5.000000, 45.557854
348, -3.075499, -5.000000, 61.111111
349, 3.116067, -5.000000, 34.531116
350, 1.460219, -5.000000, 35.653568
351, 1.150998, -5.000000, 37.777779
352, 3.075499, -5.000000, 21.111111
353, -3.075491, -5.000000, 18.888889
354, 3.075499, -5.000000, 16.666666
355, -3.075499, -5.000000, 56.666668
356, -3.116067, -5.000000, 41.024437
357, -1.460219, -5.000000, 39.901989
358, -1.150998, -5.000000, 37.777779
359, 3.075499, -5.000000, 25.555555
360, 3.075499, -5.000000, 30.000000
361, -3.075499, -5.000000, 32.222221
362, 3.075499, -5.000000, 38.888889
363, 1.150998, -5.000000, 40.000000
364, 1.296557, -5.000000, 42.210129
365, -3.116067, -5.000000, 65.642227
366, -1.206006, -5.000000, 66.764679
367, -1.160166, -5.000000, 68.905228
368, 0.630268, -5.000000, 67.796837
369, 0.644987, -5.000000, 65.556198
370, 0.713450, -5.000000, 69.915230
371, 2.660991, -5.000000, 68.849152
372, -1.152493, -5.000000, 71.092453
373, -3.075499, -5.000000, 70.000000
374, -3.075499, -5.000000, 23.333334
375, 3.072937, -5.000000, 47.779106
376, -1.297117, -5.000000, 33.345715
377, -3.077936, -5.000000, 74.444984
378, -3.078299, -5.000000, 10.000000
379, 3.085778, -5.000000, 83.333336
380, 3.101046, -5.000000, 81.111115
381, 1.096077, -5.000000, 78.975044
382, 2.000000, -5.000000, 98.301376
383, 0.987479, -5.000000, 96.431587
384, 2.000000, -5.000000, 1.690171
385, 1.003591, -5.000000, 3.574475
386, -1.931237, -5.000000, 1.543871
387, -1.931850, -5.000000, 98.456093
388, 3.433506, -5.000000, 12.701286
389, 3.428677, -5.000000, 73.955566
390, 2.292931, -5.000000, 70.616081
391, 3.417112, -5.000000, 67.286781
392, 1.456200, -5.000000, 63.938282
393, -3.418653, -5.000000, 52.714031
394, -1.518758, -5.000000, 41.721359
395, -2.330058, -5.000000, 49.386124
396, 1.518731, -5.000000, 33.834209
397, -1.440480, -5.000000, 64.945839
398, 2.408516, -5.000000, 77.276382
399, 2.319271, -5.000000, 9.375101
400, 3.583377, -5.000000, 1.486072
401, -3.583181, -5.000000, 98.573654
402, -3.582747, -5.000000, 1.426733
403, 3.582680, -5.000000, 98.513298
404, -1.024887, -5.000000, 97.100372
405, -1.024881, -5.000000, 2.899342
406, 1.951106, -5.000000, 6.675554
407, 1.891437, -5.000000, 93.382210
408, 1.929311, -5.000000, 15.557636
409, 1.924501, -5.000000, 24.444445
410, -1.924501, -5.000000, 44.444443
411, 1.924501, -5.000000, 28.888889
412, 1.924501, -5.000000, 31.111111
413, -1.924501, -5.000000, 46.666668
414, -0.000000, -5.000000, 36.666668
415, 1.924501, -5.000000, 22.222221
416, 1.924501, -5.000000, 26.666666
417, -0.000000, -5.000000, 38.888889
418, 1.924501, -5.000000, 20.000000
419, -1.915784, -5.000000, 62.107189
420, 1.924501, -5.000000, 17.777779
421, -1.924501, -5.000000, 60.000000
422, -1.924501, -5.000000, 55.555557
423, -1.924501, -5.000000, 57.777779
424, 3.689287, -5.000000, 9.766539
425, 1.949873, -5.000000, 13.351957
426, 1.896590, -5.000000, 91.173912
427, 3.816002, -5.000000, 76.747520
428, 3.689802, -5.000000, 70.230621
429, 1.986025, -5.000000, 66.830833
430, -0.037020, -5.000000, 41.081390
431, -3.697635, -5.000000, 49.769650
432, 0.036979, -5.000000, 34.474186
433, -1.958564, -5.000000, 53.359638
434, 1.990589, -5.000000, 73.447647
435, 5.000000, -0.002074, 98.371033
436, 5.000000, 0.002075, 1.628918
437, 5.000000, -3.120128, 83.252167
438, 5.000000, -3.141083, 92.227951
439, 5.000000, -3.075499, 76.666664
440, 5.000000, 3.058465, 87.789001
441, 5.000000, 3.133226, 72.295311
442, 5.000000, -3.064987, 16.662460
443, 5.000000, -3.074057, 12.219468
444, 5.000000, -3.078793, 7.776415
445, 5.000000, -3.291542, 54.504135
446, 5.000000, -3.061150, 21.108082
447, 5.000000, -3.054311, 25.552519
448, 5.000000, -3.046651, 29.996954
449, 5.000000, -3.064393, 34.444008
450, 5.000000, -3.188262, 38.760639
451, 5.000000, -3.075499, 43.333332
452, 5.000000, -3.150394, 47.849407
453, 5.000000, -3.075499, 58.888889
454, 5.000000, -3.029424, 63.351978
455, 5.000000, -3.075499, 67.777779
456, 5.000000, 3.291540, 78.948578
457, 5.000000, 3.141924, 14.441713
458, 5.000000, 3.142061, 9.997272
459, 5.000000, 3.142791, 18.886135
460, 5.000000, 3.075499, 27.777779
461, 5.000000, 3.075499, 45.555557
462, 5.000000, 3.075499, 61.111111
463, 5.000000, 3.075499, 23.333334
464, 5.000000, 3.075499, 36.666668
465, 5.000000, 3.075499, 56.666668
466, 5.000000, 2.981014, 40.797173
467, 5.000000, 3.075499, 52.222221
468, 5.000000, 3.075499, 32.222221
469, 5.000000, 3.081248, 65.555557
470, 5.000000, -3.075499, 87.777779
471, 5.000000, 3.105672, 83.427666
472, 5.000000, 3.076624, 92.233009
473, 5.000000, -3.075499, 72.222221
474, 5.000000, 3.013368, 5.519693
475, 5.000000, -3.284585, 96.854546
476, 5.000000, 2.983663, 96.753876
477, 5.000000, -2.981237, 3.248893
478, 5.000000, 3.069807, 94.464027
479, 5.000000, 1.163995, 93.355690
480, 5.000000, 1.144252, 91.137222
481, 5.000000, -0.759550, 92.266014
482, 5.000000, -0.736917, 94.478630
483, 5.000000, -0.787098, 90.051491
484, 5.000000, 1.126314, 88.918823
485, 5.000000, -0.814385, 87.833641
486, 5.000000, 1.112601, 86.698357
487, 5.000000, -0.890875, 85.726791
488, 5.000000, 1.063904, 84.686378
489, 5.000000, -3.030924, 94.504639
490, 5.000000, -3.067872, 5.541255
491, 5.000000, -1.163985, 6.661881
492, 5.000000, -1.155713, 8.880713
493, 5.000000, 0.755285, 7.767995
494, 5.000000, 0.748084, 5.560462
495, 5.000000, 0.762734, 9.978133
496, 5.000000, -1.075427, 4.567609
497, 5.000000, 3.082685, 7.765332
498, 5.000000, 3.272346, 3.142738
499, 5.000000, 1.078018, 95.443130
500, 5.000000, -1.150467, 11.096813
501, 5.000000, 0.776668, 12.197013
502, 5.000000, -1.141590, 13.316976
503, 5.000000, 0.787493, 14.418186
504, 5.000000, -1.131386, 15.537954
505, 5.000000, 0.797971, 16.640160
506, 5.000000, -1.124564, 17.762327
507, 5.000000, 0.808205, 18.862291
508, 5.000000, -1.117683, 19.985077
509, 5.000000, 0.818414, 21.084476
510, 5.000000, -1.108115, 22.207373
511, 5.000000, 0.828607, 23.306671
512, 5.000000, -1.100285, 24.429594
513, 5.000000, 0.838799, 25.528870
514, 5.000000, -1.090593, 26.651804
515, 5.000000, 0.848990, 27.751068
516, 5.000000, -1.082605, 28.874010
517, 5.000000, 0.859180, 29.973267
518, 5.000000, -1.070974, 31.095156
519, 5.000000, -3.007656, 32.219086
520, 5.000000, -1.094199, 33.336727
521, 5.000000, -1.166208, 35.504341
522, 5.000000, 0.839930, 34.510563
523, 5.000000, 0.514134, 36.892673
524, 5.000000, 1.830890, 38.708546
525, 5.000000, -0.185680, 38.820114
526, 5.000000, -3.045693, 27.771807
527, 5.000000, 3.067609, 90.013008
528, 5.000000, -3.053977, 23.327372
529, 5.000000, -3.086438, 85.304214
530, 5.000000, -3.061397, 18.882620
531, 5.000000, -3.135000, 36.562862
532, 5.000000, -3.068670, 14.437625
533, 5.000000, 3.060909, 25.555555
534, 5.000000, 3.061215, 34.444443
535, 5.000000, -3.075494, 78.888885
536, 5.000000, -1.151000, 77.777779
537, 5.000000, -1.150995, 79.999992
538, 5.000000, -1.150999, 75.555557
539, 5.000000, 0.640960, 76.666672
540, 5.000000, 0.703165, 74.528008
541, 5.000000, 2.661006, 75.595955
542, 5.000000, 0.699679, 78.888885
543, 5.000000, 0.780838, 81.037682
544, 5.000000, -1.097538, 82.018471
545, 5.000000, -3.074026, 81.063622
546, 5.000000, -2.981103, 89.951248
547, 5.000000, 3.075499, 50.000000
548, 5.000000, 1.150998, 51.111111
549, 5.000000, 1.150998, 48.888889
550, 5.000000, 1.150998, 53.333332
551, 5.000000, -0.725256, 50.083565
552, 5.000000, -0.865752, 47.825634
553, 5.000000, 1.135623, 46.674644
554, 5.000000, -0.773503, 45.555557
555, 5.000000, 1.148436, 44.445774
556, 5.000000, -0.773503, 43.333332
557, 5.000000, 1.150998, 42.222221
558, 5.000000, -0.776259, 41.096050
559, 5.000000, 3.059325, 43.281231
560, 5.000000, 3.124704, 63.249767
561, 5.000000, 1.207446, 62.124729
562, 5.000000, 1.160406, 59.983749
563, 5.000000, -0.773503, 61.111111
564, 5.000000, -0.651925, 63.327587
565, 5.000000, -0.773503, 58.888889
566, 5.000000, 1.152566, 57.775070
567, 5.000000, -0.773503, 56.666668
568, 5.000000, 3.077328, 58.885731
569, 5.000000, 1.151260, 55.555103
570, 5.000000, -0.773503, 54.444443
571, 5.000000, -0.632923, 52.236149
572, 5.000000, -2.661529, 51.152027
573, 5.000000, 3.075543, 54.444370
574, 5.000000, -3.145865, 45.558662
575, 5.000000, -3.075499, 61.111111
576, 5.000000, 3.011012, 21.149166
577, 5.000000, 3.148155, 16.663677
578, 5.000000, -3.075499, 56.666668
579, 5.000000, 3.147253, 12.219298
580, 5.000000, -3.025795, 41.086647
581, 5.000000, 2.972101, 81.173439
582, 5.000000, -3.116067, 65.642227
583, 5.000000, -1.206006, 66.764679
584, 5.000000, -1.160166, 68.905228
585, 5.000000, 0.714560, 67.880402
586, 5.000000, 0.629612, 70.019829
587, 5.000000, 0.620914, 65.655022
588, 5.000000, 2.661008, 68.930733
589, 5.000000, -1.176508, 71.117142
590, 5.000000, -3.081279, 70.003731
591, 5.000000, 3.056773, 85.618752
592, 5.000000, 0.848960, 72.272072
593, 5.000000, 3.072937, 47.779106
594, 5.000000, -3.075499, 74.444443
595, 5.000000, -1.154397, 73.356575
596, 5.000000, 3.078577, 30.000000
597, 5.000000, -3.078247, 9.998385
598, 5.000000, 0.862716, 32.188599
599, 5.000000, -1.931237, 1.543871
600, 5.000000, 1.931642, 98.456535
601, 5.000000, -2.000000, 98.309830
602, 5.000000, -0.993085, 96.437454
603, 5.000000, 2.000000, 1.690171
604, 5.000000, 0.990795, 3.572705
605, 5.000000, 1.000193, 40.328819
606, 5.000000, -1.441546, 37.597347
607, 5.000000, 1.045621, 82.727013
608, 5.000000, -1.218921, 83.954933
609, 5.000000, 3.418626, 77.158447
610, 5.000000, 3.428545, 70.489021
611, 5.000000, -3.418653, 52.714031
612, 5.000000, -2.330058, 49.386124
613, 5.000000, 1.440480, 63.943047
614, 5.000000, 2.290591, 73.829323
615, 5.000000, 2.252215, 67.162231
616, 5.000000, -1.476502, 64.948303
617, 5.000000, 3.628023, 38.838451
618, 5.000000, 3.583151, 98.573723
619, 5.000000, -3.582747, 1.426733
620, 5.000000, -3.583377, 98.513931
621, 5.000000, 3.654469, 1.411026
622, 5.000000, -1.638992, 39.621037
623, 5.000000, -1.024881, 2.899342
624, 5.000000, 0.999633, 97.092407
625, 5.000000, 1.914115, 6.660436
626, 5.000000, -1.905099, 93.384155
627, 5.000000, 1.920246, 8.869150
628, 5.000000, 1.925766, 79.886826
629, 5.000000, -1.924501, 42.222221
630, 5.000000, -1.924501, 44.444443
631, 5.000000, -1.924501, 46.666668
632, 5.000000, -1.915773, 62.107201
633, 5.000000, -1.924501, 60.000000
634, 5.000000, -1.924501, 55.555557
635, 5.000000, -1.924501, 57.777779
636, 5.000000, 1.943844, 11.093825
637, 5.000000, 1.952690, 13.315650
638, 5.000000, 1.955739, 77.798553
639, 5.000000, 3.689470, 74.214050
640, 5.000000, 3.676563, 67.537086
641, 5.000000, -3.697635, 49.769650
642, 5.000000, -1.958564, 53.359638
643, 5.000000, 1.989322, 70.998238
644, 5.000000, 1.958709, 15.537575
645, 5.000000, -1.897266, 91.172737
646, 5.000000, 1.964144, 17.759684
647, 5.000000, 1.959840, 33.341457
648, 5.000000, 1.929034, 19.968258
649, -0.000827, 5.000000, 98.368401
650, -0.002075, 5.000000, 1.628918
651, 3.042962, 5.000000, 83.339584
652, 3.061418, 5.000000, 87.783714
653, 3.077029, 5.000000, 92.233147
654, 3.075500, 5.000000, 76.666664
655, -3.133226, 5.000000, 72.149132
656, 3.064987, 5.000000, 16.662460
657, 3.074057, 5.000000, 12.219468
658, 3.078793, 5.000000, 7.776415
659, 3.291542, 5.000000, 54.504135
660, 3.061150, 5.000000, 21.108082
661, 3.054311, 5.000000, 25.552519
662, 3.046651, 5.000000, 29.996954
663, 3.064393, 5.000000, 34.444008
664, 3.188262, 5.000000, 38.760639
665, 3.075499, 5.000000, 43.333332
666, 3.150394, 5.000000, 47.849407
667, 3.075499, 5.000000, 58.888889
668, 3.029424, 5.000000, 63.351978
669, 3.075499, 5.000000, 67.777779
670, -3.231103, 5.000000, 78.760979
671, -3.004093, 5.000000, 89.965324
672, -3.075499, 5.000000, 85.555557
673, -3.141924, 5.000000, 14.441713
674, -3.142061, 5.000000, 9.997272
675, -3.142791, 5.000000, 18.886135
676, -3.075499, 5.000000, 27.777779
677, -3.075499, 5.000000, 45.555557
678, -3.075499, 5.000000, 61.111111
679, -3.075499, 5.000000, 23.333334
680, -3.075499, 5.000000, 36.666668
681, -3.075499, 5.000000, 56.666668
682, -2.981014, 5.000000, 40.797173
683, -3.075499, 5.000000, 52.222221
684, -3.075499, 5.000000, 32.222221
685, -2.976391, 5.000000, 65.453232
686, 3.075499, 5.000000, 72.222221
687, -3.013368, 5.000000, 5.519693
688, -3.011719, 5.000000, 94.481949
689, 2.983663, 5.000000, 96.753876
690, 2.981237, 5.000000, 3.248893
691, 3.069874, 5.000000, 94.464050
692, 1.164897, 5.000000, 93.354973
693, 1.145146, 5.000000, 91.138092
694, -0.758113, 5.000000, 92.265999
695, -0.733912, 5.000000, 94.473305
696, -0.783390, 5.000000, 90.056076
697, 1.127343, 5.000000, 88.919647
698, -0.815530, 5.000000, 87.837471
699, 1.100819, 5.000000, 86.698990
700, 3.067872, 5.000000, 5.541255
701, 1.163985, 5.000000, 6.661881
702, 1.155713, 5.000000, 8.880713
703, -0.755285, 5.000000, 7.767995
704, -0.748084, 5.000000, 5.560462
705, -0.762734, 5.000000, 9.978133
706, 1.075427, 5.000000, 4.567609
707, 1.079927, 5.000000, 95.440903
708, -3.270708, 5.000000, 96.854797
709, -3.082685, 5.000000, 7.765332
710, -3.272346, 5.000000, 3.142738
711, -3.134105, 5.000000, 92.227188
712, -0.844582, 5.000000, 85.616516
713, 1.078977, 5.000000, 84.477417
714, -0.873304, 5.000000, 83.394722
715, 1.052093, 5.000000, 82.255455
716, -0.901774, 5.000000, 81.172745
717, 1.071932, 5.000000, 80.033852
718, 1.150467, 5.000000, 11.096813
719, -0.776668, 5.000000, 12.197013
720, 3.047363, 5.000000, 85.568474
721, 1.141590, 5.000000, 13.316976
722, -0.787493, 5.000000, 14.418186
723, 1.131386, 5.000000, 15.537954
724, -0.797971, 5.000000, 16.640160
725, 1.124564, 5.000000, 17.762327
726, -0.808205, 5.000000, 18.862291
727, 1.117683, 5.000000, 19.985077
728, -0.818414, 5.000000, 21.084476
729, 1.108115, 5.000000, 22.207373
730, -0.828607, 5.000000, 23.306671
731, 1.100285, 5.000000, 24.429594
732, -0.838799, 5.000000, 25.528870
733, 1.090593, 5.000000, 26.651804
734, -0.848990, 5.000000, 27.751068
735, 1.082605, 5.000000, 28.874010
736, -0.859180, 5.000000, 29.973267
737, 1.070974, 5.000000, 31.095156
738, 3.007656, 5.000000, 32.219086
739, 1.094199, 5.000000, 33.336727
740, 1.166208, 5.000000, 35.504341
741, -0.839930, 5.000000, 34.510563
742, -0.514134, 5.000000, 36.892673
743, -1.830890, 5.000000, 38.708546
744, 0.185680, 5.000000, 38.820114
745, 3.045693, 5.000000, 27.771807
746, -3.037280, 5.000000, 87.777779
747, 3.053977, 5.000000, 23.327372
748, 3.067055, 5.000000, 90.008881
749, 3.061397, 5.000000, 18.882620
750, 3.135000, 5.000000, 36.562862
751, 3.068670, 5.000000, 14.437625
752, -3.060909, 5.000000, 25.555555
753, -3.061215, 5.000000, 34.444443
754, 3.042634, 5.000000, 78.894531
755, 1.110827, 5.000000, 77.802406
756, 1.144304, 5.000000, 75.559662
757, -0.754582, 5.000000, 76.605934
758, -0.638925, 5.000000, 74.435013
759, -2.662840, 5.000000, 75.515663
760, 3.012776, 5.000000, 81.120514
761, 1.172312, 5.000000, 73.332443
762, -0.855071, 5.000000, 72.179604
763, -3.075499, 5.000000, 50.000000
764, -1.150998, 5.000000, 51.111111
765, -1.150998, 5.000000, 48.888889
766, -1.150998, 5.000000, 53.333332
767, 0.725256, 5.000000, 50.083565
768, 0.865752, 5.000000, 47.825634
769, -1.135623, 5.000000, 46.674644
770, 0.773503, 5.000000, 45.555557
771, -1.148436, 5.000000, 44.445774
772, 0.773503, 5.000000, 43.333332
773, -1.150998, 5.000000, 42.222221
774, 0.776259, 5.000000, 41.096050
775, -3.059325, 5.000000, 43.281231
776, -3.107228, 5.000000, 63.232712
777, -1.204533, 5.000000, 62.121887
778, -1.159921, 5.000000, 59.983276
779, 0.773503, 5.000000, 61.111111
780, 0.652138, 5.000000, 63.327377
781, 0.773503, 5.000000, 58.888889
782, -1.152485, 5.000000, 57.774990
783, 0.773503, 5.000000, 56.666668
784, -3.077234, 5.000000, 58.885635
785, -1.151246, 5.000000, 55.555092
786, 0.773503, 5.000000, 54.444443
787, 0.632923, 5.000000, 52.236149
788, 2.661529, 5.000000, 51.152027
789, -3.075540, 5.000000, 54.444366
790, 3.145865, 5.000000, 45.558662
791, 3.075499, 5.000000, 61.111111
792, -3.011012, 5.000000, 21.149166
793, -3.148155, 5.000000, 16.663677
794, 3.075499, 5.000000, 56.666668
795, -3.147253, 5.000000, 12.219298
796, 3.025795, 5.000000, 41.086647
797, 3.116067, 5.000000, 65.642227
798, 1.206006, 5.000000, 66.764679
799, 1.160166, 5.000000, 68.905228
800, -0.630268, 5.000000, 67.796837
801, -0.644987, 5.000000, 65.556198
802, -0.713450, 5.000000, 69.915230
803, -2.660991, 5.000000, 68.849152
804, 1.152493, 5.000000, 71.092453
805, 3.075499, 5.000000, 70.000000
806, -3.072937, 5.000000, 47.779106
807, 3.077936, 5.000000, 74.444984
808, -3.078577, 5.000000, 30.000000
809, 3.078247, 5.000000, 9.998385
810, -3.085778, 5.000000, 83.333336
811, -0.862716, 5.000000, 32.188599
812, -3.101046, 5.000000, 81.111115
813, -1.096077, 5.000000, 78.975044
814, -2.000000, 5.000000, 98.301376
815, -0.987479, 5.000000, 96.431587
816, 1.931237, 5.000000, 1.543871
817, 1.931850, 5.000000, 98.456093
818, -2.000000, 5.000000, 1.690171
819, -0.990795, 5.000000, 3.572705
820, -1.000193, 5.000000, 40.328819
821, 1.441546, 5.000000, 37.597347
822, -3.428677, 5.000000, 73.955566
823, -2.292931, 5.000000, 70.616081
824, -3.417112, 5.000000, 67.286781
825, -1.456200, 5.000000, 63.938282
826, 3.418653, 5.000000, 52.714031
827, 2.330058, 5.000000, 49.386124
828, 1.440480, 5.000000, 64.945839
829, -2.408516, 5.000000, 77.276382
830, -3.628023, 5.000000, 38.838451
831, 3.582747, 5.000000, 1.426733
832, 3.583181, 5.000000, 98.573654
833, -3.582680, 5.000000, 98.513298
834, -3.654469, 5.000000, 1.411026
835, 1.638992, 5.000000, 39.621037
836, 1.024887, 5.000000, 97.100372
837, 1.024881, 5.000000, 2.899342
838, -1.914115, 5.000000, 6.660436
839, -1.891437, 5.000000, 93.382210
840, -1.920246, 5.000000, 8.869150
841, 1.924501, 5.000000, 42.222221
842, 1.924501, 5.000000, 44.444443
843, 1.924501, 5.000000, 46.666668
844, 1.915784, 5.000000, 62.107189
845, 1.924501, 5.000000, 60.000000
846, 1.924501, 5.000000, 55.555557
847, 1.924501, 5.000000, 57.777779
848, -1.943844, 5.000000, 11.093825
849, -1.896590, 5.000000, 91.173912
850, -1.952690, 5.000000, 13.315650
851, -3.816002, 5.000000, 76.747520
852, -3.689802, 5.000000, 70.230621
853, -1.986025, 5.000000, 66.830833
854, 3.697635, 5.000000, 49.769650
855, 1.958564, 5.000000, 53.359638
856, -1.990589, 5.000000, 73.447647
857, -1.958709, 5.000000, 15.537575
858, -1.964144, 5.000000, 17.759684
859, -1.959840, 5.000000, 33.341457
860, -1.929034, 5.000000, 19.968258
861, -5.000000, 0.002074, 98.371033
862, -5.000000, 0.002074, 1.628967
863, -5.000000, -3.031414, 83.345589
864, -5.000000, -3.077029, 92.233147
865, -5.000000, -3.028099, 76.686684
866, -5.000000, -3.061418, 87.783714
867, -5.000000, -3.291542, 72.281914
868, -5.000000, -3.034919, 16.655046
869, -5.000000, -3.056425, 12.214464
870, -5.000000, 3.055357, 7.665169
871, -5.000000, 3.291542, 54.504135
872, -5.000000, 3.126394, 21.193640
873, -5.000000, 3.075499, 25.555555
874, -5.000000, 3.075499, 30.000000
875, -5.000000, 3.029424, 34.425800
876, -5.000000, 3.075499, 38.888889
877, -5.000000, 3.075499, 43.333332
878, -5.000000, 3.150394, 47.849407
879, -5.000000, 3.075499, 58.888889
880, -5.000000, 3.029424, 63.351978
881, -5.000000, 3.075499, 67.777779
882, -5.000000, 3.127352, 78.806450
883, -5.000000, 3.004093, 89.965324
884, -5.000000, 3.075499, 85.555557
885, -5.000000, 3.075499, 74.444443
886, -5.000000, 3.037563, 14.751713
887, -5.000000, -3.075499, 27.777779
888, -5.000000, -3.075499, 45.555557
889, -5.000000, -3.075499, 61.111111
890, -5.000000, -3.028196, 23.313416
891, -5.000000, -3.075499, 36.666668
892, -5.000000, -3.075499, 56.666668
893, -5.000000, -3.075499, 41.111111
894, -5.000000, -3.075499, 52.222221
895, -5.000000, -3.029424, 32.240868
896, -5.000000, -3.081248, 65.555557
897, -5.000000, -3.076646, 7.766984
898, -5.000000, 3.011730, 94.482689
899, -5.000000, -2.983663, 96.753876
900, -5.000000, 3.282701, 3.148715
901, -5.000000, -2.983673, 3.246126
902, -5.000000, -3.069874, 94.464050
903, -5.000000, -1.164897, 93.354973
904, -5.000000, -1.145146, 91.138092
905, -5.000000, 0.758113, 92.265999
906, -5.000000, 0.733912, 94.473305
907, -5.000000, 0.783390, 90.056076
908, -5.000000, -1.127343, 88.919647
909, -5.000000, 0.815530, 87.837471
910, -5.000000, -1.100819, 86.698990
911, -5.000000, -3.069834, 5.535969
912, -5.000000, -1.163896, 6.644231
913, -5.000000, -1.143451, 8.863131
914, -5.000000, 0.824609, 7.758555
915, -5.000000, 0.749033, 10.042841
916, -5.000000, 0.736978, 5.521025
917, -5.000000, -1.132317, 11.097965
918, -5.000000, 0.905235, 12.093005
919, -5.000000, -1.095630, 13.299541
920, -5.000000, 2.722807, 11.035646
921, -5.000000, 2.964290, 5.458357
922, -5.000000, -1.078680, 95.442123
923, -5.000000, 3.272073, 96.857658
924, -5.000000, 3.134105, 92.227219
925, -5.000000, -1.077997, 4.556801
926, -5.000000, 0.952912, 14.226313
927, -5.000000, -1.062518, 15.496372
928, -5.000000, 0.921545, 16.444752
929, -5.000000, -1.063754, 17.713661
930, -5.000000, 1.022209, 18.496548
931, -5.000000, -1.027184, 19.731997
932, -5.000000, 0.844582, 85.616516
933, -5.000000, -1.077053, 84.478416
934, -5.000000, 0.873304, 83.394722
935, -5.000000, -1.069536, 82.256615
936, -5.000000, 0.963010, 81.330772
937, -5.000000, -1.037633, 80.234810
938, -5.000000, -3.045117, 85.569633
939, -5.000000, -3.029198, 14.434891
940, -5.000000, -3.068140, 9.990424
941, -5.000000, 3.037280, 87.777779
942, -5.000000, -3.067055, 90.008881
943, -5.000000, 3.075499, 72.222221
944, -5.000000, 1.150998, 73.333336
945, -5.000000, 1.150998, 71.111115
946, -5.000000, 1.150998, 75.555557
947, -5.000000, -0.773503, 74.444443
948, -5.000000, -0.781656, 76.594482
949, -5.000000, 1.100654, 77.574104
950, -5.000000, 3.075751, 76.618980
951, -5.000000, -0.773503, 72.222221
952, -5.000000, -0.640964, 70.000000
953, -5.000000, 1.173088, 68.888885
954, -5.000000, -0.699484, 67.861343
955, -5.000000, -2.660870, 68.929291
956, -5.000000, -3.091012, 79.021080
957, -5.000000, -3.038266, 81.180054
958, -5.000000, -3.075499, 50.000000
959, -5.000000, -1.150998, 51.111111
960, -5.000000, -1.150998, 48.888889
961, -5.000000, -1.150998, 53.333332
962, -5.000000, 0.725256, 50.083565
963, -5.000000, 0.865752, 47.825634
964, -5.000000, -1.135623, 46.674644
965, -5.000000, 0.773503, 45.555557
966, -5.000000, -1.148436, 44.445774
967, -5.000000, 0.773503, 43.333332
968, -5.000000, -3.075072, 43.333553
969, -5.000000, -3.124704, 63.249767
970, -5.000000, -1.207446, 62.124729
971, -5.000000, -1.160406, 59.983749
972, -5.000000, 0.773503, 61.111111
973, -5.000000, 0.651925, 63.327587
974, -5.000000, 0.773503, 58.888889
975, -5.000000, -1.152566, 57.775070
976, -5.000000, 0.773503, 56.666668
977, -5.000000, -3.077328, 58.885731
978, -5.000000, -1.151260, 55.555103
979, -5.000000, 0.773503, 54.444443
980, -5.000000, 0.632923, 52.236149
981, -5.000000, 2.661529, 51.152027
982, -5.000000, -3.075543, 54.444370
983, -5.000000, -3.116067, 34.531116
984, -5.000000, -1.206006, 35.653568
985, -5.000000, -1.160166, 37.794113
986, -5.000000, 0.773503, 36.666668
987, -5.000000, 0.652030, 34.450230
988, -5.000000, 0.773503, 38.888889
989, -5.000000, -1.152526, 40.002724
990, -5.000000, 0.773503, 41.111111
991, -5.000000, 3.075499, 27.777779
992, -5.000000, 1.150998, 28.888889
993, -5.000000, 1.199245, 31.027546
994, -5.000000, -0.773503, 30.000000
995, -5.000000, -0.693413, 32.219143
996, -5.000000, -0.773503, 27.777779
997, -5.000000, 1.150998, 26.666666
998, -5.000000, 1.150998, 24.444445
999, -5.000000, -0.773503, 25.555555
1000, -5.000000, -0.781773, 23.405642
1001, -5.000000, 1.100093, 22.426472
1002, -5.000000, 3.075497, 23.381130
1003, -5.000000, 3.075499, 36.666668
1004, -5.000000, 3.145865, 45.558662
1005, -5.000000, 3.075499, 61.111111
1006, -5.000000, -3.089720, 20.973854
1007, -5.000000, -3.035929, 18.808722
1008, -5.000000, 3.075499, 56.666668
1009, -5.000000, -3.075499, 74.444443
1010, -5.000000, -3.075499, 25.555555
1011, -5.000000, -3.075499, 30.000000
1012, -5.000000, 3.075499, 41.111111
1013, -5.000000, -3.077282, 38.892067
1014, -5.000000, 3.124108, 32.121620
1015, -5.000000, 3.116067, 65.642227
1016, -5.000000, 1.222024, 66.778603
1017, -5.000000, -0.616472, 65.654289
1018, -5.000000, -1.150755, 42.222935
1019, -5.000000, -3.072937, 47.779106
1020, -5.000000, 3.079181, 70.000000
1021, -5.000000, 3.032381, 16.894670
1022, -5.000000, 3.064008, 83.249115
1023, -5.000000, 3.102978, 19.142967
1024, -5.000000, 3.099742, 80.979080
1025, -5.000000, -1.931644, 1.543466
1026, -5.000000, 2.000000, 1.690171
1027, -5.000000, 0.983308, 3.557667
1028, -5.000000, -1.931642, 98.456535
1029, -5.000000, 2.000000, 98.309830
1030, -5.000000, 0.988032, 96.433861
1031, -5.000000, 3.240619, 12.710528
1032, -5.000000, -1.147369, 78.292282
1033, -5.000000, -1.147684, 21.705898
1034, -5.000000, 1.137324, 79.527428
1035, -5.000000, 1.029468, 20.449587
1036, -5.000000, -2.249407, 67.159195
1037, -5.000000, 3.418653, 52.714031
1038, -5.000000, -1.440480, 63.943047
1039, -5.000000, 1.440480, 32.831936
1040, -5.000000, -3.418619, 70.491783
1041, -5.000000, 2.330058, 49.386124
1042, -5.000000, -1.440480, 33.834728
1043, -5.000000, 1.480594, 64.950935
1044, -5.000000, 2.448924, 9.156491
1045, -5.000000, -3.583151, 98.573723
1046, -5.000000, -3.583153, 1.426280
1047, -5.000000, 3.583377, 1.486072
1048, -5.000000, 3.654415, 98.589050
1049, -5.000000, -1.024887, 97.100372
1050, -5.000000, -1.001586, 2.906605
1051, -5.000000, 1.891437, 93.382210
1052, -5.000000, 1.893887, 6.604978
1053, -5.000000, -1.924501, 24.444445
1054, -5.000000, -1.924501, 75.555557
1055, -5.000000, 1.924501, 42.222221
1056, -5.000000, 1.924501, 44.444443
1057, -5.000000, 1.924501, 37.777779
1058, -5.000000, 1.915778, 35.670578
1059, -5.000000, -1.917933, 30.996229
1060, -5.000000, 1.924501, 46.666668
1061, -5.000000, 1.924501, 40.000000
1062, -5.000000, -1.924501, 28.888889
1063, -5.000000, -1.924501, 26.666666
1064, -5.000000, 1.915773, 62.107201
1065, -5.000000, 1.924501, 60.000000
1066, -5.000000, 1.924501, 55.555557
1067, -5.000000, 1.924501, 57.777779
1068, -5.000000, -1.924501, 73.333336
1069, -5.000000, 1.896590, 91.173912
1070, -5.000000, -3.676142, 67.536453
1071, -5.000000, -1.958883, 71.136787
1072, -5.000000, 3.697635, 49.769650
1073, -5.000000, 1.958564, 53.359638
1074, -0.080520, -3.664915, 0.000000
1075, 0.016346, 3.277387, 0.000000
1076, 3.362934, -0.113349, 0.000000
1077, -3.363011, -0.080333, 0.000000
1078, 1.992518, 3.307029, 0.000000
1079, 1.038401, 1.707344, 0.000000
1080, -1.002105, 1.755320, 0.000000
1081, -0.000000, -0.196152, 0.000000
1082, -1.847651, -3.119090, 0.000000
1083, 3.306179, -1.998864, 0.000000
1084, -3.148030, 1.893288, 0.000000
1085, -1.944948, 3.410316, 0.000000
1086, -3.382569, -1.940331, 0.000000
1087, 3.118103, 1.836415, 0.000000
1088, 1.841099, -3.254796, 0.000000
1089, 1.683776, -1.146205, 0.000000
1090, -1.799209, -1.108198, 0.000000
1091, -0.234039, -1.823031, 0.000000
1092, -3.535898, -3.535898, 0.000000
1093, 3.535898, -3.535898, 0.000000
1094, 3.535898, 3.535898, 0.000000
1095, -3.535898, 3.535898, 0.000000
1096, 1.896970, 0.417981, 0.000000
1097, -1.897502, 0.418768, 0.000000
1098, -0.080520, -3.664915, 100.000000
1099, 0.016346, 3.277387, 100.000000
1100, 3.362934, -0.113349, 100.000000
1101, -3.363011, -0.080333, 100.000000
1102, 1.992518, 3.307029, 100.000000
1103, 1.038401, 1.707344, 100.000000
1104, -1.002105, 1.755320, 100.000000
1105, -0.000000, -0.196152, 100.000000
1106, -1.847651, -3.119090, 100.000000
1107, 3.306179, -1.998864, 100.000000
1108, -3.148030, 1.893288, 100.000000
1109, -1.944948, 3.410316, 100.000000
1110, -3.382569, -1.940331, 100.000000
1111, 3.118103, 1.836415, 100.000000
1112, 1.841099, -3.254796, 100.000000
1113, 1.683776, -1.146205, 100.000000
1114, -1.799209, -1.108198, 100.000000
1115, -0.234039, -1.823031, 100.000000
1116, -3.535898, -3.535898, 100.000000
1117, 3.535898, -3.535898, 100.000000
1118, 3.535898, 3.535898, 100.000000
1119, -3.535898, 3.535898, 100.000000
1120, 1.896970, 0.417981, 100.000000
1121, -1.897502, 0.418768, 100.000000
1122, -0.003000, -0.004501, 39.985401
1123, -0.000000, -0.000000, 93.168816
1124, 0.000000, -0.000000, 53.561970
1125, -0.000708, -0.000171, 62.041622
1126, 0.000000, 0.000000, 68.800392
1127, 0.003512, 0.004824, 13.563582
1128, -0.006309, -0.003948, 24.666243
1129, 0.003715, 0.005148, 19.558220
1130, 0.000065, 0.000088, 6.860473
1131, -0.001362, 0.000312, 75.432442
1132, -0.019517, -0.004827, 30.931725
1133, 0.000000, 0.000000, 45.068287
1134, 0.000439, -0.000095, 84.494591
1135, 0.462284, -0.532260, 35.457718
1136, 0.599273, 0.085915, 79.963402
1137, 0.609297, 0.609453, 88.831726
1138, 0.655697, 0.778883, 57.801865
1139, -0.683897, -0.708883, 49.315128
1140, -1.379775, -1.379068, 3.689456
1141, -1.388050, -1.388050, 96.320473
1142, 1.393374, 1.004807, 96.412170
1143, 1.242629, 1.302788, 10.210470
1144, -1.252726, -1.349409, 72.116219
1145, -1.385831, -1.389806, 10.073734
1146, 0.956155, 1.425792, 3.638728
1147, -1.611748, 1.550902, 33.601891
1148, -1.356905, -1.462931, 27.795944
1149, 1.288123, 1.414618, 72.201347
1150, -1.231400, 1.242620, 65.421104
1151, 1.693168, 1.636047, 33.259995
1152, 1.510681, -1.428517, 16.560926
1153, 1.370871, -1.374955, 65.652786
1154, -1.565963, -1.560230, 56.332954
1155, 1.508998, 1.628766, 50.809441
1156, -1.584328, -1.584328, 90.469444
1157, -1.716320, 1.568641, 36.994698
1158, -1.614925, -1.660735, 42.529263
1159, 1.762650, 1.580364, 22.118505
1160, -1.423025, 1.439209, 16.560871
1161, -1.626939, -1.626939, 87.039215
1162, -1.636323, 1.713985, 77.922897
1163, -1.624919, -1.627329, 81.942917
1164, 1.799015, 1.646061, 37.659683
1165, 1.624553, 1.607109, 42.524460
1166, -1.713703, -1.714629, 37.690434
1167, -1.664222, 1.790531, 21.974566
1168, -1.581775, -1.617611, 22.106247
1169, -1.690549, 1.653526, 42.317368
1170, -1.753555, -1.733289, 33.329906
1171, 1.338939, 1.456041, 27.802038
1172, 1.742705, 1.700858, 47.427631
1173, 1.691695, -1.699418, 42.277531
1174, -1.810469, -1.891612, 16.697844
1175, -1.699612, -1.669650, 59.681591
1176, 1.826111, -1.682092, 3.208356
1177, 2.019039, -2.012872, 38.563084
1178, 1.749980, -1.755839, 9.052953
1179, -1.757384, 1.760845, 70.972206
1180, 1.686542, -1.721078, 59.744362
1181, 1.701086, -1.742160, 55.809589
1182, 1.865914, 1.901251, 16.658052
1183, -1.709777, 1.709777, 90.914711
1184, 1.709698, -1.709755, 90.914581
1185, 1.784748, -1.784213, 77.535484
1186, -1.723106, 1.770928, 47.324055
1187, -1.951394, 1.792498, 27.777779
1188, 1.717080, -1.718600, 21.810581
1189, 1.792911, -1.723044, 51.323204
1190, -1.793950, 1.724826, 51.327328
1191, 1.781369, 1.756599, 66.654732
1192, 1.730976, -1.780912, 47.287415
1193, -1.718226, 1.763600, 55.745903
1194, -1.781634, -1.758839, 66.660385
1195, -2.043119, 2.151964, 60.188278
1196, 1.925845, -1.832957, 27.622351
1197, 1.776346, -1.771167, 70.919838
1198, 1.863966, -1.899621, 32.829788
1199, -1.552927, -1.660117, 78.033829
1200, -2.108734, 2.090926, 7.555424
1201, 1.570512, -1.968630, 95.180626
1202, -1.848913, 1.687665, 11.373722
1203, -1.727986, 1.856608, 95.412613
1204, -2.007267, -1.937554, 51.970978
1205, 1.925570, 1.928133, 86.207474
1206, 1.908904, 1.908656, 91.451027
1207, 2.448861, -2.324057, 6.164784
1208, 1.962231, 1.877023, 55.155888
1209, 1.966159, 1.879904, 60.449333
1210, -1.876065, 1.801391, 86.758972
1211, 1.801167, -1.876080, 86.759590
1212, -2.091129, 1.954668, 74.163559
1213, -2.055818, 2.123706, 2.924804
1214, 1.823651, 1.819147, 82.464096
1215, -1.343569, 1.564342, 82.040680
1216, 2.000561, -2.046240, 12.200377
1217, 2.040400, -1.923602, 74.037865
1218, 1.762996, 1.827170, 77.470139
1219, -1.945898, -1.861032, 46.681931
1220, -2.140720, -2.036225, 62.908535
1221, 2.036420, -2.143082, 62.779823
1222, 1.950062, 1.884399, 63.555618
1223, -2.131116, -2.131116, 93.478798
1224, 1.922822, -1.287795, 82.418228
1225, -2.143494, -2.147200, 7.213239
1226, 2.066395, 2.158133, 7.413579
1227, -2.129284, -2.109194, 12.957340
1228, -2.046739, -2.177558, 74.921783
1229, -2.118665, 2.236185, 62.763767
1230, 2.022718, 2.149447, 12.983207
1231, -2.076170, -2.211585, 24.993330
1232, -2.167885, 2.031408, 30.727283
1233, -2.146745, -2.274748, 30.487473
1234, -2.253863, 2.197564, 24.853960
1235, 2.063972, 2.236621, 25.014244
1236, -2.280557, 1.975147, 68.077972
1237, 2.226588, -2.074654, 24.696033
1238, 2.079449, 2.287694, 69.519768
1239, 2.017829, 2.338215, 30.472324
1240, -2.090463, -2.308540, 69.500496
1241, 2.298143, 2.279142, 74.714569
1242, -1.435335, 2.346973, 39.642998
1243, 0.216511, 2.481309, 35.351437
1244, 2.247717, 2.341211, 19.431759
1245, -2.118186, -2.408142, 19.453003
1246, 2.511039, -2.421062, 35.530563
1247, 2.416386, -2.027053, 68.187279
1248, 2.298619, -2.303466, 19.118500
1249, -2.253055, 2.247182, 19.195078
1250, -2.467867, -2.467887, 84.490799
1251, 2.548416, -2.546279, 97.547142
1252, 1.117921, 2.346340, 94.038269
1253, 2.527913, -0.518703, 29.981661
1254, -1.491253, 2.389152, 13.994966
1255, 2.577282, 0.254369, 39.721699
1256, 1.199201, 2.456147, 40.080330
1257, 2.540744, 2.544479, 88.867889
1258, -2.289112, 0.681302, 5.227656
1259, -2.509649, -2.526322, 40.136444
1260, 2.401478, 2.615618, 79.960999
1261, 2.578356, -0.416791, 14.287558
1262, -2.494794, 0.069749, 79.957321
1263, 2.378968, -2.509262, 44.764729
1264, -2.598029, 0.076030, 44.344791
1265, 2.595991, -2.383412, 80.042023
1266, -0.003701, 2.598771, 97.563011
1267, -2.614762, 0.581241, 97.502258
1268, -2.584641, -0.351432, 54.170666
1269, 2.753680, 2.409870, 35.433849
1270, -0.081035, -2.442927, 14.655887
1271, -2.607714, -0.201355, 35.278416
1272, 2.468865, 2.417065, 44.942532
1273, -2.606583, 0.090157, 40.285225
1274, -2.458811, -0.024251, 14.586912
1275, 2.657729, -0.112161, 93.365814
1276, -0.114172, 2.549750, 44.307907
1277, 2.645314, -0.050379, 53.474709
1278, -2.624584, 0.367731, 57.800587
1279, -2.598044, 0.468648, 93.335632
1280, 0.421204, -2.364249, 29.762762
1281, 0.106033, 2.653718, 53.378315
1282, 2.682136, 2.470941, 57.776695
1283, 0.167886, -2.612357, 53.852753
1284, -0.062605, 2.455596, 5.860307
1285, -2.605226, 0.153233, 76.016533
1286, 2.602317, -0.115050, 49.148075
1287, -2.632949, -2.426153, 49.129555
1288, -0.033317, -2.466871, 80.023926
1289, 0.075342, -2.582498, 40.170586
1290, -0.258559, -2.589204, 44.600075
1291, 0.038181, -2.505017, 83.755623
1292, 2.674562, 2.662995, 2.314541
1293, 2.639985, -0.075349, 75.768967
1294, -0.202077, 2.563587, 79.923820
1295, 0.358588, -2.544534, 92.946854
1296, 2.428962, 0.424636, 5.521517
1297, 2.856080, 2.801926, 97.818153
1298, 0.015713, -2.694521, 58.031467
1299, -2.582559, -2.740781, 35.522278
1300, -2.806223, -2.728207, 97.772369
1301, -0.096543, 2.607157, 75.743950
1302, -2.800570, -2.718711, 2.233498
1303, -2.467535, 0.001223, 83.753441
1304, 2.620977, -0.040569, 84.618500
1305, -0.221849, -2.633832, 5.595270
1306, 0.242469, 2.563636, 84.360130
1307, 2.697125, -0.027112, 44.189442
1308, -0.020273, 2.688546, 49.026600
1309, 0.295204, -0.556706, 98.134720
1310, 2.646587, -0.259270, 34.437225
1311, 2.619035, 0.089115, 18.289846
1312, -0.051073, -2.577438, 61.392818
1313, -2.640517, 0.010903, 26.096632
1314, -2.593957, 0.058276, 61.534634
1315, -2.568717, 2.541027, 45.034065
1316, -2.425862, -0.033027, 20.306158
1317, -1.910039, 0.307166, 88.809601
1318, 0.307032, -1.909546, 88.809868
1319, 0.045836, 2.699609, 18.229977
1320, 2.682334, 0.296841, 2.230328
1321, 2.756155, -0.593215, 57.774803
1322, -2.688726, -0.015352, 29.362467
1323, -2.400477, 2.754402, 53.538795
1324, 2.605068, 2.623936, 52.842247
1325, 0.171304, -2.615151, 26.018044
1326, 0.015864, -2.722581, 18.189217
1327, 0.417064, -2.586597, 36.796761
1328, 2.766566, 0.110395, 62.009228
1329, 0.007681, 2.803073, 8.655012
1330, -2.659302, 0.074688, 23.597664
1331, 0.201371, 2.736259, 61.992134
1332, -0.532791, -2.685567, 64.706017
1333, -2.790762, -2.665274, 44.481449
1334, 0.300636, -2.686050, 75.702019
1335, -1.165862, 2.648080, 93.137665
1336, -2.627276, 2.838439, 57.776505
1337, 2.630443, -2.752749, 53.442310
1338, -0.003065, -2.620774, 68.177002
1339, -2.561064, -0.033953, 2.191596
1340, -2.780938, -0.110724, 8.473726
1341, 0.062358, -0.003132, 33.242580
1342, 2.658824, -2.572057, 84.477066
1343, -0.133427, 2.132094, 31.881775
1344, -2.789179, 2.855447, 97.914009
1345, -2.722194, 2.580812, 80.028046
1346, 0.119859, -2.639481, 23.558983
1347, 0.174074, 2.787489, 20.682987
1348, -0.052101, 2.282273, 23.764023
1349, -2.701665, -2.759990, 79.977242
1350, 2.143705, -0.003952, 26.005081
1351, 2.823158, 0.312731, 89.834732
1352, 0.310202, 2.820988, 89.837456
1353, -2.281845, -2.775925, 54.331615
1354, 0.071880, 2.674969, 68.159592
1355, 2.311538, -2.793313, 14.645651
1356, -2.685365, 0.694926, 49.297165
1357, 2.628465, -2.738172, 49.306152
1358, -2.415801, 2.607349, 84.282387
1359, 2.694844, 2.723161, 4.752129
1360, -2.710913, 0.051215, 69.515648
1361, 2.746066, -2.749708, 93.224319
1362, -2.961596, -0.132002, 73.333336
1363, -2.811654, -2.811654, 88.784294
1364, 2.790745, -0.200768, 97.778107
1365, -0.498637, -2.796720, 2.096467
1366, 2.434341, -2.971291, 57.776653
1367, -0.224284, -2.814979, 11.645037
1368, 2.710935, 0.203397, 11.758443
1369, -0.040225, -2.803468, 20.587435
1370, 2.691828, 0.050280, 78.788963
1371, 2.730137, -0.040297, 69.527939
1372, -2.807526, -0.035154, 17.906864
1373, 0.195174, -2.628038, 34.362209
1374, 2.364692, -0.472821, 36.828220
1375, 2.858737, 0.336749, 8.740479
1376, -2.837907, -2.802896, 57.920357
1377, -0.240950, 2.143958, 26.143911
1378, 0.288858, -2.841347, 49.825939
1379, 2.705920, -2.767872, 30.768867
1380, 0.189817, 2.890563, 11.652023
1381, -0.228426, 2.901884, 58.399261
1382, -3.070947, 3.135306, 33.333351
1383, 2.947142, 0.197332, 73.415390
1384, 2.963264, 2.493062, 95.489052
1385, 0.012292, 0.138184, 37.651833
1386, 2.804726, 0.038729, 20.651531
1387, -0.138660, 2.151540, 29.515095
1388, -2.712604, 0.071668, 32.036346
1389, 2.826373, 2.724655, 49.224094
1390, 0.684490, 2.795273, 14.818873
1391, 3.221133, 3.070947, 33.333351
1392, -0.076312, 2.943304, 73.396072
1393, -0.298741, -2.821192, 8.533934
1394, 0.437141, 2.870534, 65.070709
1395, -0.567470, -2.862368, 97.954971
1396, 0.167892, -0.317235, 2.316330
1397, 0.002417, -2.936357, 73.359421
1398, 0.049099, -0.071052, 42.296879
1399, 2.850694, 2.854872, 10.909491
1400, -0.391704, -2.932997, 31.870073
1401, 0.406683, -0.570878, 11.332996
1402, -2.917381, -0.187712, 64.337585
1403, -0.058012, 0.135765, 22.336636
1404, -1.981687, 3.181511, 35.366566
1405, -0.630260, 0.593821, 9.022117
1406, -2.830938, 2.965986, 48.950069
1407, -2.738190, -2.739255, 5.026916
1408, -0.049420, 2.827848, 2.200065
1409, -2.905664, 0.257437, 66.668152
1410, -2.851927, -0.394884, 11.571329
1411, -0.035556, 0.057698, 77.741989
1412, -2.902616, -2.898862, 10.933580
1413, 2.996189, -1.751012, 40.511971
1414, -2.839167, -2.817257, 72.871323
1415, -2.825235, -2.968943, 95.494522
1416, 0.499049, 0.248885, 64.274376
1417, 2.773290, -0.136939, 64.302834
1418, -0.231981, -2.906314, 70.742332
1419, -0.544067, 0.515133, 73.258812
1420, 2.993471, -0.009245, 46.488041
1421, 2.931783, -0.217182, 66.873550
1422, 3.112347, -2.789944, 1.949895
1423, 0.241574, 2.901190, 70.776833
1424, 0.162329, 2.476485, 87.572166
1425, 2.475179, 0.163713, 87.570084
1426, 0.502809, -0.553109, 4.696671
1427, 0.060219, 3.026457, 46.561790
1428, -0.019405, 0.243486, 47.343452
1429, -0.259027, 0.184248, 86.759247
1430, 0.015528, -0.172908, 59.770130
1431, 2.773595, 0.315002, 81.046661
1432, 2.073087, -0.014718, 23.722734
1433, 2.840222, 2.874168, 84.280365
1434, -2.743693, 2.799395, 76.211472
1435, 0.106784, 3.107434, 55.603397
1436, -0.359968, -0.407756, 15.769371
1437, -0.091620, 2.927373, 37.876419
1438, 0.110315, -0.139856, 55.812794
1439, -2.796792, -2.854134, 64.935158
1440, -0.126151, 0.091222, 90.909744
1441, -3.075918, 0.108171, 46.567062
1442, -2.896688, -2.896688, 26.980515
1443, -2.813320, 2.601318, 88.896317
1444, 2.600391, -2.813805, 88.896553
1445, 0.190018, -0.132638, 51.315857
1446, 3.067734, 0.004795, 41.878975
1447, -3.019337, 0.080391, 38.071316
1448, 0.369557, -0.355006, 28.736532
1449, -2.857580, 2.776094, 64.874893
1450, 2.891791, 2.857256, 71.544601
1451, -0.048647, -3.080819, 46.794228
1452, -3.045160, -0.060366, 91.208809
1453, 2.907339, -2.819900, 64.778793
1454, -2.374769, 2.940954, 9.602584
1455, 3.084126, 0.018822, 55.657871

*ELEMENT, TYPE=C3D4, ELSET=ALL_ELEMENTS
1, 1201, 1275, 1142, 1364
2, 939, 1174, 344, 1227
3, 276, 1223, 1141, 1295
4, 1126, 1149, 1144, 1197
5, 959, 1190, 1204, 1356
6, 1144, 1149, 1126, 1179
7, 296, 1185, 439, 1217
8, 1189, 1277, 548, 1286
9, 1155, 548, 1277, 1286
10, 1163, 1215, 1134, 1224
11, 1136, 1215, 1163, 1224
12, 220, 290, 864, 1156
13, 942, 864, 290, 1156
14, 472, 1252, 479, 1384
15, 472, 1206, 479, 1252
16, 830, 876, 1157, 1242
17, 1155, 1277, 1189, 1286
18, 276, 1141, 1201, 1295
19, 773, 1169, 1165, 1276
20, 820, 773, 1242, 1256
21, 959, 1190, 980, 1204
22, 1141, 922, 1267, 1279
23, 751, 457, 1182, 1390
24, 457, 1230, 1182, 1390
25, 562, 1209, 1321, 1328
26, 309, 1158, 1173, 1289
27, 653, 1206, 472, 1252
28, 764, 1190, 1155, 1281
29, 562, 1321, 565, 1328
30, 910, 1161, 1210, 1317
31, 267, 1211, 1161, 1318
32, 565, 1321, 1180, 1328
33, 764, 1155, 1190, 1308
34, 220, 1156, 864, 1223
35, 1151, 1198, 1132, 1253
36, 751, 1230, 457, 1390
37, 439, 1185, 538, 1217
38, 980, 1190, 959, 1356
39, 571, 548, 1189, 1277
40, 791, 1209, 462, 1222
41, 773, 1165, 772, 1276
42, 1136, 1214, 1215, 1224
43, 1134, 1215, 1214, 1224
44, 876, 1057, 1003, 1157
45, 1150, 1153, 1126, 1194
46, 1180, 1321, 1209, 1328
47, 1174, 1227, 939, 1274
48, 344, 1227, 1174, 1270
49, 1126, 1153, 1150, 1191
50, 852, 1179, 1020, 1236
51, 1169, 1242, 773, 1256
52, 571, 1189, 548, 1286
53, 1141, 1142, 1123, 1203
54, 406, 1178, 226, 1207
55, 1141, 1223, 276, 1415
56, 857, 793, 886, 1160
57, 1161, 1250, 910, 1303
58, 267, 1250, 1161, 1291
59, 857, 1160, 886, 1254
60, 644, 1182, 457, 1230
61, 764, 1155, 787, 1281
62, 844, 1209, 791, 1222
63, 538, 1217, 1185, 1293
64, 906, 1267, 922, 1279
65, 1141, 1267, 1203, 1279
66, 906, 1203, 1267, 1279
67, 406, 271, 1178, 1207
68, 318, 320, 1283, 1298
69, 344, 1174, 341, 1270
70, 1149, 1179, 1144, 1419
71, 1181, 1283, 320, 1298
72, 1160, 1182, 1129, 1436
73, 820, 774, 773, 1256
74, 764, 767, 1155, 1308
75, 644, 1182, 1230, 1261
76, 287, 597, 424, 1178
77, 1142, 1267, 1141, 1309
78, 1182, 1311, 1129, 1436
79, 773, 774, 772, 1165
80, 318, 1283, 1154, 1298
81, 852, 803, 823, 1179
82, 791, 462, 560, 1222
83, 288, 1161, 938, 1363
84, 309, 1173, 1158, 1290
85, 478, 472, 479, 1384
86, 1123, 1142, 1141, 1201
87, 1162, 1294, 1218, 1301
88, 980, 1204, 1190, 1268
89, 889, 348, 1175, 1220
90, 1132, 1198, 1151, 1341
91, 1151, 1239, 737, 1391
92, 1129, 1182, 1160, 1319
93, 222, 938, 866, 1363
94, 224, 344, 868, 1174
95, 287, 424, 399, 1178
96, 222, 288, 938, 1363
97, 852, 803, 1179, 1236
98, 853, 1354, 1150, 1394
99, 1185, 1199, 292, 1288
100, 598, 1151, 1198, 1310
101, 830, 1157, 743, 1242
102, 598, 1198, 1151, 1253
103, 442, 1152, 354, 1248
104, 617, 664, 1164, 1256
105, 787, 764, 767, 1155
106, 687, 1258, 1213, 1284
107, 751, 457, 577, 1182
108, 853, 1236, 1150, 1354
109, 292, 1199, 1185, 1334
110, 939, 868, 344, 1174
111, 967, 1264, 1018, 1273
112, 276, 1201, 1141, 1395
113, 233, 893, 968, 1158
114, 597, 1178, 287, 1216
115, 577, 656, 751, 1182
116, 390, 1197, 428, 1247
117, 893, 1158, 356, 1259
118, 943, 1179, 655, 1212
119, 745, 1171, 733, 1235
120, 254, 1225, 897, 1412
121, 737, 739, 1151, 1391
122, 852, 1020, 803, 1236
123, 444, 424, 597, 1178
124, 1148, 1128, 1377, 1448
125, 668, 844, 791, 1222
126, 967, 1169, 1264, 1273
127, 605, 466, 1255, 1446
128, 1152, 1129, 1311, 1436
129, 1020, 852, 943, 1179
130, 927, 1174, 939, 1274
131, 1214, 1215, 715, 1294
132, 399, 424, 226, 1178
133, 419, 1175, 348, 1220
134, 617, 1164, 524, 1256
135, 419, 1175, 1220, 1312
136, 479, 1252, 1206, 1275
137, 893, 233, 356, 1158
138, 891, 232, 345, 1166
139, 1197, 1217, 1149, 1419
140, 249, 310, 451, 1173
141, 942, 1156, 290, 1363
142, 246, 528, 352, 1188
143, 863, 219, 957, 1163
144, 891, 1013, 232, 1166
145, 669, 1191, 640, 1238
146, 1154, 1283, 1181, 1298
147, 737, 1239, 1151, 1343
148, 445, 324, 248, 1181
149, 933, 910, 1250, 1303
150, 1158, 1018, 1264, 1273
151, 852, 823, 655, 1179
152, 428, 1197, 590, 1247
153, 1141, 1223, 922, 1279
154, 219, 297, 957, 1163
155, 296, 439, 594, 1217
156, 793, 1160, 858, 1249
157, 528, 446, 352, 1188
158, 271, 226, 406, 1178
159, 715, 1215, 1214, 1306
160, 280, 1250, 267, 1291
161, 473, 590, 428, 1197
162, 852, 655, 943, 1179
163, 1266, 1267, 1142, 1309
164, 1007, 224, 1174, 1245
165, 563, 565, 1180, 1328
166, 419, 421, 1175, 1312
167, 374, 228, 890, 1168
168, 1142, 1203, 1141, 1267
169, 841, 796, 665, 1165
170, 640, 1191, 615, 1238
171, 237, 1194, 1070, 1240
172, 444, 226, 424, 1178
173, 223, 473, 1197, 1217
174, 575, 1180, 245, 1221
175, 421, 348, 419, 1175
176, 656, 1182, 577, 1244
177, 889, 1220, 1175, 1314
178, 1144, 1217, 1197, 1419
179, 223, 428, 390, 1197
180, 681, 871, 789, 1193
181, 243, 526, 359, 1196
182, 737, 1151, 739, 1343
183, 288, 938, 1161, 1250
184, 956, 291, 1199, 1349
185, 944, 1179, 943, 1212
186, 918, 1202, 1254, 1274
187, 1007, 353, 224, 1245
188, 1203, 1252, 707, 1266
189, 296, 398, 427, 1185
190, 1061, 1012, 1169, 1242
191, 1057, 1157, 876, 1242
192, 577, 457, 644, 1182
193, 678, 879, 784, 1195
194, 244, 375, 574, 1192
195, 223, 473, 428, 1197
196, 1070, 1194, 1036, 1240
197, 1151, 1132, 1239, 1253
198, 749, 656, 577, 1244
199, 922, 1223, 1141, 1415
200, 560, 668, 791, 1222
201, 1142, 1266, 1203, 1267
202, 1162, 755, 1294, 1301
203, 261, 1156, 220, 1223
204, 864, 1156, 904, 1223
205, 879, 678, 1005, 1195
206, 497, 658, 1226, 1399
207, 1200, 1258, 687, 1284
208, 447, 359, 526, 1196
209, 296, 427, 439, 1185
210, 1152, 1311, 1182, 1436
211, 563, 562, 565, 1328
212, 602, 1275, 1201, 1364
213, 745, 735, 1171, 1239
214, 1218, 1294, 755, 1301
215, 254, 897, 940, 1412
216, 451, 580, 249, 1173
217, 868, 1007, 224, 1174
218, 1134, 1211, 1161, 1291
219, 276, 1201, 263, 1295
220, 1152, 505, 1261, 1311
221, 526, 1196, 243, 1379
222, 970, 1220, 889, 1314
223, 904, 1223, 1156, 1452
224, 655, 1179, 856, 1212
225, 1148, 1128, 1313, 1377
226, 1128, 1325, 1350, 1448
227, 597, 500, 1178, 1216
228, 577, 459, 749, 1244
229, 1149, 1217, 1197, 1383
230, 1128, 1148, 1325, 1448
231, 593, 1172, 666, 1272
232, 1182, 1261, 505, 1311
233, 1171, 1253, 1196, 1350
234, 739, 1151, 1243, 1343
235, 1061, 1242, 1169, 1273
236, 378, 254, 940, 1412
237, 707, 1203, 695, 1252
238, 865, 291, 221, 1199
239, 504, 1152, 505, 1261
240, 244, 1192, 574, 1263
241, 889, 1175, 971, 1314
242, 695, 1203, 707, 1266
243, 1150, 1236, 853, 1449
244, 359, 1196, 447, 1237
245, 249, 363, 1173, 1413
246, 390, 428, 371, 1247
247, 363, 1289, 1173, 1413
248, 575, 632, 1180, 1221
249, 886, 1254, 1160, 1274
250, 990, 967, 1018, 1273
251, 497, 458, 658, 1399
252, 574, 375, 452, 1192
253, 809, 658, 458, 1399
254, 1021, 1160, 793, 1249
255, 296, 1185, 1217, 1334
256, 924, 1279, 1183, 1335
257, 865, 1199, 221, 1228
258, 693, 1206, 692, 1335
259, 932, 1210, 1161, 1303
260, 231, 361, 895, 1170
261, 309, 364, 1173, 1290
262, 1161, 1211, 279, 1291
263, 330, 1148, 326, 1280
264, 877, 1055, 1012, 1169
265, 1206, 1252, 692, 1335
266, 863, 219, 1163, 1250
267, 632, 563, 1180, 1221
268, 990, 1169, 967, 1273
269, 462, 1209, 561, 1222
270, 245, 1221, 1180, 1312
271, 223, 1197, 434, 1217
272, 466, 1165, 796, 1256
273, 889, 971, 970, 1314
274, 856, 1212, 1179, 1392
275, 595, 1197, 473, 1217
276, 505, 1152, 504, 1311
277, 301, 1283, 1189, 1378
278, 439, 538, 594, 1217
279, 469, 1191, 797, 1222
280, 528, 1188, 246, 1237
281, 1171, 1377, 1128, 1448
282, 335, 1168, 374, 1231
283, 479, 1252, 1275, 1384
284, 324, 1181, 445, 1337
285, 575, 632, 633, 1180
286, 1147, 1058, 1271, 1404
287, 571, 548, 551, 1286
288, 1021, 886, 793, 1160
289, 747, 729, 1159, 1235
290, 577, 1182, 646, 1244
291, 796, 559, 665, 1165
292, 944, 1179, 1212, 1362
293, 444, 1178, 492, 1207
294, 312, 1221, 245, 1312
295, 1114, 1121, 1105, 1309
296, 249, 1173, 580, 1413
297, 326, 1148, 330, 1325
298, 1168, 1231, 335, 1346
299, 1123, 1141, 1223, 1295
300, 292, 1185, 294, 1334
301, 864, 942, 904, 1156
302, 220, 261, 290, 1156
303, 951, 1144, 1071, 1360
304, 1161, 1303, 1210, 1429
305, 1203, 1279, 1051, 1335
306, 1159, 1235, 729, 1348
307, 1022, 1215, 1345, 1358
308, 1058, 1147, 1382, 1404
309, 951, 1144, 1360, 1362
310, 330, 1148, 1280, 1325
311, 571, 551, 1189, 1286
312, 913, 1225, 1340, 1412
313, 1006, 890, 228, 1168
314, 415, 246, 352, 1188
315, 497, 1226, 627, 1399
316, 354, 1152, 442, 1355
317, 704, 687, 1213, 1284
318, 682, 1169, 1012, 1242
319, 278, 438, 1184, 1361
320, 261, 265, 1156, 1318
321, 633, 632, 563, 1180
322, 797, 1222, 1191, 1394
323, 895, 983, 231, 1170
324, 270, 1393, 1225, 1412
325, 669, 797, 640, 1191
326, 245, 1180, 313, 1312
327, 775, 877, 1012, 1169
328, 1197, 1217, 1144, 1397
329, 1110, 1028, 1101, 1300
330, 1206, 1335, 693, 1352
331, 497, 627, 458, 1399
332, 444, 226, 1178, 1207
333, 1128, 1350, 1171, 1448
334, 1114, 1267, 1121, 1309
335, 261, 264, 265, 1318
336, 602, 499, 482, 1275
337, 1149, 1197, 1126, 1371
338, 865, 956, 291, 1199
339, 491, 444, 492, 1207
340, 301, 322, 1283, 1378
341, 1148, 1377, 1187, 1448
342, 577, 646, 459, 1244
343, 312, 245, 313, 1312
344, 322, 1204, 1283, 1378
345, 364, 249, 363, 1173
346, 789, 1193, 871, 1323
347, 1011, 1233, 230, 1442
348, 836, 1297, 1266, 1384
349, 924, 1183, 711, 1335
350, 707, 836, 1266, 1384
351, 1217, 1383, 1149, 1419
352, 1150, 1191, 1153, 1416
353, 1243, 1269, 1151, 1391
354, 666, 1172, 843, 1272
355, 1164, 1255, 524, 1256
356, 945, 943, 944, 1179
357, 602, 482, 1201, 1275
358, 932, 1161, 910, 1303
359, 420, 354, 1152, 1248
360, 1051, 1279, 924, 1335
361, 299, 434, 1197, 1217
362, 332, 335, 374, 1231
363, 267, 1161, 279, 1291
364, 890, 374, 1168, 1231
365, 477, 496, 1176, 1207
366, 959, 1204, 1287, 1356
367, 790, 593, 666, 1272
368, 261, 1156, 1223, 1295
369, 1161, 1211, 1134, 1429
370, 739, 1243, 1151, 1391
371, 1148, 1313, 1187, 1377
372, 416, 243, 359, 1196
373, 332, 335, 1231, 1346
374, 326, 331, 1148, 1325
375, 812, 1345, 1215, 1358
376, 1005, 1195, 678, 1229
377, 363, 364, 1173, 1289
378, 574, 452, 631, 1192
379, 918, 1202, 1274, 1410
380, 243, 1196, 411, 1379
381, 1209, 1282, 562, 1321
382, 731, 729, 1235, 1348
383, 233, 1158, 968, 1333
384, 1142, 499, 1275, 1384
385, 292, 221, 1199, 1228
386, 957, 1163, 297, 1349
387, 595, 1197, 1217, 1383
388, 1158, 1264, 1169, 1273
389, 747, 731, 729, 1235
390, 1145, 1340, 1225, 1412
391, 1061, 1057, 1242, 1447
392, 694, 693, 692, 1335
393, 1123, 1201, 1141, 1295
394, 1144, 1240, 1071, 1360
395, 1057, 876, 1061, 1242
396, 506, 1152, 442, 1248
397, 326, 330, 331, 1325
398, 1182, 1390, 1261, 1436
399, 857, 886, 673, 1254
400, 524, 1255, 466, 1256
401, 910, 1161, 932, 1210
402, 1127, 1261, 1390, 1436
403, 429, 1247, 1153, 1338
404, 318, 1154, 1283, 1353
405, 279, 1161, 267, 1211
406, 563, 1180, 1221, 1328
407, 823, 803, 802, 1179
408, 461, 593, 790, 1272
409, 292, 293, 221, 1228
410, 451, 629, 580, 1173
411, 694, 693, 1335, 1352
412, 1069, 1183, 924, 1279
413, 1126, 1179, 1149, 1423
414, 1152, 1261, 1182, 1311
415, 1189, 1283, 1204, 1378
416, 237, 1070, 1194, 1439
417, 1157, 1242, 1057, 1447
418, 856, 1179, 762, 1392
419, 757, 755, 1162, 1301
420, 477, 490, 496, 1207
421, 1141, 1203, 1123, 1279
422, 796, 466, 559, 1165
423, 272, 1216, 1178, 1367
424, 1114, 1141, 1267, 1309
425, 460, 1171, 745, 1235
426, 318, 1283, 321, 1353
427, 287, 1178, 272, 1216
428, 299, 1217, 1197, 1397
429, 1154, 1138, 1278, 1430
430, 617, 524, 466, 1256
431, 598, 1151, 1239, 1253
432, 299, 434, 1217, 1397
433, 1047, 1095, 834, 1213
434, 223, 299, 434, 1197
435, 990, 1061, 1169, 1273
436, 1012, 1061, 876, 1242
437, 1061, 1012, 1055, 1169
438, 895, 1170, 361, 1233
439, 1144, 1397, 1217, 1419
440, 1135, 1147, 1157, 1243
441, 589, 473, 595, 1197
442, 1140, 1396, 1258, 1426
443, 563, 1221, 632, 1328
444, 1266, 1297, 1142, 1384
445, 678, 1195, 777, 1229
446, 617, 466, 664, 1256
447, 390, 370, 1197, 1247
448, 879, 1005, 1065, 1195
449, 944, 945, 1179, 1362
450, 1064, 1195, 1005, 1229
451, 1174, 1372, 1129, 1436
452, 914, 1052, 1200, 1258
453, 1006, 1168, 228, 1245
454, 935, 1163, 1262, 1303
455, 462, 561, 560, 1222
456, 360, 448, 243, 1379
457, 231, 1170, 983, 1299
458, 949, 1162, 1262, 1285
459, 448, 526, 243, 1379
460, 908, 1161, 910, 1317
461, 1055, 990, 1061, 1169
462, 1178, 1216, 500, 1368
463, 267, 1161, 265, 1318
464, 605, 466, 524, 1255
465, 609, 1218, 654, 1241
466, 667, 568, 462, 1209
467, 891, 1166, 345, 1299
468, 794, 659, 465, 1208
469, 1154, 1278, 1175, 1430
470, 1170, 1233, 1059, 1388
471, 745, 733, 661, 1235
472, 790, 666, 843, 1272
473, 247, 1177, 531, 1246
474, 1144, 1197, 1149, 1419
475, 895, 1059, 1170, 1233
476, 1194, 1332, 1402, 1416
477, 406, 271, 1207, 1305
478, 1138, 1154, 1298, 1430
479, 1065, 1005, 1064, 1195
480, 667, 462, 791, 1209
481, 777, 678, 778, 1195
482, 980, 959, 962, 1356
483, 1195, 1229, 1064, 1314
484, 856, 655, 762, 1179
485, 1194, 1402, 1150, 1416
486, 1139, 1155, 1286, 1428
487, 659, 573, 465, 1208
488, 1146, 1258, 1213, 1396
489, 232, 1166, 1013, 1259
490, 1129, 1326, 1174, 1436
491, 682, 775, 1012, 1169
492, 971, 1175, 1278, 1314
493, 802, 1179, 1236, 1354
494, 272, 287, 399, 1178
495, 472, 653, 527, 1206
496, 1190, 1204, 1124, 1268
497, 748, 527, 653, 1206
498, 1103, 1266, 1142, 1309
499, 1144, 1179, 1126, 1360
500, 224, 341, 344, 1174
501, 1213, 1258, 1140, 1396
502, 1101, 1114, 1110, 1300
503, 1062, 1233, 1011, 1442
504, 971, 1278, 974, 1314
505, 1139, 1308, 1155, 1428
506, 1101, 1028, 861, 1267
507, 574, 1192, 631, 1263
508, 745, 1171, 460, 1239
509, 469, 615, 640, 1191
510, 802, 1179, 803, 1236
511, 262, 264, 261, 1295
512, 374, 335, 228, 1168
513, 416, 1196, 359, 1237
514, 1065, 1195, 1064, 1314
515, 366, 1194, 237, 1240
516, 771, 1169, 1276, 1315
517, 258, 1176, 477, 1422
518, 893, 1018, 968, 1158
519, 640, 615, 588, 1238
520, 352, 1188, 446, 1248
521, 1175, 1298, 1154, 1430
522, 1126, 1191, 1150, 1354
523, 1036, 1194, 1070, 1439
524, 580, 1173, 629, 1413
525, 1146, 1258, 1396, 1426
526, 1194, 1240, 366, 1338
527, 469, 640, 797, 1191
528, 1155, 1308, 1286, 1428
529, 358, 1259, 357, 1289
530, 1103, 1105, 1266, 1309
531, 1160, 1249, 1021, 1372
532, 510, 1188, 528, 1237
533, 784, 1195, 879, 1336
534, 1166, 1259, 358, 1289
535, 992, 1187, 874, 1232
536, 1135, 1157, 1147, 1271
537, 367, 366, 237, 1240
538, 1139, 1204, 1190, 1356
539, 887, 230, 325, 1442
540, 1150, 1194, 1126, 1409
541, 1178, 1368, 500, 1375
542, 1051, 1069, 924, 1279
543, 335, 228, 1168, 1369
544, 1028, 1267, 1101, 1300
545, 980, 1268, 1190, 1323
546, 1160, 1129, 1372, 1436
547, 367, 366, 1240, 1338
548, 228, 1245, 1168, 1369
549, 1123, 1203, 1142, 1252
550, 595, 589, 1197, 1383
551, 1151, 1269, 1243, 1310
552, 343, 1227, 344, 1270
553, 853, 801, 1354, 1394
554, 456, 754, 609, 1218
555, 683, 981, 763, 1190
556, 505, 1182, 644, 1261
557, 1020, 953, 1236, 1360
558, 887, 1011, 230, 1442
559, 1099, 817, 1102, 1266
560, 702, 1329, 1226, 1399
561, 548, 1155, 1277, 1324
562, 1061, 988, 1057, 1447
563, 1196, 1350, 1325, 1448
564, 1020, 1236, 1179, 1360
565, 326, 1233, 1148, 1442
566, 1126, 1197, 1144, 1418
567, 450, 531, 247, 1177
568, 233, 394, 356, 1158
569, 343, 344, 341, 1270
570, 1141, 1123, 1223, 1279
571, 308, 1173, 364, 1290
572, 802, 1179, 1354, 1423
573, 251, 349, 449, 1198
574, 1286, 1308, 1172, 1428
575, 733, 745, 735, 1171
576, 353, 339, 224, 1245
577, 589, 1371, 1197, 1383
578, 1135, 1151, 1243, 1310
579, 585, 615, 1191, 1238
580, 910, 1210, 909, 1317
581, 266, 1211, 267, 1318
582, 449, 519, 251, 1198
583, 921, 1200, 1052, 1258
584, 1070, 1036, 955, 1240
585, 1140, 1258, 1225, 1305
586, 308, 1263, 1173, 1290
587, 339, 1174, 224, 1245
588, 428, 590, 371, 1247
589, 873, 1187, 997, 1234
590, 1032, 1262, 1199, 1285
591, 429, 1153, 1247, 1453
592, 440, 652, 591, 1205
593, 242, 530, 354, 1248
594, 451, 1173, 310, 1263
595, 390, 371, 370, 1247
596, 1129, 1152, 1326, 1436
597, 639, 1241, 807, 1450
598, 1154, 1268, 978, 1278
599, 777, 1229, 1195, 1331
600, 609, 541, 1218, 1241
601, 972, 1065, 1064, 1314
602, 456, 754, 1218, 1260
603, 976, 978, 1268, 1278
604, 1149, 1126, 1238, 1371
605, 415, 246, 1188, 1237
606, 530, 442, 354, 1248
607, 858, 793, 857, 1160
608, 1036, 1194, 954, 1240
609, 1190, 1204, 1139, 1445
610, 859, 1382, 1147, 1404
611, 687, 921, 1213, 1258
612, 1124, 1204, 1190, 1445
613, 1191, 1238, 669, 1354
614, 282, 1288, 1163, 1291
615, 347, 888, 1019, 1219
616, 587, 1191, 1222, 1417
617, 1194, 954, 1240, 1360
618, 370, 1197, 1247, 1338
619, 591, 652, 720, 1205
620, 422, 318, 321, 1353
621, 471, 651, 1214, 1433
622, 664, 466, 796, 1256
623, 925, 1258, 1140, 1339
624, 356, 1158, 394, 1259
625, 682, 1012, 876, 1242
626, 369, 429, 1153, 1338
627, 585, 1238, 1191, 1421
628, 391, 1247, 455, 1453
629, 301, 303, 1189, 1283
630, 1225, 1258, 1130, 1305
631, 976, 1268, 1193, 1278
632, 592, 643, 1371, 1450
633, 945, 1360, 1179, 1362
634, 1172, 1286, 1155, 1308
635, 874, 992, 991, 1187
636, 873, 991, 997, 1187
637, 914, 916, 1052, 1258
638, 1141, 1201, 1142, 1309
639, 1209, 561, 1222, 1328
640, 751, 1182, 656, 1390
641, 773, 771, 1169, 1276
642, 308, 364, 1173, 1263
643, 751, 656, 723, 1390
644, 656, 1182, 723, 1390
645, 1153, 1194, 1150, 1416
646, 1126, 1194, 1153, 1338
647, 566, 562, 1282, 1321
648, 798, 1191, 669, 1354
649, 360, 243, 411, 1379
650, 1114, 1141, 1309, 1395
651, 834, 1095, 818, 1213
652, 822, 943, 655, 1212
653, 918, 1202, 1031, 1254
654, 362, 1177, 363, 1413
655, 673, 886, 857, 793
656, 419, 314, 421, 1312
657, 362, 450, 247, 1177
658, 614, 1241, 639, 1450
659, 778, 777, 1195, 1331
660, 1177, 1327, 1289, 1385
661, 276, 383, 1201, 1395
662, 797, 828, 1222, 1394
663, 951, 1360, 945, 1362
664, 1188, 1237, 510, 1432
665, 1125, 1229, 1402, 1416
666, 1153, 1191, 1126, 1421
667, 654, 609, 754, 1218
668, 491, 1296, 1207, 1375
669, 504, 1152, 506, 1311
670, 1001, 1167, 1002, 1234
671, 1071, 1240, 1144, 1414
672, 276, 260, 1223, 1295
673, 1225, 1393, 1145, 1412
674, 504, 442, 506, 1152
675, 1178, 1207, 1130, 1375
676, 739, 1269, 1243, 1391
677, 1140, 1258, 1305, 1426
678, 347, 1019, 234, 1219
679, 886, 1160, 928, 1274
680, 819, 704, 1213, 1284
681, 1207, 1296, 1130, 1375
682, 572, 250, 1189, 1357
683, 918, 1254, 926, 1274
684, 838, 1200, 687, 1284
685, 585, 1371, 1238, 1421
686, 912, 1258, 1225, 1407
687, 449, 1198, 349, 1246
688, 1001, 1167, 1234, 1330
689, 1125, 1312, 1221, 1332
690, 469, 797, 668, 1222
691, 747, 729, 660, 1159
692, 609, 654, 541, 1241
693, 1142, 1201, 1123, 1275
694, 1126, 1149, 1238, 1423
695, 380, 1224, 545, 1265
696, 821, 750, 664, 1164
697, 492, 597, 500, 1178
698, 504, 442, 1152, 1355
699, 763, 1190, 981, 1406
700, 380, 437, 545, 1224
701, 597, 287, 443, 1216
702, 858, 857, 724, 1160
703, 415, 1237, 1188, 1346
704, 548, 1324, 547, 1389
705, 515, 1171, 1235, 1350
706, 949, 1262, 1032, 1285
707, 987, 1147, 1058, 1271
708, 892, 978, 1154, 1353
709, 1209, 1321, 1180, 1430
710, 1102, 1266, 817, 1297
711, 651, 760, 581, 1214
712, 961, 1204, 980, 1268
713, 715, 1260, 1214, 1294
714, 974, 1278, 1195, 1314
715, 553, 1172, 593, 1272
716, 492, 1178, 500, 1375
717, 939, 927, 868, 1174
718, 265, 1318, 1161, 1363
719, 1161, 1317, 908, 1363
720, 1197, 1371, 1149, 1383
721, 987, 1058, 1147, 1382
722, 1289, 1327, 1166, 1385
723, 373, 1240, 1040, 1414
724, 660, 1244, 1159, 1347
725, 381, 1185, 292, 1288
726, 1178, 1207, 271, 1393
727, 1125, 1332, 1221, 1416
728, 796, 1165, 841, 1256
729, 844, 1209, 1222, 1331
730, 389, 473, 223, 1217
731, 1018, 1158, 893, 1259
732, 370, 1197, 1338, 1418
733, 587, 1191, 469, 1222
734, 644, 457, 637, 1230
735, 806, 878, 1004, 1315
736, 1020, 1179, 945, 1360
737, 953, 1020, 945, 1360
738, 688, 924, 711, 1335
739, 598, 518, 1198, 1253
740, 508, 446, 1188, 1248
741, 634, 445, 1181, 1337
742, 1189, 1283, 303, 1337
743, 925, 1140, 1050, 1339
744, 971, 889, 977, 1175
745, 771, 775, 1169, 1315
746, 1171, 1350, 1128, 1377
747, 589, 592, 1371, 1383
748, 793, 858, 675, 1249
749, 304, 1287, 1204, 1378
750, 639, 807, 686, 1450
751, 881, 824, 1236, 1449
752, 447, 1196, 514, 1237
753, 555, 557, 1165, 1272
754, 673, 795, 850, 1254
755, 557, 1165, 466, 1446
756, 429, 1247, 391, 1453
757, 1177, 1246, 247, 1327
758, 745, 662, 735, 1239
759, 219, 282, 297, 1163
760, 922, 1049, 1141, 1267
761, 341, 1270, 1174, 1326
762, 1174, 1245, 1129, 1372
763, 1163, 1224, 1134, 1291
764, 669, 1238, 799, 1354
765, 912, 1225, 1258, 1340
766, 340, 1270, 341, 1326
767, 391, 455, 582, 1453
768, 288, 1161, 267, 1250
769, 1242, 1273, 1061, 1447
770, 1199, 1262, 1162, 1285
771, 695, 815, 1203, 1266
772, 910, 1161, 938, 1250
773, 877, 1055, 1169, 1315
774, 863, 957, 935, 1163
775, 555, 1272, 1165, 1307
776, 1122, 1242, 1169, 1256
777, 590, 1197, 584, 1247
778, 469, 668, 560, 1222
779, 1135, 1243, 1164, 1269
780, 1209, 1331, 779, 1381
781, 1150, 1402, 1229, 1416
782, 877, 1056, 1055, 1315
783, 548, 1155, 1324, 1389
784, 887, 1062, 1011, 1442
785, 1071, 1144, 951, 1414
786, 898, 1051, 924, 1335
787, 818, 1095, 1085, 1213
788, 1138, 1321, 1209, 1430
789, 330, 1280, 1196, 1325
790, 1129, 1245, 1174, 1326
791, 1130, 1305, 1258, 1426
792, 1194, 954, 1360, 1409
793, 531, 1177, 606, 1246
794, 303, 301, 1189, 1337
795, 278, 1184, 426, 1361
796, 1031, 1202, 795, 1254
797, 1050, 1302, 1140, 1407
798, 1047, 1026, 1095, 1213
799, 677, 806, 1004, 1315
800, 958, 1204, 323, 1287
801, 660, 1159, 729, 1347
802, 323, 958, 894, 1204
803, 1182, 1129, 1311, 1319
804, 249, 362, 363, 1413
805, 939, 1227, 919, 1274
806, 961, 959, 980, 1204
807, 1176, 1296, 496, 1320
808, 1007, 1174, 929, 1245
809, 984, 1166, 1271, 1447
810, 548, 467, 547, 1324
811, 553, 593, 461, 1272
812, 587, 1222, 613, 1417
813, 261, 1223, 260, 1295
814, 337, 1245, 228, 1369
815, 438, 645, 1184, 1361
816, 1204, 1283, 1189, 1445
817, 687, 1200, 921, 1258
818, 1126, 1150, 1236, 1354
819, 335, 337, 228, 1369
820, 1120, 1103, 1297, 1364
821, 984, 1271, 1166, 1299
822, 863, 1163, 935, 1250
823, 1161, 1134, 1303, 1429
824, 923, 1203, 708, 1344
825, 667, 568, 1209, 1282
826, 775, 877, 1169, 1315
827, 798, 669, 799, 1354
828, 587, 469, 613, 1222
829, 310, 249, 364, 1173
830, 351, 1177, 247, 1327
831, 669, 640, 588, 1238
832, 772, 841, 842, 1272
833, 1220, 1402, 1332, 1416
834, 1144, 1126, 1240, 1360
835, 1136, 1224, 1163, 1288
836, 361, 1233, 1170, 1400
837, 282, 1163, 219, 1250
838, 358, 345, 232, 1166
839, 1150, 1126, 1236, 1409
840, 516, 1253, 1196, 1379
841, 772, 1165, 841, 1272
842, 584, 1247, 1197, 1371
843, 984, 985, 1166, 1447
844, 535, 1185, 238, 1265
845, 372, 1240, 373, 1414
846, 481, 1184, 1275, 1351
847, 1101, 1267, 1114, 1300
848, 738, 737, 1239, 1391
849, 313, 245, 319, 1180
850, 1142, 1297, 1103, 1364
851, 385, 1207, 1176, 1305
852, 665, 1165, 559, 1272
853, 976, 979, 1193, 1268
854, 876, 830, 682, 1242
855, 318, 320, 321, 1283
856, 398, 1185, 296, 1334
857, 417, 358, 357, 1289
858, 781, 1209, 779, 1381
859, 745, 661, 533, 1235
860, 1177, 1289, 363, 1413
861, 1159, 1244, 648, 1386
862, 984, 1166, 985, 1299
863, 465, 794, 1208, 1282
864, 384, 1365, 1176, 1422
865, 891, 985, 1013, 1166
866, 773, 771, 775, 1169
867, 971, 1175, 975, 1278
868, 695, 707, 815, 1266
869, 536, 538, 439, 1185
870, 1148, 1233, 326, 1280
871, 509, 1159, 648, 1386
872, 572, 300, 250, 1357
873, 653, 692, 1206, 1252
874, 1134, 1161, 1250, 1291
875, 733, 1235, 1171, 1377
876, 1171, 517, 1239, 1253
877, 471, 651, 581, 1214
878, 1050, 1140, 925, 1407
879, 885, 943, 822, 1212
880, 440, 652, 1205, 1257
881, 1131, 1241, 1383, 1419
882, 892, 1353, 1154, 1376
883, 324, 320, 248, 1181
884, 898, 1203, 1051, 1335
885, 505, 504, 506, 1311
886, 788, 547, 1324, 1389
887, 528, 510, 446, 1188
888, 1225, 1258, 1140, 1407
889, 845, 779, 781, 1209
890, 980, 962, 1190, 1356
891, 1126, 1144, 1240, 1418
892, 910, 1161, 908, 1363
893, 795, 1202, 850, 1254
894, 1114, 1267, 1141, 1300
895, 906, 1030, 922, 1267
896, 700, 497, 658, 1226
897, 1135, 1166, 1271, 1299
898, 710, 921, 900, 1213
899, 1123, 1156, 1223, 1452
900, 505, 644, 503, 1261
901, 557, 555, 1165, 1307
902, 1171, 515, 1253, 1350
903, 267, 265, 1161, 1363
904, 1158, 1259, 1018, 1273
905, 1157, 1271, 1058, 1404
906, 1124, 1190, 1268, 1323
907, 1155, 1124, 1277, 1324
908, 665, 841, 1165, 1272
909, 1196, 1253, 515, 1350
910, 654, 1218, 756, 1241
911, 975, 1154, 978, 1278
912, 508, 1248, 1188, 1386
913, 1331, 1394, 1229, 1416
914, 565, 633, 563, 1180
915, 676, 874, 991, 1187
916, 676, 991, 873, 1187
917, 389, 594, 473, 1217
918, 1142, 1123, 1252, 1275
919, 323, 1204, 304, 1287
920, 981, 1190, 683, 1323
921, 951, 1144, 1362, 1414
922, 892, 355, 1353, 1376
923, 1146, 1284, 706, 1408
924, 670, 1162, 1345, 1434
925, 1130, 1207, 1178, 1393
926, 1166, 1299, 1135, 1327
927, 976, 979, 1066, 1193
928, 1139, 1287, 1204, 1356
929, 1125, 1220, 1312, 1332
930, 649, 817, 1099, 1266
931, 861, 1028, 1049, 1267
932, 1125, 1402, 1220, 1416
933, 627, 1226, 1375, 1399
934, 1230, 1261, 1182, 1390
935, 1155, 1281, 1124, 1324
936, 665, 842, 841, 1272
937, 871, 1193, 1066, 1323
938, 1161, 1134, 1250, 1303
939, 557, 466, 605, 1446
940, 788, 547, 467, 1324
941, 1135, 1271, 1170, 1299
942, 231, 376, 361, 1170
943, 326, 1148, 331, 1442
944, 906, 1203, 1030, 1267
945, 1226, 1329, 1143, 1399
946, 221, 377, 1009, 1228
947, 1179, 1360, 1144, 1362
948, 237, 365, 1070, 1439
949, 750, 1164, 821, 1269
950, 975, 1278, 1175, 1376
951, 1202, 1340, 915, 1454
952, 237, 1070, 955, 1240
953, 1123, 1223, 1279, 1452
954, 724, 1319, 1160, 1390
955, 579, 457, 751, 1230
956, 375, 244, 306, 1192
957, 808, 874, 1187, 1232
958, 572, 1189, 250, 1337
959, 913, 1340, 1410, 1412
960, 873, 752, 1187, 1234
961, 774, 841, 772, 1165
962, 967, 1264, 1169, 1315
963, 245, 311, 575, 1221
964, 751, 657, 579, 1230
965, 995, 1170, 1059, 1388
966, 889, 969, 348, 1220
967, 1135, 1243, 1269, 1310
968, 868, 929, 1007, 1174
969, 1149, 1383, 1241, 1419
970, 1153, 1332, 369, 1338
971, 683, 763, 764, 1190
972, 1176, 1207, 496, 1296
973, 1206, 1335, 1183, 1440
974, 666, 1172, 593, 1389
975, 925, 1258, 912, 1407
976, 830, 680, 743, 1157
977, 1135, 1299, 1170, 1373
978, 682, 773, 1169, 1242
979, 1216, 286, 1270, 1367
980, 1051, 905, 1069, 1279
981, 1207, 1305, 271, 1393
982, 441, 614, 639, 1450
983, 882, 1345, 1162, 1434
984, 527, 1206, 748, 1257
985, 1022, 1345, 812, 1358
986, 508, 446, 510, 1188
987, 824, 853, 1236, 1449
988, 1135, 1269, 1164, 1374
989, 1189, 1378, 1204, 1445
990, 510, 1237, 512, 1432
991, 1049, 1267, 1028, 1300
992, 456, 609, 638, 1218
993, 1145, 1410, 1340, 1412
994, 576, 747, 660, 1159
995, 764, 1308, 1190, 1406
996, 789, 785, 681, 1193
997, 975, 1175, 971, 1376
998, 781, 1282, 1209, 1381
999, 1130, 1305, 1207, 1393
1000, 282, 1163, 1288, 1349
1001, 834, 710, 1047, 1213
1002, 489, 277, 475, 1251
1003, 682, 820, 773, 1242
1004, 584, 590, 589, 1197
1005, 1153, 1332, 1194, 1416
1006, 444, 597, 492, 1178
1007, 232, 358, 1166, 1259
1008, 629, 556, 1173, 1263
1009, 1123, 1335, 1206, 1440
1010, 1033, 1168, 1245, 1316
1011, 405, 1365, 1302, 1407
1012, 381, 294, 292, 1185
1013, 374, 1010, 229, 1231
1014, 858, 1249, 1160, 1319
1015, 737, 738, 739, 1391
1016, 447, 526, 514, 1196
1017, 794, 846, 659, 1208
1018, 418, 1188, 352, 1248
1019, 1173, 1263, 1133, 1290
1020, 739, 740, 1243, 1269
1021, 597, 443, 500, 1216
1022, 340, 1152, 1270, 1326
1023, 1177, 1289, 1122, 1385
1024, 845, 1209, 781, 1282
1025, 466, 557, 559, 1165
1026, 415, 409, 246, 1237
1027, 793, 675, 1021, 1249
1028, 1013, 1166, 985, 1259
1029, 1183, 1335, 1206, 1352
1030, 253, 372, 373, 1414
1031, 927, 939, 919, 1274
1032, 1150, 1229, 1394, 1416
1033, 1122, 1242, 1385, 1447
1034, 1140, 1339, 1213, 1396
1035, 1084, 1095, 1026, 1213
1036, 784, 778, 678, 1195
1037, 848, 850, 795, 1202
1038, 670, 1345, 882, 1434
1039, 895, 1059, 995, 1170
1040, 745, 460, 662, 1239
1041, 310, 1173, 364, 1263
1042, 1139, 1308, 1190, 1445
1043, 806, 769, 1186, 1315
1044, 664, 796, 835, 1256
1045, 922, 1141, 1049, 1415
1046, 1055, 967, 990, 1169
1047, 508, 1188, 510, 1386
1048, 943, 945, 1020, 1179
1049, 1134, 1211, 1291, 1342
1050, 425, 1216, 286, 1270
1051, 592, 643, 586, 1371
1052, 764, 1190, 1281, 1323
1053, 1133, 1263, 1173, 1307
1054, 589, 584, 1197, 1371
1055, 892, 1154, 978, 1376
1056, 1114, 1300, 1141, 1395
1057, 924, 883, 711, 1183
1058, 813, 1162, 755, 1294
1059, 598, 1198, 520, 1310
1060, 935, 1250, 1163, 1303
1061, 1140, 1302, 1050, 1339
1062, 598, 518, 520, 1198
1063, 265, 1156, 1318, 1363
1064, 291, 292, 221, 1199
1065, 315, 392, 312, 1221
1066, 850, 848, 719, 1202
1067, 667, 791, 845, 1209
1068, 282, 1163, 1250, 1291
1069, 306, 1192, 244, 1263
1070, 1131, 1397, 1228, 1419
1071, 978, 1154, 975, 1376
1072, 344, 225, 939, 1227
1073, 1125, 1229, 1314, 1402
1074, 1182, 1261, 1152, 1436
1075, 1158, 1122, 1259, 1273
1076, 996, 1322, 1062, 1442
1077, 254, 897, 1225, 1407
1078, 1184, 1275, 1206, 1440
1079, 1122, 1158, 1259, 1289
1080, 822, 655, 856, 1212
1081, 260, 261, 220, 1223
1082, 864, 904, 903, 1223
1083, 925, 1140, 1258, 1407
1084, 702, 718, 1329, 1399
1085, 1125, 1220, 1332, 1416
1086, 438, 239, 278, 1184
1087, 1018, 1158, 1264, 1333
1088, 974, 1195, 1065, 1314
1089, 392, 1221, 315, 1332
1090, 1103, 1142, 1266, 1297
1091, 1166, 1122, 1289, 1385
1092, 1131, 1383, 1217, 1419
1093, 850, 1202, 719, 1254
1094, 1146, 1213, 1258, 1284
1095, 1033, 1168, 1006, 1245
1096, 718, 1380, 1329, 1399
1097, 869, 939, 225, 1227
1098, 997, 1313, 1187, 1322
1099, 536, 538, 1185, 1293
1100, 1217, 1397, 1131, 1419
1101, 322, 304, 1204, 1378
1102, 535, 536, 439, 1185
1103, 1202, 1127, 1274, 1410
1104, 1224, 1288, 283, 1291
1105, 1153, 1126, 1247, 1421
1106, 881, 1015, 824, 1449
1107, 315, 1221, 312, 1312
1108, 358, 1299, 1166, 1327
1109, 261, 1156, 265, 1363
1110, 230, 1011, 361, 1233
1111, 1229, 1331, 825, 1394
1112, 996, 1148, 1322, 1442
1113, 271, 399, 226, 1178
1114, 510, 528, 512, 1237
1115, 559, 1165, 557, 1272
1116, 1135, 1327, 1299, 1373
1117, 878, 1060, 1004, 1315
1118, 1163, 1288, 1224, 1291
1119, 315, 1221, 1312, 1332
1120, 1122, 1166, 1259, 1273
1121, 1302, 1365, 1140, 1407
1122, 1141, 1300, 1049, 1415
1123, 1167, 1249, 860, 1347
1124, 1142, 1252, 1203, 1266
1125, 903, 1223, 904, 1452
1126, 694, 1335, 1183, 1352
1127, 420, 1248, 1152, 1326
1128, 741, 1243, 1147, 1343
1129, 1216, 1270, 425, 1355
1130, 1083, 599, 1076, 1320
1131, 779, 1331, 778, 1381
1132, 711, 1183, 849, 1335
1133, 1210, 1303, 1134, 1429
1134, 922, 1223, 903, 1279
1135, 585, 588, 615, 1238
1136, 1240, 1414, 372, 1418
1137, 716, 715, 1215, 1294
1138, 273, 1207, 385, 1305
1139, 1183, 1279, 1069, 1452
1140, 340, 1270, 1152, 1355
1141, 778, 1331, 1195, 1381
1142, 299, 223, 390, 1197
1143, 653, 691, 692, 1252
1144, 915, 1340, 1202, 1410
1145, 1210, 1134, 1303, 1358
1146, 694, 1183, 849, 1352
1147, 906, 1051, 1203, 1279
1148, 645, 1184, 481, 1351
1149, 1140, 1305, 1225, 1407
1150, 735, 1171, 1239, 1387
1151, 715, 714, 1215, 1306
1152, 623, 1176, 496, 1320
1153, 935, 1262, 936, 1303
1154, 555, 559, 557, 1272
1155, 996, 1313, 997, 1322
1156, 895, 1042, 983, 1170
1157, 1142, 1364, 499, 1384
1158, 1133, 1192, 1263, 1420
1159, 1181, 1298, 320, 1366
1160, 992, 997, 1187, 1322
1161, 985, 1259, 1166, 1447
1162, 1152, 1248, 506, 1311
1163, 606, 1246, 1177, 1374
1164, 762, 655, 823, 1179
1165, 1126, 1153, 1247, 1338
1166, 724, 858, 1160, 1319
1167, 624, 499, 1364, 1384
1168, 952, 951, 1071, 1360
1169, 1134, 1304, 1211, 1342
1170, 316, 1298, 1175, 1312
1171, 340, 420, 1152, 1326
1172, 1122, 1273, 1242, 1447
1173, 980, 1073, 1268, 1323
1174, 1080, 1339, 1097, 1396
1175, 1166, 1122, 1259, 1289
1176, 447, 246, 359, 1237
1177, 481, 1275, 480, 1351
1178, 797, 828, 668, 1222
1179, 1035, 872, 1167, 1249
1180, 583, 1247, 1421, 1453
1181, 254, 268, 897, 1407
1182, 394, 1259, 1158, 1289
1183, 1036, 954, 955, 1240
1184, 1139, 1378, 1287, 1451
1185, 434, 389, 223, 1217
1186, 1104, 1103, 1105, 1266
1187, 1156, 1363, 904, 1452
1188, 1133, 1172, 1272, 1427
1189, 908, 904, 1363, 1452
1190, 1136, 1163, 1215, 1262
1191, 1080, 1213, 1339, 1396
1192, 1164, 1256, 821, 1437
1193, 942, 904, 1156, 1363
1194, 290, 1156, 261, 1363
1195, 629, 1173, 451, 1263
1196, 1182, 1319, 723, 1390
1197, 764, 1281, 766, 1323
1198, 598, 1239, 1151, 1391
1199, 1138, 1282, 1209, 1321
1200, 242, 354, 420, 1248
1201, 728, 1167, 860, 1347
1202, 285, 1367, 1393, 1412
1203, 864, 902, 220, 1223
1204, 929, 1245, 1174, 1372
1205, 921, 870, 1052, 1200
1206, 352, 446, 242, 1248
1207, 480, 1275, 1206, 1351
1208, 347, 234, 413, 1219
1209, 1132, 1151, 1239, 1343
1210, 708, 923, 898, 1203
1211, 1018, 968, 1158, 1333
1212, 1173, 1263, 556, 1307
1213, 913, 1410, 917, 1412
1214, 456, 1218, 638, 1260
1215, 447, 528, 246, 1237
1216, 1133, 1263, 1307, 1420
1217, 441, 639, 686, 1450
1218, 936, 1262, 1215, 1303
1219, 1148, 1128, 1231, 1313
1220, 756, 1241, 1218, 1301
1221, 1138, 1298, 1154, 1438
1222, 301, 322, 303, 1283
1223, 1127, 1261, 1230, 1390
1224, 1195, 1331, 1209, 1381
1225, 960, 1356, 1287, 1441
1226, 1139, 1192, 1286, 1378
1227, 960, 959, 1287, 1356
1228, 972, 974, 1065, 1314
1229, 1128, 1148, 1231, 1325
1230, 1190, 1308, 1139, 1356
1231, 581, 1214, 760, 1260
1232, 520, 1198, 449, 1246
1233, 891, 985, 1166, 1299
1234, 346, 1299, 358, 1327
1235, 1021, 1249, 930, 1372
1236, 772, 1165, 1272, 1276
1237, 1040, 1240, 1071, 1414
1238, 1147, 1243, 1151, 1343
1239, 316, 1175, 421, 1312
1240, 530, 242, 446, 1248
1241, 724, 723, 1319, 1390
1242, 723, 1182, 725, 1319
1243, 819, 704, 687, 1213
1244, 670, 829, 1162, 1434
1245, 320, 1181, 324, 1337
1246, 1202, 1127, 1254, 1274
1247, 311, 454, 575, 1221
1248, 704, 838, 687, 1284
1249, 375, 452, 1192, 1357
1250, 1018, 1264, 966, 1333
1251, 443, 502, 1216, 1355
1252, 1129, 1152, 1248, 1326
1253, 249, 580, 362, 1413
1254, 872, 1002, 1001, 1167
1255, 481, 1275, 1184, 1361
1256, 1001, 1234, 998, 1330
1257, 979, 1193, 1268, 1323
1258, 969, 236, 348, 1220
1259, 1209, 1331, 1195, 1430
1260, 892, 355, 227, 1353
1261, 1200, 914, 1258, 1340
1262, 1001, 1002, 998, 1234
1263, 1152, 1129, 1248, 1311
1264, 1138, 1193, 1278, 1381
1265, 1049, 1141, 1267, 1300
1266, 1213, 1284, 1146, 1408
1267, 1160, 1129, 1249, 1372
1268, 1133, 1264, 1186, 1315
1269, 253, 373, 1040, 1414
1270, 992, 996, 997, 1322
1271, 417, 1289, 1177, 1327
1272, 450, 606, 531, 1177
1273, 1144, 1228, 1397, 1419
1274, 1126, 1194, 1360, 1409
1275, 958, 959, 1204, 1287
1276, 797, 669, 798, 1191
1277, 743, 1242, 1157, 1437
1278, 695, 1252, 1203, 1335
1279, 1172, 1133, 1272, 1420
1280, 272, 1367, 1178, 1393
1281, 806, 677, 769, 1315
1282, 1130, 1258, 1225, 1340
1283, 1133, 1272, 1276, 1427
1284, 1146, 1292, 837, 1359
1285, 1011, 895, 361, 1233
1286, 1134, 1215, 1163, 1303
1287, 276, 1395, 1141, 1415
1288, 274, 1140, 1305, 1365
1289, 1210, 1306, 1134, 1358
1290, 1135, 1310, 1269, 1374
1291, 802, 1236, 803, 1354
1292, 518, 1198, 1253, 1379
1293, 787, 1155, 788, 1324
1294, 787, 767, 788, 1155
1295, 764, 1190, 763, 1406
1296, 1195, 1381, 1209, 1430
1297, 429, 369, 1153, 1453
1298, 1123, 1440, 1156, 1452
1299, 988, 1061, 1273, 1447
1300, 468, 738, 1239, 1391
1301, 268, 911, 897, 1407
1302, 1196, 1237, 416, 1325
1303, 678, 776, 1005, 1229
1304, 523, 1255, 1164, 1374
1305, 536, 1185, 535, 1265
1306, 1287, 1378, 305, 1451
1307, 1124, 1268, 1193, 1323
1308, 1196, 1280, 411, 1379
1309, 761, 1241, 1392, 1450
1310, 418, 415, 352, 1188
1311, 220, 902, 259, 1223
1312, 481, 1184, 645, 1361
1313, 437, 1224, 379, 1342
1314, 715, 717, 1260, 1294
1315, 437, 544, 545, 1224
1316, 757, 755, 813, 1162
1317, 979, 1066, 1193, 1323
1318, 539, 638, 541, 1218
1319, 629, 630, 556, 1263
1320, 905, 1069, 1279, 1452
1321, 865, 948, 1032, 1199
1322, 1139, 1287, 1219, 1451
1323, 1156, 1123, 1223, 1295
1324, 964, 1287, 1219, 1441
1325, 706, 1146, 837, 1359
1326, 287, 1216, 272, 1367
1327, 663, 1269, 740, 1391
1328, 1124, 1154, 1268, 1283
1329, 1133, 1186, 1276, 1315
1330, 473, 589, 590, 1197
1331, 221, 1009, 865, 1228
1332, 1187, 1232, 992, 1322
1333, 491, 493, 1296, 1375
1334, 932, 910, 933, 1303
1335, 443, 1216, 388, 1355
1336, 732, 1187, 1234, 1377
1337, 1127, 1380, 1230, 1401
1338, 733, 1171, 734, 1377
1339, 339, 341, 1174, 1326
1340, 347, 888, 1219, 1333
1341, 1080, 1213, 1396, 1408
1342, 739, 740, 1269, 1391
1343, 336, 415, 418, 1188
1344, 1287, 1356, 1219, 1441
1345, 1215, 1262, 1163, 1303
1346, 937, 935, 1163, 1262
1347, 548, 1286, 1155, 1389
1348, 276, 263, 260, 1295
1349, 836, 817, 1266, 1297
1350, 775, 682, 773, 1169
1351, 361, 1170, 376, 1400
1352, 1083, 599, 1320, 1422
1353, 1178, 1375, 1130, 1405
1354, 1103, 1266, 1102, 1297
1355, 598, 647, 1151, 1310
1356, 282, 1288, 284, 1349
1357, 516, 515, 1196, 1253
1358, 313, 1298, 316, 1312
1359, 928, 1160, 1021, 1372
1360, 479, 1206, 480, 1275
1361, 285, 1393, 270, 1412
1362, 1058, 1003, 1157, 1404
1363, 1130, 1375, 1226, 1405
1364, 787, 1281, 1155, 1324
1365, 935, 1163, 957, 1349
1366, 1171, 734, 1377, 1387
1367, 1140, 1258, 1213, 1339
1368, 982, 892, 227, 1353
1369, 514, 1237, 1196, 1350
1370, 1206, 1275, 1184, 1351
1371, 734, 1171, 735, 1387
1372, 733, 735, 734, 1171
1373, 1219, 1287, 1139, 1356
1374, 1130, 1225, 1393, 1405
1375, 1188, 1248, 418, 1369
1376, 1020, 881, 803, 1236
1377, 1129, 1160, 1249, 1319
1378, 747, 1159, 463, 1235
1379, 1229, 1394, 825, 1449
1380, 520, 1198, 1246, 1310
1381, 1127, 1254, 1230, 1380
1382, 958, 959, 894, 1204
1383, 837, 1146, 706, 1408
1384, 345, 1166, 358, 1299
1385, 755, 1218, 1260, 1294
1386, 886, 1021, 928, 1160
1387, 1120, 1105, 1103, 1309
1388, 1145, 1393, 1367, 1412
1389, 848, 1202, 795, 1454
1390, 1230, 1254, 1127, 1390
1391, 1174, 1270, 1227, 1274
1392, 443, 532, 502, 1355
1393, 1173, 1122, 1255, 1413
1394, 634, 1321, 1181, 1366
1395, 396, 349, 1198, 1246
1396, 1131, 1301, 1241, 1419
1397, 918, 1031, 926, 1254
1398, 1230, 1380, 1254, 1390
1399, 280, 267, 279, 1291
1400, 935, 937, 1163, 1349
1401, 1099, 1102, 1103, 1266
1402, 1136, 1215, 1214, 1294
1403, 785, 1193, 789, 1323
1404, 964, 960, 1287, 1441
1405, 1006, 1033, 890, 1168
1406, 1085, 1095, 1084, 1213
1407, 837, 1292, 1146, 1408
1408, 1079, 1320, 1146, 1396
1409, 739, 1243, 741, 1343
1410, 355, 422, 1353, 1376
1411, 1301, 1392, 1241, 1419
1412, 370, 1247, 371, 1338
1413, 479, 472, 480, 1206
1414, 653, 692, 693, 1206
1415, 440, 1205, 486, 1257
1416, 234, 1219, 1019, 1287
1417, 1192, 1133, 1263, 1290
1418, 297, 1163, 282, 1349
1419, 736, 1232, 1187, 1387
1420, 1010, 374, 890, 1231
1421, 886, 926, 1254, 1274
1422, 1155, 1308, 1139, 1445
1423, 1126, 1194, 1240, 1360
1424, 1037, 981, 683, 1323
1425, 1199, 1228, 1131, 1334
1426, 673, 1031, 795, 1254
1427, 811, 1147, 859, 1382
1428, 1132, 1253, 1198, 1280
1429, 417, 1177, 351, 1327
1430, 1329, 1380, 1143, 1399
1431, 1000, 890, 1033, 1168
1432, 1219, 1356, 1139, 1441
1433, 276, 383, 263, 1201
1434, 1149, 1392, 1241, 1450
1435, 699, 1205, 652, 1257
1436, 1176, 1305, 1140, 1365
1437, 997, 1234, 1187, 1313
1438, 389, 296, 594, 1217
1439, 309, 394, 233, 1158
1440, 1202, 1380, 1127, 1401
1441, 1173, 1289, 1122, 1413
1442, 548, 1277, 550, 1324
1443, 614, 1383, 1241, 1450
1444, 1189, 1277, 1124, 1283
1445, 1202, 719, 1254, 1380
1446, 1123, 1252, 1206, 1335
1447, 1206, 1275, 1123, 1440
1448, 1184, 1123, 1275, 1440
1449, 366, 1332, 1194, 1338
1450, 629, 451, 630, 1263
1451, 450, 1177, 362, 1413
1452, 865, 1032, 956, 1199
1453, 975, 1154, 1278, 1376
1454, 1195, 1278, 1175, 1314
1455, 924, 1069, 883, 1183
1456, 1124, 1281, 1190, 1323
1457, 239, 426, 278, 1184
1458, 580, 450, 362, 1413
1459, 1135, 1243, 1151, 1341
1460, 1139, 1286, 1189, 1378
1461, 351, 362, 247, 1177
1462, 506, 442, 530, 1248
1463, 727, 1244, 660, 1347
1464, 1079, 1292, 1146, 1320
1465, 609, 541, 638, 1218
1466, 985, 989, 1259, 1447
1467, 1244, 1311, 1129, 1319
1468, 1187, 1377, 1171, 1448
1469, 336, 1188, 418, 1369
1470, 1173, 1255, 1122, 1446
1471, 1135, 1271, 1166, 1385
1472, 392, 1221, 1332, 1453
1473, 489, 1201, 255, 1251
1474, 1145, 1393, 1225, 1405
1475, 835, 821, 1256, 1437
1476, 1167, 1035, 1249, 1316
1477, 634, 1337, 1181, 1455
1478, 607, 1224, 1304, 1431
1479, 937, 1262, 1163, 1349
1480, 1173, 1290, 1133, 1398
1481, 996, 1148, 1313, 1322
1482, 1125, 1331, 1229, 1416
1483, 819, 1284, 1213, 1408
1484, 882, 1162, 949, 1434
1485, 724, 723, 725, 1319
1486, 927, 1174, 1274, 1372
1487, 232, 357, 358, 1259
1488, 313, 1180, 1298, 1312
1489, 634, 570, 1337, 1455
1490, 317, 320, 1298, 1366
1491, 1177, 1122, 1289, 1413
1492, 406, 1207, 273, 1305
1493, 1214, 1224, 1136, 1431
1494, 1135, 1147, 1243, 1341
1495, 739, 663, 740, 1391
1496, 309, 1158, 233, 1333
1497, 1133, 1307, 1272, 1420
1498, 683, 1190, 764, 1323
1499, 1126, 1236, 1179, 1354
1500, 1219, 1139, 1428, 1441
1501, 1198, 1310, 1151, 1341
1502, 1180, 1328, 1209, 1430
1503, 375, 1192, 302, 1357
1504, 872, 679, 1002, 1167
1505, 1124, 1193, 1281, 1323
1506, 1143, 1230, 1380, 1401
1507, 1122, 1165, 1255, 1256
1508, 1236, 1409, 1016, 1449
1509, 996, 1313, 1148, 1442
1510, 251, 396, 349, 1198
1511, 1208, 1282, 846, 1435
1512, 593, 1172, 553, 1389
1513, 425, 286, 342, 1270
1514, 1167, 1001, 1316, 1330
1515, 624, 1364, 1297, 1384
1516, 1356, 1428, 1139, 1441
1517, 1131, 1228, 1199, 1285
1518, 635, 1321, 634, 1366
1519, 1254, 1380, 722, 1390
1520, 1139, 1286, 1155, 1445
1521, 622, 1255, 1177, 1413
1522, 1124, 1155, 1277, 1445
1523, 1224, 1265, 283, 1288
1524, 961, 894, 1204, 1353
1525, 841, 1165, 774, 1256
1526, 1177, 1255, 1122, 1413
1527, 1166, 1122, 1385, 1447
1528, 510, 1386, 1188, 1432
1529, 977, 971, 1175, 1376
1530, 250, 1189, 301, 1337
1531, 1268, 1283, 1154, 1353
1532, 323, 322, 304, 1204
1533, 1146, 1284, 1258, 1426
1534, 1089, 1365, 1176, 1396
1535, 1133, 1186, 1264, 1441
1536, 376, 1170, 231, 1299
1537, 292, 1288, 1199, 1349
1538, 1208, 1435, 1281, 1438
1539, 715, 760, 1214, 1260
1540, 898, 924, 688, 1335
1541, 1126, 1354, 1179, 1423
1542, 967, 1056, 1264, 1315
1543, 486, 1257, 1205, 1425
1544, 637, 1261, 1230, 1368
1545, 336, 415, 1188, 1346
1546, 1058, 1157, 986, 1271
1547, 1208, 1281, 1124, 1438
1548, 1277, 1283, 1189, 1337
1549, 1130, 1393, 1178, 1405
1550, 1166, 1273, 1122, 1447
1551, 1125, 1314, 1220, 1402
1552, 1201, 1275, 482, 1361
1553, 688, 711, 839, 1335
1554, 721, 722, 1380, 1390
1555, 1058, 1003, 1057, 1157
1556, 1152, 1261, 504, 1355
1557, 974, 1065, 1195, 1336
1558, 1192, 1357, 1286, 1378
1559, 406, 273, 271, 1305
1560, 1154, 1278, 1138, 1438
1561, 545, 1224, 544, 1265
1562, 687, 921, 710, 1213
1563, 1205, 1257, 699, 1424
1564, 336, 1346, 1188, 1369
1565, 989, 1018, 1259, 1273
1566, 274, 1305, 1140, 1407
1567, 892, 982, 978, 1353
1568, 679, 1002, 1167, 1234
1569, 1143, 1226, 1375, 1405
1570, 1193, 1336, 1278, 1381
1571, 1088, 1176, 1089, 1365
1572, 1211, 1425, 1304, 1429
1573, 1090, 1339, 1365, 1396
1574, 331, 1148, 1325, 1442
1575, 882, 949, 1162, 1345
1576, 1143, 1375, 1226, 1399
1577, 523, 525, 1255, 1374
1578, 308, 310, 364, 1263
1579, 1146, 1292, 1079, 1408
1580, 1079, 1396, 1146, 1408
1581, 413, 305, 1219, 1287
1582, 1318, 1425, 1351, 1444
1583, 1133, 1165, 1272, 1307
1584, 1214, 1215, 1134, 1306
1585, 1352, 1424, 1317, 1443
1586, 634, 635, 567, 1321
1587, 1133, 1272, 1165, 1276
1588, 573, 1208, 659, 1324
1589, 549, 593, 553, 1389
1590, 1193, 1268, 1154, 1278
1591, 393, 1204, 894, 1353
1592, 783, 846, 1282, 1435
1593, 549, 553, 1172, 1389
1594, 880, 1005, 776, 1229
1595, 651, 715, 760, 1214
1596, 1151, 1243, 1147, 1341
1597, 1124, 1154, 1283, 1438
1598, 404, 1395, 276, 1415
1599, 302, 375, 306, 1192
1600, 520, 519, 449, 1198
1601, 562, 1209, 568, 1282
1602, 976, 1193, 1066, 1336
1603, 849, 1183, 694, 1335
1604, 385, 1305, 1176, 1365
1605, 696, 694, 849, 1352
1606, 569, 465, 1208, 1282
1607, 1132, 1233, 1322, 1448
1608, 1136, 1163, 1262, 1288
1609, 483, 645, 481, 1351
1610, 459, 660, 749, 1244
1611, 313, 1180, 319, 1366
1612, 366, 369, 1332, 1338
1613, 339, 340, 341, 1326
1614, 1131, 1241, 1293, 1383
1615, 1189, 1277, 1155, 1445
1616, 264, 1318, 1184, 1444
1617, 719, 722, 1254, 1380
1618, 951, 952, 945, 1360
1619, 978, 1268, 1154, 1353
1620, 983, 1170, 1042, 1299
1621, 1022, 1024, 812, 1345
1622, 974, 1195, 1278, 1336
1623, 1185, 1265, 536, 1370
1624, 1127, 1202, 1401, 1410
1625, 1251, 1309, 1201, 1395
1626, 1135, 1271, 1147, 1341
1627, 972, 971, 974, 1314
1628, 1282, 1381, 783, 1435
1629, 572, 571, 1189, 1337
1630, 1167, 1129, 1249, 1347
1631, 1127, 1390, 1254, 1436
1632, 277, 489, 255, 1251
1633, 1159, 1129, 1244, 1386
1634, 1155, 1190, 1308, 1445
1635, 857, 1254, 722, 1390
1636, 1219, 1264, 1133, 1290
1637, 1133, 1276, 1186, 1427
1638, 719, 721, 722, 1380
1639, 1042, 1271, 1170, 1388
1640, 515, 1171, 460, 1235
1641, 764, 765, 1308, 1406
1642, 320, 1283, 1181, 1337
1643, 1180, 1125, 1221, 1328
1644, 1157, 1385, 1242, 1447
1645, 660, 576, 1159, 1244
1646, 1142, 1275, 1252, 1384
1647, 1129, 1159, 1244, 1347
1648, 514, 1196, 515, 1350
1649, 1125, 1195, 1331, 1430
1650, 1136, 1262, 1199, 1288
1651, 845, 667, 1209, 1282
1652, 1228, 1285, 1131, 1362
1653, 607, 1224, 544, 1304
1654, 1205, 699, 1306, 1424
1655, 1160, 1254, 1390, 1436
1656, 1170, 1299, 376, 1373
1657, 633, 635, 453, 1366
1658, 1215, 1134, 1306, 1358
1659, 729, 1347, 1159, 1348
1660, 834, 818, 710, 1213
1661, 706, 1284, 1146, 1359
1662, 248, 1181, 320, 1366
1663, 1131, 1228, 1362, 1419
1664, 635, 634, 578, 1366
1665, 637, 501, 1261, 1368
1666, 1173, 1122, 1398, 1446
1667, 460, 1171, 515, 1239
1668, 1184, 1295, 426, 1361
1669, 1122, 1256, 1385, 1437
1670, 1032, 1199, 948, 1285
1671, 550, 1208, 573, 1324
1672, 431, 958, 323, 1287
1673, 518, 519, 1198, 1379
1674, 1134, 1211, 1304, 1429
1675, 503, 637, 501, 1261
1676, 1088, 1365, 384, 1422
1677, 569, 573, 550, 1208
1678, 709, 870, 687, 1200
1679, 693, 748, 653, 1206
1680, 944, 943, 885, 1212
1681, 369, 368, 429, 1338
1682, 740, 750, 821, 1269
1683, 518, 519, 520, 1198
1684, 472, 527, 480, 1206
1685, 282, 283, 1288, 1291
1686, 976, 1278, 1193, 1336
1687, 1058, 1057, 986, 1157
1688, 1198, 1280, 1253, 1379
1689, 836, 817, 649, 1266
1690, 443, 388, 532, 1355
1691, 727, 660, 729, 1347
1692, 1215, 1303, 1134, 1358
1693, 323, 304, 395, 1287
1694, 1133, 1307, 1173, 1398
1695, 755, 756, 654, 1218
1696, 1135, 1164, 1243, 1385
1697, 1197, 1126, 1247, 1338
1698, 1032, 956, 1199, 1349
1699, 891, 984, 985, 1299
1700, 1181, 1124, 1277, 1283
1701, 800, 853, 801, 1354
1702, 1165, 557, 1307, 1446
1703, 469, 560, 613, 1222
1704, 681, 1193, 785, 1336
1705, 778, 1195, 784, 1336
1706, 1201, 1309, 1141, 1395
1707, 767, 788, 1155, 1389
1708, 1238, 1371, 643, 1450
1709, 715, 1306, 1214, 1433
1710, 933, 1250, 935, 1303
1711, 1127, 1401, 1227, 1410
1712, 1160, 1390, 1182, 1436
1713, 573, 569, 465, 1208
1714, 309, 308, 364, 1290
1715, 1132, 1170, 1233, 1400
1716, 805, 669, 588, 1238
1717, 1148, 1322, 1233, 1448
1718, 710, 900, 1047, 1213
1719, 607, 544, 1224, 1431
1720, 794, 846, 1208, 1282
1721, 1182, 1244, 725, 1319
1722, 964, 1019, 1219, 1287
1723, 314, 316, 421, 1312
1724, 788, 1324, 1155, 1389
1725, 1304, 1425, 1205, 1429
1726, 1124, 1268, 1204, 1283
1727, 363, 1177, 417, 1289
1728, 236, 419, 348, 1220
1729, 1033, 1245, 931, 1316
1730, 1219, 1287, 305, 1451
1731, 1197, 1126, 1338, 1418
1732, 1153, 1221, 1332, 1416
1733, 395, 304, 305, 1287
1734, 282, 1250, 280, 1291
1735, 568, 562, 462, 1209
1736, 733, 731, 1235, 1377
1737, 1392, 1423, 761, 1450
1738, 638, 1260, 1218, 1370
1739, 819, 706, 1284, 1408
1740, 1177, 1255, 525, 1374
1741, 1127, 1216, 1270, 1367
1742, 514, 516, 515, 1196
1743, 1133, 1169, 1264, 1276
1744, 1155, 1281, 1190, 1445
1745, 926, 886, 928, 1274
1746, 571, 1277, 1189, 1337
1747, 782, 1336, 785, 1435
1748, 411, 1196, 330, 1280
1749, 1127, 1202, 1254, 1380
1750, 1138, 1278, 1195, 1381
1751, 1264, 1290, 1219, 1333
1752, 1170, 1132, 1233, 1388
1753, 1183, 1352, 1206, 1440
1754, 413, 1219, 234, 1287
1755, 1138, 1381, 1282, 1435
1756, 302, 1378, 1192, 1451
1757, 1122, 1255, 1177, 1385
1758, 1013, 985, 989, 1259
1759, 699, 720, 652, 1205
1760, 1133, 1192, 1428, 1451
1761, 1129, 1167, 1249, 1316
1762, 1130, 1296, 1226, 1375
1763, 552, 1192, 452, 1357
1764, 247, 1246, 350, 1327
1765, 631, 452, 552, 1192
1766, 724, 857, 722, 1390
1767, 1190, 1356, 981, 1406
1768, 1156, 1123, 1295, 1440
1769, 1130, 1200, 1258, 1340
1770, 1192, 1133, 1290, 1451
1771, 785, 1336, 1193, 1435
1772, 1216, 1261, 1127, 1270
1773, 549, 1286, 1172, 1420
1774, 1025, 1086, 1077, 1339
1775, 455, 371, 590, 1247
1776, 859, 1147, 741, 1404
1777, 1139, 1189, 1286, 1445
1778, 1136, 1162, 1262, 1294
1779, 318, 1298, 1154, 1376
1780, 1297, 1364, 1142, 1384
1781, 586, 589, 592, 1371
1782, 1192, 1139, 1428, 1451
1783, 955, 373, 237, 1240
1784, 440, 591, 486, 1205
1785, 1125, 1331, 1209, 1430
1786, 720, 1205, 713, 1433
1787, 1126, 1360, 1236, 1409
1788, 474, 497, 700, 1226
1789, 765, 1308, 1186, 1427
1790, 351, 417, 363, 1177
1791, 1139, 1192, 1378, 1451
1792, 1089, 1176, 1088, 1422
1793, 1124, 1283, 1204, 1445
1794, 1041, 981, 1356, 1406
1795, 1133, 1428, 1219, 1451
1796, 976, 978, 979, 1268
1797, 1129, 1188, 1248, 1386
1798, 879, 1195, 1065, 1336
1799, 1131, 1334, 1228, 1397
1800, 302, 1357, 1192, 1378
1801, 1145, 1225, 1340, 1405
1802, 1134, 1224, 1214, 1304
1803, 1204, 1283, 1268, 1353
1804, 1076, 599, 436, 1320
1805, 272, 1178, 399, 1393
1806, 713, 720, 699, 1205
1807, 1277, 1337, 570, 1455
1808, 701, 1226, 1284, 1359
1809, 1122, 1242, 1256, 1437
1810, 1188, 1129, 1248, 1369
1811, 1206, 1351, 1184, 1440
1812, 569, 1282, 1208, 1455
1813, 1219, 1428, 1139, 1451
1814, 473, 594, 595, 1217
1815, 464, 1164, 750, 1269
1816, 646, 1244, 1182, 1311
1817, 399, 1178, 271, 1393
1818, 955, 1240, 954, 1360
1819, 1131, 1362, 1285, 1419
1820, 606, 1177, 525, 1374
1821, 1186, 1428, 1356, 1441
1822, 383, 1251, 1201, 1395
1823, 569, 1208, 550, 1455
1824, 872, 792, 1167, 1249
1825, 1125, 1195, 1229, 1331
1826, 713, 1205, 699, 1306
1827, 684, 1014, 1232, 1382
1828, 433, 1283, 1204, 1353
1829, 934, 1303, 1215, 1358
1830, 1175, 1312, 1125, 1314
1831, 1182, 1311, 1244, 1319
1832, 804, 761, 1423, 1450
1833, 281, 1224, 1291, 1342
1834, 1153, 1421, 1247, 1453
1835, 1208, 1281, 786, 1324
1836, 393, 323, 894, 1204
1837, 1129, 1168, 1245, 1369
1838, 688, 1203, 898, 1335
1839, 372, 1414, 1397, 1418
1840, 1149, 1371, 1238, 1450
1841, 1138, 1278, 1193, 1438
1842, 1209, 1381, 1138, 1430
1843, 756, 1218, 755, 1301
1844, 585, 588, 1238, 1371
1845, 1168, 1231, 1128, 1330
1846, 351, 247, 350, 1327
1847, 1079, 1080, 1396, 1408
1848, 688, 708, 898, 1203
1849, 291, 292, 1199, 1349
1850, 1296, 1320, 1146, 1359
1851, 1129, 1245, 1168, 1316
1852, 309, 1290, 1158, 1333
1853, 1089, 1083, 1320, 1422
1854, 654, 754, 755, 1218
1855, 437, 380, 379, 1224
1856, 1138, 1282, 1208, 1435
1857, 553, 549, 1172, 1420
1858, 598, 1151, 647, 1391
1859, 1125, 1312, 1220, 1314
1860, 1208, 1277, 550, 1455
1861, 425, 1270, 342, 1355
1862, 1033, 1168, 1316, 1330
1863, 1090, 1339, 1302, 1365
1864, 304, 305, 1287, 1378
1865, 1027, 1213, 921, 1258
1866, 1122, 1385, 1242, 1437
1867, 1132, 1280, 1198, 1400
1868, 551, 572, 571, 1189
1869, 962, 981, 980, 1190
1870, 1180, 1221, 1125, 1312
1871, 631, 1263, 1192, 1420
1872, 892, 978, 975, 1376
1873, 1154, 1124, 1268, 1438
1874, 1132, 1239, 1253, 1448
1875, 1133, 1264, 1169, 1398
1876, 551, 572, 1189, 1357
1877, 1175, 1220, 1312, 1314
1878, 575, 454, 632, 1221
1879, 769, 765, 1186, 1427
1880, 354, 442, 241, 1355
1881, 1340, 1405, 1202, 1410
1882, 872, 1001, 1035, 1167
1883, 493, 1226, 1296, 1375
1884, 340, 408, 1270, 1355
1885, 607, 1304, 1214, 1431
1886, 1006, 228, 353, 1245
1887, 1181, 1283, 1277, 1337
1888, 966, 964, 1333, 1441
1889, 1143, 1375, 1178, 1405
1890, 405, 1302, 257, 1407
1891, 1168, 1128, 1231, 1346
1892, 1189, 1286, 551, 1357
1893, 290, 261, 265, 1363
1894, 942, 908, 904, 1363
1895, 1232, 1382, 1039, 1388
1896, 1027, 1258, 925, 1339
1897, 414, 346, 358, 1327
1898, 1111, 1120, 1297, 1364
1899, 525, 1177, 622, 1255
1900, 1050, 901, 1302, 1407
1901, 327, 326, 1233, 1280
1902, 1023, 1021, 675, 1249
1903, 1026, 1047, 900, 1213
1904, 299, 1397, 1197, 1418
1905, 1155, 1124, 1281, 1445
1906, 421, 1175, 316, 1376
1907, 1096, 1320, 1079, 1396
1908, 769, 1186, 765, 1406
1909, 1026, 1084, 1213, 1339
1910, 489, 602, 1201, 1251
1911, 548, 549, 1286, 1389
1912, 1212, 1301, 758, 1434
1913, 1033, 1000, 1168, 1330
1914, 1214, 1260, 581, 1431
1915, 1201, 1251, 602, 1364
1916, 896, 1036, 1070, 1439
1917, 591, 1205, 720, 1433
1918, 1329, 1380, 1202, 1405
1919, 294, 1185, 398, 1334
1920, 495, 1375, 1368, 1399
1921, 1318, 1351, 1184, 1444
1922, 1132, 1280, 1233, 1448
1923, 390, 299, 1197, 1418
1924, 1134, 1306, 1210, 1429
1925, 493, 1226, 625, 1296
1926, 502, 1261, 1216, 1355
1927, 306, 302, 1192, 1451
1928, 1122, 1256, 1164, 1385
1929, 1143, 1380, 1329, 1405
1930, 579, 637, 457, 1230
1931, 512, 1237, 514, 1350
1932, 1139, 1286, 1192, 1428
1933, 909, 908, 910, 1317
1934, 1183, 1352, 1317, 1443
1935, 762, 1179, 823, 1423
1936, 322, 1204, 433, 1283
1937, 566, 565, 562, 1321
1938, 523, 1269, 1310, 1374
1939, 802, 803, 800, 1354
1940, 267, 265, 266, 1318
1941, 994, 1059, 1233, 1388
1942, 1169, 1276, 1133, 1398
1943, 1136, 1214, 1260, 1294
1944, 851, 882, 950, 1434
1945, 1174, 1245, 339, 1326
1946, 659, 846, 855, 1208
1947, 803, 1236, 800, 1354
1948, 1144, 1414, 1240, 1418
1949, 495, 500, 1368, 1375
1950, 1088, 1176, 1365, 1422
1951, 1143, 1202, 1380, 1405
1952, 1033, 1316, 1001, 1330
1953, 1195, 1278, 1138, 1430
1954, 981, 1190, 962, 1356
1955, 286, 1216, 287, 1367
1956, 1149, 1241, 1392, 1419
1957, 654, 807, 541, 1241
1958, 284, 1288, 292, 1349
1959, 757, 1162, 829, 1434
1960, 396, 1246, 1198, 1373
1961, 782, 1381, 1336, 1435
1962, 1131, 1241, 1218, 1293
1963, 413, 1219, 307, 1333
1964, 1130, 1340, 1225, 1405
1965, 313, 1298, 1180, 1366
1966, 964, 1219, 1333, 1441
1967, 1136, 1262, 1215, 1294
1968, 882, 851, 670, 1434
1969, 781, 779, 778, 1381
1970, 895, 995, 1042, 1170
1971, 731, 1348, 1235, 1377
1972, 384, 385, 1176, 1365
1973, 1162, 1131, 1285, 1301
1974, 1255, 1374, 1177, 1385
1975, 1218, 1294, 1162, 1411
1976, 907, 908, 1317, 1452
1977, 1171, 1253, 1239, 1448
1978, 1135, 1157, 1271, 1385
1979, 1218, 1241, 1131, 1301
1980, 1219, 1290, 307, 1333
1981, 1217, 1334, 1131, 1397
1982, 623, 477, 496, 1176
1983, 715, 713, 1306, 1433
1984, 659, 1208, 855, 1324
1985, 341, 224, 339, 1174
1986, 585, 1191, 615, 1421
1987, 1140, 1305, 1176, 1426
1988, 1147, 1271, 987, 1388
1989, 1286, 1357, 1189, 1378
1990, 550, 1277, 1208, 1324
1991, 1158, 1133, 1264, 1290
1992, 1199, 1334, 1131, 1411
1993, 251, 1198, 519, 1379
1994, 1166, 1271, 1157, 1385
1995, 1196, 1253, 1171, 1448
1996, 1227, 1274, 1127, 1410
1997, 443, 287, 388, 1216
1998, 1034, 949, 1162, 1262
1999, 1069, 1183, 907, 1443
2000, 21, 887, 230, 325
2001, 1133, 1276, 1264, 1315
2002, 264, 1184, 426, 1444
2003, 1178, 1393, 1145, 1405
2004, 1170, 1271, 1042, 1299
2005, 442, 532, 241, 1355
2006, 1180, 1125, 1328, 1430
2007, 1172, 1272, 553, 1420
2008, 232, 25, 891, 345
2009, 700, 474, 1226, 1359
2010, 517, 515, 1171, 1239
2011, 316, 1175, 1298, 1376
2012, 1173, 1307, 556, 1446
2013, 568, 462, 135, 667
2014, 413, 234, 305, 1287
2015, 25, 891, 1013, 232
2016, 784, 678, 187, 879
2017, 346, 376, 1299, 1373
2018, 1132, 1387, 1239, 1448
2019, 1143, 1368, 1178, 1375
2020, 1317, 1443, 907, 1452
2021, 952, 1071, 1240, 1360
2022, 755, 1218, 754, 1260
2023, 286, 343, 1270, 1367
2024, 855, 1208, 786, 1324
2025, 1131, 1293, 1217, 1383
2026, 1199, 1288, 1185, 1411
2027, 1143, 1178, 1368, 1401
2028, 966, 1333, 1264, 1441
2029, 296, 1217, 295, 1334
2030, 763, 981, 1072, 1406
2031, 1194, 1332, 1153, 1338
2032, 1134, 1304, 1214, 1306
2033, 1261, 1270, 1216, 1355
2034, 1195, 1125, 1229, 1314
2035, 1136, 1185, 1265, 1288
2036, 934, 1215, 1022, 1358
2037, 1202, 1405, 1340, 1454
2038, 1156, 1295, 1184, 1440
2039, 294, 398, 296, 1334
2040, 1208, 1282, 1138, 1455
2041, 888, 964, 1019, 1219
2042, 1123, 1184, 1275, 1295
2043, 1011, 21, 887, 230
2044, 1306, 1424, 1210, 1429
2045, 462, 562, 561, 1209
2046, 1186, 1315, 1264, 1441
2047, 290, 864, 49, 220
2048, 539, 1218, 1293, 1370
2049, 525, 606, 622, 1177
2050, 791, 135, 462, 667
2051, 678, 187, 879, 1005
2052, 64, 354, 242, 530
2053, 864, 290, 49, 942
2054, 352, 246, 66, 528
2055, 1158, 1122, 1273, 1398
2056, 1192, 1263, 306, 1451
2057, 1032, 1199, 1262, 1349
2058, 65, 242, 352, 446
2059, 1035, 1167, 1001, 1316
2060, 486, 1205, 1304, 1425
2061, 1122, 1158, 1289, 1398
2062, 1135, 1170, 1271, 1341
2063, 536, 1293, 1185, 1370
2064, 1034, 1262, 1162, 1345
2065, 1214, 1306, 1304, 1433
2066, 762, 1392, 1179, 1423
2067, 359, 243, 68, 526
2068, 346, 1299, 1327, 1373
2069, 653, 149, 472, 527
2070, 1134, 1304, 1205, 1429
2071, 275, 406, 226, 1207
2072, 1135, 1243, 1157, 1385
2073, 779, 845, 844, 1209
2074, 1245, 1316, 1129, 1372
2075, 1191, 1126, 1238, 1354
2076, 1203, 1252, 1123, 1335
2077, 447, 67, 359, 246
2078, 1157, 1404, 680, 1437
2079, 149, 653, 748, 527
2080, 1126, 1240, 1194, 1338
2081, 511, 1235, 1159, 1432
2082, 629, 1173, 556, 1446
2083, 1204, 1287, 1139, 1378
2084, 975, 978, 976, 1278
2085, 772, 1272, 842, 1276
2086, 572, 642, 571, 1337
2087, 725, 723, 656, 1182
2088, 1204, 1268, 961, 1353
2089, 486, 484, 1257, 1425
2090, 530, 64, 354, 442
2091, 552, 1286, 1192, 1357
2092, 778, 1195, 1336, 1381
2093, 1210, 1303, 932, 1358
2094, 1164, 1385, 1256, 1437
2095, 572, 250, 611, 1337
2096, 1148, 1233, 1280, 1448
2097, 242, 65, 530, 446
2098, 12, 378, 254, 940
2099, 851, 829, 670, 1434
2100, 1145, 1405, 1340, 1410
2101, 844, 779, 1209, 1331
2102, 1187, 1387, 1322, 1448
2103, 844, 845, 791, 1209
2104, 765, 1186, 1308, 1406
2105, 1129, 1369, 1188, 1403
2106, 496, 1296, 604, 1320
2107, 1150, 1394, 1229, 1449
2108, 275, 226, 444, 1207
2109, 479, 1275, 499, 1384
2110, 490, 275, 444, 1207
2111, 528, 66, 352, 446
2112, 225, 939, 14, 344
2113, 769, 806, 1186, 1406
2114, 897, 12, 254, 940
2115, 1126, 1371, 1247, 1421
2116, 286, 287, 272, 1367
2117, 818, 1213, 1085, 1408
2118, 933, 863, 935, 1250
2119, 1136, 1185, 1288, 1411
2120, 783, 1282, 847, 1381
2121, 836, 689, 1297, 1384
2122, 1137, 1351, 1318, 1425
2123, 767, 1155, 1308, 1389
2124, 353, 1007, 1006, 1245
2125, 368, 1247, 429, 1338
2126, 903, 1223, 922, 1415
2127, 923, 1030, 1203, 1344
2128, 370, 371, 368, 1338
2129, 1120, 1103, 1111, 1297
2130, 1178, 1367, 1145, 1393
2131, 1136, 1262, 1162, 1411
2132, 1033, 1006, 931, 1245
2133, 246, 447, 67, 528
2134, 222, 938, 47, 866
2135, 1137, 1317, 1352, 1424
2136, 592, 1383, 614, 1450
2137, 283, 1224, 380, 1265
2138, 680, 1157, 1003, 1404
2139, 327, 1233, 361, 1400
2140, 262, 426, 1295, 1361
2141, 697, 699, 1257, 1424
2142, 69, 243, 360, 448
2143, 919, 918, 1274, 1410
2144, 1136, 1260, 1218, 1294
2145, 447, 359, 68, 526
2146, 939, 225, 14, 869
2147, 811, 741, 859, 1147
2148, 363, 362, 351, 1177
2149, 898, 906, 1051, 1203
2150, 333, 416, 1237, 1325
2151, 282, 219, 280, 1250
2152, 916, 921, 1052, 1258
2153, 371, 1247, 368, 1338
2154, 1222, 1394, 1331, 1416
2155, 1178, 1145, 1367, 1401
2156, 489, 1201, 482, 1361
2157, 276, 1223, 260, 1415
2158, 1136, 1265, 1224, 1288
2159, 361, 22, 1011, 230
2160, 938, 222, 47, 288
2161, 314, 313, 316, 1312
2162, 823, 1179, 802, 1423
2163, 855, 786, 1281, 1324
2164, 1129, 1168, 1369, 1403
2165, 964, 960, 1019, 1287
2166, 853, 800, 1236, 1354
2167, 19, 374, 1010, 229
2168, 1183, 907, 1443, 1452
2169, 307, 1290, 1219, 1451
2170, 448, 69, 243, 526
2171, 843, 1272, 1172, 1427
2172, 343, 285, 225, 1227
2173, 719, 1202, 848, 1380
2174, 1209, 1328, 1125, 1430
2175, 987, 1039, 1147, 1388
2176, 1143, 1368, 1230, 1401
2177, 1179, 1236, 1126, 1360
2178, 489, 475, 602, 1251
2179, 1190, 1281, 1124, 1445
2180, 701, 700, 1226, 1359
2181, 846, 786, 855, 1208
2182, 1127, 1270, 1227, 1367
2183, 1034, 1162, 949, 1345
2184, 987, 1147, 1039, 1382
2185, 1125, 1209, 1222, 1328
2186, 1185, 1334, 1199, 1411
2187, 864, 902, 50, 220
2188, 653, 150, 478, 472
2189, 598, 468, 1239, 1391
2190, 1014, 1039, 1232, 1382
2191, 896, 1070, 365, 1439
2192, 342, 286, 343, 1270
2193, 369, 1332, 1153, 1453
2194, 1282, 1321, 1138, 1455
2195, 713, 1205, 1306, 1433
2196, 1132, 1322, 1387, 1448
2197, 249, 310, 75, 451
2198, 979, 1268, 1073, 1323
2199, 1124, 1189, 1283, 1445
2200, 1199, 1288, 1262, 1349
2201, 1262, 1288, 1163, 1349
2202, 298, 1397, 372, 1414
2203, 460, 745, 533, 1235
2204, 599, 623, 1320, 1422
2205, 961, 982, 894, 1353
2206, 1036, 954, 1194, 1409
2207, 577, 751, 115, 457
2208, 1172, 1286, 549, 1389
2209, 1126, 1238, 1354, 1423
2210, 586, 643, 1238, 1371
2211, 382, 1112, 1251, 1395
2212, 757, 1301, 1162, 1434
2213, 385, 384, 1176, 1422
2214, 617, 464, 524, 1164
2215, 1050, 925, 901, 1407
2216, 903, 1279, 1223, 1452
2217, 1133, 1172, 1427, 1428
2218, 910, 932, 909, 1210
2219, 1126, 1197, 1247, 1371
2220, 665, 461, 790, 1272
2221, 1171, 1239, 1387, 1448
2222, 1136, 1294, 1218, 1411
2223, 266, 279, 267, 1211
2224, 1125, 1222, 1209, 1331
2225, 268, 11, 254, 897
2226, 751, 114, 457, 579
2227, 1204, 1378, 1139, 1445
2228, 1304, 1306, 1205, 1433
2229, 989, 1273, 1259, 1447
2230, 1214, 1304, 1224, 1431
2231, 822, 885, 1212, 1434
2232, 496, 1207, 491, 1296
2233, 296, 434, 295, 1217
2234, 344, 868, 15, 224
2235, 114, 751, 657, 579
2236, 273, 275, 385, 1207
2237, 1145, 1401, 1178, 1405
2238, 925, 916, 912, 1258
2239, 569, 566, 1282, 1455
2240, 751, 115, 656, 577
2241, 1041, 981, 962, 1356
2242, 759, 1212, 758, 1434
2243, 1025, 1302, 1086, 1339
2244, 929, 1174, 927, 1372
2245, 329, 1198, 1379, 1400
2246, 1076, 1089, 1083, 1320
2247, 1122, 1255, 1164, 1256
2248, 279, 1291, 1211, 1342
2249, 703, 1200, 838, 1284
2250, 994, 1233, 1322, 1388
2251, 225, 1227, 285, 1412
2252, 1149, 1423, 1392, 1450
2253, 1158, 1290, 1173, 1398
2254, 658, 458, 112, 809
2255, 933, 910, 938, 1250
2256, 820, 1242, 744, 1256
2257, 1140, 1365, 1339, 1396
2258, 1173, 1289, 1158, 1398
2259, 991, 992, 997, 1187
2260, 768, 1308, 1172, 1389
2261, 318, 317, 320, 1298
2262, 1159, 1129, 1386, 1403
2263, 1027, 925, 1050, 1339
2264, 1240, 1338, 1126, 1418
2265, 623, 477, 1176, 1422
2266, 1143, 1380, 1202, 1401
2267, 523, 1164, 1269, 1374
2268, 1160, 1319, 1182, 1390
2269, 935, 957, 937, 1349
2270, 648, 1159, 576, 1244
2271, 116, 749, 656, 577
2272, 1186, 1133, 1428, 1441
2273, 715, 1214, 651, 1433
2274, 1188, 1386, 1129, 1403
2275, 913, 1340, 915, 1410
2276, 1216, 1368, 1178, 1401
2277, 1058, 1382, 875, 1404
2278, 503, 504, 505, 1261
2279, 1216, 1367, 1127, 1401
2280, 1127, 1230, 1368, 1401
2281, 1134, 1291, 1250, 1303
2282, 537, 536, 1265, 1370
2283, 1160, 928, 1274, 1372
2284, 280, 288, 267, 1250
2285, 514, 526, 516, 1196
2286, 390, 1197, 370, 1418
2287, 1138, 1193, 1381, 1435
2288, 1178, 1401, 1143, 1405
2289, 1136, 1199, 1262, 1411
2290, 963, 1186, 1060, 1406
2291, 816, 1075, 1078, 1408
2292, 607, 1214, 1304, 1433
2293, 574, 310, 244, 1263
2294, 999, 1231, 1053, 1330
2295, 335, 1168, 1346, 1369
2296, 539, 638, 1218, 1370
2297, 574, 451, 310, 1263
2298, 895, 23, 361, 231
2299, 541, 1241, 540, 1293
2300, 1130, 1258, 1284, 1426
2301, 1009, 221, 42, 377
2302, 343, 285, 1227, 1367
2303, 112, 497, 458, 658
2304, 737, 1239, 1343, 1387
2305, 795, 1202, 920, 1454
2306, 929, 868, 927, 1174
2307, 362, 249, 74, 580
2308, 1146, 1296, 1176, 1320
2309, 893, 968, 27, 233
2310, 1158, 1290, 1264, 1333
2311, 936, 1215, 1262, 1345
2312, 1219, 1428, 1133, 1441
2313, 657, 721, 718, 1230
2314, 576, 648, 509, 1159
2315, 1163, 1291, 1134, 1303
2316, 600, 1111, 1297, 1364
2317, 952, 955, 954, 1360
2318, 1158, 1273, 1169, 1398
2319, 1293, 1370, 1218, 1411
2320, 902, 1223, 903, 1415
2321, 1129, 1159, 1347, 1403
2322, 259, 50, 902, 220
2323, 691, 653, 150, 478
2324, 1185, 1370, 1293, 1411
2325, 1205, 1424, 1306, 1429
2326, 1219, 1290, 1133, 1451
2327, 1150, 1354, 1191, 1394
2328, 1181, 1337, 1277, 1455
2329, 562, 561, 1209, 1328
2330, 308, 1263, 1290, 1451
2331, 515, 517, 1171, 1253
2332, 1054, 865, 1009, 1228
2333, 303, 250, 301, 1337
2334, 15, 939, 868, 344
2335, 587, 615, 469, 1191
2336, 749, 116, 459, 577
2337, 755, 1260, 717, 1294
2338, 961, 1268, 978, 1353
2339, 336, 334, 415, 1346
2340, 971, 975, 974, 1278
2341, 730, 1234, 1167, 1348
2342, 630, 556, 1263, 1307
2343, 11, 268, 911, 897
2344, 1151, 1341, 1147, 1343
2345, 928, 1021, 930, 1372
2346, 987, 1271, 1042, 1388
2347, 874, 676, 808, 1187
2348, 780, 825, 1331, 1394
2349, 538, 1217, 1293, 1383
2350, 735, 1239, 737, 1387
2351, 409, 333, 416, 1237
2352, 873, 752, 676, 1187
2353, 604, 1320, 1296, 1359
2354, 1133, 1427, 1186, 1428
2355, 1162, 1301, 1285, 1434
2356, 993, 1014, 1039, 1232
2357, 913, 915, 917, 1410
2358, 743, 1157, 680, 1437
2359, 907, 1183, 1069, 1452
2360, 718, 657, 1230, 1399
2361, 515, 1235, 513, 1350
2362, 816, 1078, 1292, 1408
2363, 335, 1346, 336, 1369
2364, 1185, 1131, 1293, 1334
2365, 1089, 1320, 1176, 1422
2366, 1123, 1183, 1335, 1440
2367, 993, 1232, 1039, 1388
2368, 1130, 1225, 1305, 1393
2369, 1212, 1285, 1131, 1301
2370, 999, 1313, 1231, 1330
2371, 1181, 1283, 1154, 1438
2372, 1044, 915, 1340, 1454
2373, 862, 1077, 1084, 1339
2374, 1003, 875, 753, 1404
2375, 1109, 649, 1099, 1266
2376, 1175, 1278, 1195, 1430
2377, 1157, 1243, 1147, 1404
2378, 310, 244, 76, 574
2379, 608, 544, 1224, 1304
2380, 952, 1240, 955, 1360
2381, 964, 1219, 888, 1333
2382, 1212, 1285, 946, 1362
2383, 1147, 1343, 1232, 1382
2384, 429, 391, 252, 1453
2385, 76, 310, 574, 451
2386, 1169, 1242, 1122, 1273
2387, 1153, 1332, 1221, 1453
2388, 411, 416, 330, 1196
2389, 366, 1194, 1332, 1439
2390, 416, 411, 243, 1196
2391, 982, 961, 978, 1353
2392, 1176, 1296, 1146, 1426
2393, 1172, 1133, 1420, 1428
2394, 1031, 673, 886, 1254
2395, 285, 1367, 272, 1393
2396, 520, 1246, 521, 1310
2397, 888, 1019, 29, 347
2398, 1198, 1341, 1132, 1400
2399, 845, 781, 847, 1282
2400, 587, 1191, 1417, 1421
2401, 894, 959, 961, 1204
2402, 847, 783, 846, 1282
2403, 658, 111, 497, 700
2404, 701, 1284, 706, 1359
2405, 308, 306, 1263, 1451
2406, 244, 375, 77, 574
2407, 1192, 1420, 1133, 1428
2408, 848, 795, 674, 1454
2409, 1044, 1340, 1200, 1454
2410, 1134, 1205, 1304, 1306
2411, 500, 1216, 502, 1368
2412, 484, 440, 486, 1257
2413, 895, 22, 1011, 361
2414, 949, 1032, 948, 1285
2415, 1147, 1271, 1170, 1341
2416, 1077, 862, 1025, 1339
2417, 409, 416, 359, 1237
2418, 538, 595, 1217, 1383
2419, 274, 405, 257, 1407
2420, 502, 504, 1261, 1355
2421, 486, 1205, 488, 1304
2422, 128, 790, 665, 461
2423, 1227, 1367, 285, 1412
2424, 1129, 1347, 1167, 1403
2425, 147, 591, 440, 652
2426, 1187, 1322, 1148, 1448
2427, 1368, 1375, 1143, 1399
2428, 502, 532, 504, 1355
2429, 1217, 1293, 1131, 1334
2430, 703, 1200, 1284, 1329
2431, 701, 700, 658, 1226
2432, 451, 75, 249, 580
2433, 500, 443, 502, 1216
2434, 1185, 1293, 1217, 1334
2435, 1011, 1059, 895, 1233
2436, 1143, 1329, 1226, 1405
2437, 709, 687, 838, 1200
2438, 944, 1212, 946, 1362
2439, 1178, 1367, 1216, 1401
2440, 274, 1305, 385, 1365
2441, 627, 1375, 495, 1399
2442, 1264, 1276, 1169, 1315
2443, 785, 1193, 1323, 1435
2444, 1183, 1443, 1317, 1452
2445, 591, 147, 720, 652
2446, 381, 238, 398, 1185
2447, 777, 825, 1229, 1331
2448, 721, 1230, 751, 1390
2449, 1133, 1158, 1264, 1398
2450, 23, 895, 983, 231
2451, 1097, 1339, 1090, 1396
2452, 1209, 1282, 1138, 1381
2453, 1130, 1226, 1329, 1405
2454, 27, 893, 233, 356
2455, 1129, 1326, 1248, 1369
2456, 1144, 1179, 1362, 1419
2457, 769, 1186, 1315, 1427
2458, 1170, 1132, 1341, 1400
2459, 413, 307, 1219, 1451
2460, 699, 652, 697, 1257
2461, 625, 1296, 1226, 1359
2462, 1237, 1350, 512, 1432
2463, 747, 576, 463, 1159
2464, 494, 491, 493, 1296
2465, 357, 1259, 394, 1289
2466, 591, 488, 486, 1205
2467, 1163, 1250, 1291, 1303
2468, 1194, 1402, 1332, 1439
2469, 882, 949, 950, 1434
2470, 1152, 1261, 1270, 1436
2471, 1127, 1270, 1261, 1436
2472, 404, 383, 276, 1395
2473, 520, 449, 521, 1246
2474, 566, 1321, 1282, 1455
2475, 1162, 1285, 949, 1434
2476, 718, 1230, 721, 1380
2477, 423, 318, 422, 1376
2478, 767, 827, 788, 1389
2479, 1027, 900, 921, 1213
2480, 1158, 1133, 1290, 1398
2481, 596, 662, 460, 1239
2482, 1285, 1301, 1212, 1434
2483, 1227, 1401, 1145, 1410
2484, 1136, 1265, 1185, 1370
2485, 1227, 1270, 343, 1367
2486, 330, 1196, 416, 1325
2487, 646, 1182, 505, 1311
2488, 812, 810, 1022, 1358
2489, 461, 129, 790, 593
2490, 1004, 181, 806, 677
2491, 1129, 1248, 1311, 1386
2492, 766, 785, 1323, 1435
2493, 856, 758, 759, 1212
2494, 369, 392, 1332, 1453
2495, 766, 683, 764, 1323
2496, 1132, 1322, 1233, 1388
2497, 240, 1211, 529, 1342
2498, 585, 586, 588, 1371
2499, 1144, 1362, 1228, 1419
2500, 860, 1167, 792, 1249
2501, 545, 535, 92, 1265
2502, 300, 572, 641, 1357
2503, 1131, 1285, 1199, 1411
2504, 753, 176, 875, 1003
2505, 412, 1379, 1280, 1400
2506, 1129, 1319, 1249, 1347
2507, 329, 1379, 412, 1400
2508, 660, 749, 117, 459
2509, 320, 303, 1283, 1337
2510, 921, 687, 870, 1200
2511, 393, 894, 982, 1353
2512, 1122, 1164, 1255, 1385
2513, 811, 1343, 1147, 1382
2514, 488, 1205, 591, 1433
2515, 353, 16, 1007, 224
2516, 1181, 1321, 1298, 1366
2517, 234, 29, 1019, 347
2518, 854, 547, 788, 1389
2519, 46, 938, 288, 1250
2520, 1026, 862, 1084, 1339
2521, 974, 1067, 1065, 1336
2522, 1124, 1181, 1277, 1438
2523, 129, 666, 790, 593
2524, 181, 878, 1004, 806
2525, 574, 375, 77, 452
2526, 539, 541, 540, 1293
2527, 1201, 1142, 1309, 1364
2528, 544, 1265, 1224, 1431
2529, 976, 1066, 1067, 1336
2530, 607, 1214, 581, 1431
2531, 1081, 1079, 1080, 1396
2532, 1138, 1193, 1435, 1438
2533, 902, 903, 922, 1415
2534, 869, 1410, 1227, 1412
2535, 1133, 1165, 1307, 1398
2536, 1275, 1295, 1184, 1361
2537, 1276, 1315, 1186, 1427
2538, 1123, 1275, 1201, 1295
2539, 413, 1219, 305, 1451
2540, 1187, 1377, 734, 1387
2541, 1129, 1316, 1249, 1372
2542, 993, 992, 874, 1232
2543, 1278, 1336, 1195, 1381
2544, 701, 1284, 1226, 1329
2545, 1147, 1343, 1341, 1388
2546, 1133, 1264, 1219, 1441
2547, 616, 583, 1421, 1453
2548, 586, 1238, 588, 1371
2549, 495, 492, 500, 1375
2550, 863, 938, 46, 1250
2551, 1174, 1270, 1274, 1436
2552, 1063, 1231, 999, 1313
2553, 288, 219, 46, 1250
2554, 815, 708, 1203, 1344
2555, 1030, 1267, 1203, 1344
2556, 74, 362, 580, 450
2557, 301, 1189, 1357, 1378
2558, 512, 447, 514, 1237
2559, 931, 1245, 929, 1372
2560, 449, 71, 251, 519
2561, 969, 889, 970, 1220
2562, 1202, 1380, 1329, 1454
2563, 359, 246, 409, 1237
2564, 718, 1230, 1380, 1399
2565, 333, 1237, 409, 1346
2566, 1336, 1381, 1193, 1435
2567, 1124, 1277, 1208, 1438
2568, 238, 1185, 381, 1265
2569, 705, 1329, 718, 1380
2570, 646, 577, 644, 1182
2571, 219, 863, 46, 1250
2572, 1164, 1374, 1255, 1385
2573, 880, 1064, 1005, 1229
2574, 1018, 893, 989, 1259
2575, 1020, 953, 881, 1236
2576, 1017, 1194, 1036, 1439
2577, 824, 803, 881, 1236
2578, 1080, 1097, 1081, 1396
2579, 1241, 1383, 1149, 1450
2580, 219, 45, 863, 957
2581, 1052, 870, 914, 1200
2582, 1206, 1252, 1123, 1275
2583, 1063, 1231, 1313, 1442
2584, 1138, 1435, 1208, 1438
2585, 1300, 1395, 404, 1415
2586, 594, 538, 595, 1217
2587, 251, 349, 71, 449
2588, 1185, 381, 1265, 1288
2589, 1147, 1271, 1157, 1404
2590, 600, 1297, 624, 1364
2591, 608, 1224, 437, 1342
2592, 1127, 1367, 1227, 1401
2593, 631, 554, 1263, 1420
2594, 333, 1325, 1237, 1346
2595, 1109, 814, 649, 1266
2596, 1147, 1039, 1382, 1388
2597, 996, 1063, 1313, 1442
2598, 998, 1234, 997, 1313
2599, 1143, 1401, 1202, 1405
2600, 741, 1147, 1243, 1404
2601, 45, 219, 297, 957
2602, 489, 602, 482, 1201
2603, 327, 1280, 1233, 1400
2604, 504, 532, 442, 1355
2605, 748, 697, 1257, 1352
2606, 1165, 1133, 1276, 1398
2607, 1208, 1438, 1277, 1455
2608, 1132, 1322, 1232, 1387
2609, 1227, 1270, 1127, 1274
2610, 606, 450, 622, 1177
2611, 646, 644, 505, 1182
2612, 272, 399, 271, 1393
2613, 335, 334, 336, 1346
2614, 527, 1257, 484, 1351
2615, 1084, 1080, 1085, 1213
2616, 845, 847, 667, 1282
2617, 1200, 1130, 1284, 1329
2618, 705, 1329, 1380, 1454
2619, 766, 1323, 1281, 1435
2620, 536, 535, 537, 1265
2621, 794, 847, 846, 1282
2622, 548, 571, 550, 1277
2623, 1112, 1309, 1251, 1395
2624, 541, 807, 639, 1241
2625, 232, 1013, 26, 1259
2626, 836, 707, 689, 1384
2627, 331, 332, 1231, 1325
2628, 748, 693, 697, 1352
2629, 616, 1421, 1417, 1453
2630, 245, 312, 311, 1221
2631, 461, 665, 559, 1272
2632, 539, 1293, 536, 1370
2633, 1226, 1284, 1130, 1329
2634, 527, 484, 480, 1351
2635, 1040, 867, 253, 1414
2636, 1089, 1091, 1365, 1396
2637, 993, 992, 1232, 1322
2638, 1136, 1260, 1214, 1431
2639, 180, 1004, 877, 1315
2640, 947, 1054, 1228, 1285
2641, 963, 1356, 1186, 1406
2642, 352, 242, 418, 1248
2643, 1292, 1146, 1320, 1359
2644, 423, 1298, 318, 1376
2645, 893, 26, 1013, 1259
2646, 1125, 1221, 1328, 1416
2647, 736, 808, 1187, 1232
2648, 853, 800, 803, 1236
2649, 1302, 1339, 1140, 1365
2650, 607, 581, 543, 1431
2651, 906, 922, 903, 1279
2652, 368, 371, 429, 1247
2653, 712, 1210, 1306, 1424
2654, 1162, 1301, 1218, 1411
2655, 960, 962, 959, 1356
2656, 413, 347, 1219, 1333
2657, 919, 1227, 869, 1410
2658, 228, 890, 18, 374
2659, 613, 560, 561, 1222
2660, 16, 868, 1007, 224
2661, 1330, 1348, 1128, 1403
2662, 396, 251, 329, 1198
2663, 382, 217, 1112, 1395
2664, 434, 296, 389, 1217
2665, 1037, 1073, 981, 1323
2666, 1154, 1193, 1278, 1438
2667, 1169, 1273, 1122, 1398
2668, 915, 1202, 918, 1410
2669, 1191, 1153, 1416, 1417
2670, 1018, 966, 968, 1333
2671, 716, 715, 714, 1215
2672, 860, 1249, 726, 1347
2673, 468, 738, 596, 1239
2674, 355, 227, 33, 892
2675, 659, 465, 133, 794
2676, 578, 445, 81, 248
2677, 681, 185, 871, 1008
2678, 1191, 1354, 798, 1394
2679, 752, 732, 1187, 1234
2680, 521, 1246, 606, 1374
2681, 533, 661, 747, 1235
2682, 786, 1281, 1208, 1435
2683, 670, 829, 813, 1162
2684, 1211, 1425, 1318, 1444
2685, 410, 309, 233, 1333
2686, 345, 358, 346, 1299
2687, 535, 238, 92, 1265
2688, 1308, 1356, 1190, 1406
2689, 313, 317, 1298, 1366
2690, 263, 1295, 1201, 1361
2691, 1241, 1301, 756, 1392
2692, 1010, 890, 1053, 1231
2693, 315, 1312, 1220, 1332
2694, 241, 532, 388, 1355
2695, 1317, 1424, 1210, 1443
2696, 1146, 1396, 1213, 1408
2697, 1175, 1278, 1154, 1376
2698, 1137, 1184, 1318, 1351
2699, 1171, 1387, 1187, 1448
2700, 1277, 1438, 1181, 1455
2701, 344, 343, 225, 1227
2702, 221, 293, 377, 1228
2703, 848, 1380, 1202, 1454
2704, 1127, 1254, 1274, 1436
2705, 63, 241, 354, 442
2706, 281, 379, 1224, 1342
2707, 1216, 1261, 502, 1368
2708, 1154, 1268, 1193, 1438
2709, 1137, 1317, 1183, 1352
2710, 709, 870, 1200, 1454
2711, 58, 490, 477, 258
2712, 297, 282, 284, 1349
2713, 892, 227, 33, 982
2714, 573, 465, 133, 659
2715, 789, 681, 185, 871
2716, 324, 81, 445, 248
2717, 1157, 1271, 1166, 1447
2718, 366, 368, 369, 1338
2719, 885, 946, 944, 1212
2720, 374, 890, 19, 1010
2721, 600, 435, 1111, 1364
2722, 1218, 1260, 1136, 1370
2723, 927, 1274, 928, 1372
2724, 917, 1410, 869, 1412
2725, 703, 1284, 701, 1329
2726, 1212, 1362, 1179, 1419
2727, 873, 997, 998, 1234
2728, 1397, 1414, 1144, 1418
2729, 1134, 1205, 1306, 1429
2730, 1216, 1127, 1261, 1368
2731, 657, 579, 1230, 1399
2732, 1161, 1318, 1211, 1429
2733, 979, 980, 1073, 1268
2734, 1175, 1298, 1180, 1312
2735, 947, 1285, 1228, 1362
2736, 281, 1224, 283, 1291
2737, 1286, 1420, 1192, 1428
2738, 771, 1315, 1276, 1427
2739, 342, 340, 408, 1270
2740, 801, 798, 1354, 1394
2741, 771, 769, 1315, 1427
2742, 1122, 1289, 1173, 1398
2743, 1208, 1138, 1438, 1455
2744, 1162, 1131, 1301, 1411
2745, 738, 662, 596, 1239
2746, 422, 355, 423, 1376
2747, 1157, 986, 1271, 1447
2748, 291, 221, 43, 865
2749, 1160, 1274, 1254, 1436
2750, 84, 575, 245, 311
2751, 1005, 678, 188, 776
2752, 1172, 1420, 1286, 1428
2753, 1220, 1314, 970, 1402
2754, 331, 1325, 1231, 1442
2755, 396, 1198, 329, 1373
2756, 1067, 879, 1065, 1336
2757, 902, 259, 1223, 1415
2758, 232, 26, 356, 1259
2759, 1167, 1348, 1330, 1403
2760, 63, 241, 442, 532
2761, 1135, 1151, 1310, 1341
2762, 1176, 1320, 623, 1422
2763, 1060, 1315, 1186, 1441
2764, 433, 1204, 393, 1353
2765, 1197, 1397, 1144, 1418
2766, 1066, 1008, 1067, 1336
2767, 1114, 1309, 1115, 1395
2768, 1107, 1100, 601, 1364
2769, 819, 687, 710, 1213
2770, 1179, 1149, 1392, 1419
2771, 1161, 1317, 1156, 1318
2772, 1129, 1311, 1244, 1386
2773, 913, 897, 912, 1225
2774, 1100, 1111, 435, 1364
2775, 1154, 1298, 1181, 1438
2776, 488, 1304, 1205, 1433
2777, 931, 1007, 929, 1245
2778, 607, 471, 581, 1214
2779, 651, 145, 581, 760
2780, 1199, 1285, 1162, 1411
2781, 893, 356, 26, 1259
2782, 1132, 1341, 1151, 1343
2783, 1211, 1318, 1137, 1429
2784, 425, 388, 1216, 1355
2785, 705, 702, 718, 1329
2786, 1128, 1330, 1234, 1348
2787, 474, 625, 497, 1226
2788, 979, 1073, 1066, 1323
2789, 886, 926, 1031, 1254
2790, 1130, 1284, 1296, 1426
2791, 506, 1248, 508, 1311
2792, 551, 612, 572, 1357
2793, 1167, 1347, 730, 1348
2794, 285, 272, 270, 1393
2795, 1329, 1405, 1202, 1454
2796, 1017, 1402, 1194, 1439
2797, 865, 221, 42, 1009
2798, 383, 382, 1251, 1395
2799, 1192, 1290, 1263, 1451
2800, 623, 496, 604, 1320
2801, 1203, 1123, 1279, 1335
2802, 1081, 1097, 1090, 1396
2803, 419, 1220, 315, 1312
2804, 761, 1241, 756, 1392
2805, 701, 1226, 702, 1329
2806, 1162, 1262, 1199, 1411
2807, 657, 751, 721, 1230
2808, 180, 677, 1004, 1315
2809, 1129, 1244, 1319, 1347
2810, 947, 1228, 1068, 1362
2811, 1183, 1279, 1123, 1335
2812, 1234, 1313, 1128, 1377
2813, 1210, 1317, 1161, 1429
2814, 885, 946, 1212, 1434
2815, 461, 665, 128, 559
2816, 1194, 1402, 1017, 1409
2817, 914, 1200, 1044, 1340
2818, 1137, 1425, 1211, 1429
2819, 1155, 1286, 1189, 1445
2820, 1057, 986, 1157, 1447
2821, 1169, 1264, 1158, 1398
2822, 508, 530, 446, 1248
2823, 1129, 1167, 1316, 1403
2824, 1230, 1261, 1127, 1368
2825, 608, 544, 437, 1224
2826, 757, 813, 829, 1162
2827, 768, 827, 1308, 1389
2828, 1173, 1413, 1255, 1446
2829, 726, 1249, 1319, 1347
2830, 813, 670, 1162, 1345
2831, 1080, 1085, 1213, 1408
2832, 1185, 1131, 1334, 1411
2833, 919, 869, 917, 1410
2834, 511, 1386, 510, 1432
2835, 987, 875, 1058, 1382
2836, 436, 599, 623, 1320
2837, 247, 531, 349, 1246
2838, 374, 229, 332, 1231
2839, 348, 36, 969, 889
2840, 462, 560, 136, 791
2841, 912, 913, 1225, 1340
2842, 848, 705, 1380, 1454
2843, 712, 1306, 1210, 1358
2844, 1179, 1392, 1149, 1423
2845, 588, 610, 805, 1238
2846, 1176, 1320, 1089, 1396
2847, 1062, 994, 1233, 1322
2848, 552, 1192, 1286, 1420
2849, 1170, 1341, 1132, 1388
2850, 728, 792, 860, 1167
2851, 1264, 1333, 1219, 1441
2852, 1170, 1271, 1147, 1388
2853, 1224, 1265, 1136, 1431
2854, 1212, 1285, 1362, 1419
2855, 1132, 1341, 1343, 1388
2856, 1167, 1316, 1168, 1330
2857, 511, 1159, 1386, 1432
2858, 1145, 1227, 1367, 1401
2859, 1153, 1417, 1191, 1421
2860, 1221, 1328, 1416, 1417
2861, 769, 765, 806, 1406
2862, 1260, 1370, 628, 1431
2863, 1098, 1112, 217, 1395
2864, 984, 1271, 986, 1447
2865, 1146, 1296, 1284, 1426
2866, 1193, 1268, 1124, 1438
2867, 363, 430, 364, 1289
2868, 1131, 1162, 1285, 1411
2869, 1130, 1329, 1200, 1405
2870, 412, 1280, 328, 1400
2871, 385, 1176, 258, 1422
2872, 650, 1075, 816, 1408
2873, 637, 1230, 579, 1399
2874, 637, 579, 636, 1399
2875, 1036, 1194, 1017, 1409
2876, 824, 685, 853, 1449
2877, 569, 566, 465, 1282
2878, 1088, 218, 384, 1365
2879, 1130, 1284, 1226, 1296
2880, 1207, 1176, 1305, 1426
2881, 866, 910, 908, 1363
2882, 229, 331, 332, 1231
2883, 1298, 1321, 1180, 1366
2884, 654, 756, 807, 1241
2885, 764, 787, 766, 1281
2886, 1137, 1318, 1211, 1425
2887, 274, 385, 405, 1365
2888, 843, 1172, 768, 1427
2889, 267, 222, 265, 1363
2890, 444, 491, 490, 1207
2891, 615, 1191, 587, 1421
2892, 481, 479, 480, 1275
2893, 923, 1030, 898, 1203
2894, 760, 754, 456, 1260
2895, 537, 1265, 544, 1431
2896, 1108, 1101, 861, 1267
2897, 882, 1034, 949, 1345
2898, 728, 730, 1167, 1347
2899, 552, 612, 1286, 1357
2900, 1266, 1267, 1104, 1344
2901, 1215, 1294, 1262, 1345
2902, 695, 1203, 688, 1335
2903, 1195, 1314, 1175, 1430
2904, 1168, 1330, 1128, 1403
2905, 636, 1368, 501, 1399
2906, 1243, 1385, 1164, 1437
2907, 808, 684, 1014, 1232
2908, 748, 148, 527, 1257
2909, 1150, 1409, 1236, 1449
2910, 366, 1332, 397, 1439
2911, 835, 744, 821, 1437
2912, 329, 1373, 1198, 1400
2913, 293, 1228, 1334, 1397
2914, 1332, 1402, 1220, 1439
2915, 1245, 1326, 1129, 1369
2916, 1188, 1403, 1346, 1432
2917, 433, 322, 323, 1204
2918, 1102, 1099, 158, 817
2919, 294, 381, 398, 1185
2920, 919, 1274, 1227, 1410
2921, 604, 1292, 1320, 1359
2922, 449, 349, 531, 1246
2923, 1129, 1316, 1168, 1403
2924, 1075, 206, 816, 1078
2925, 271, 1305, 269, 1393
2926, 571, 642, 1277, 1337
2927, 373, 955, 1040, 1240
2928, 293, 298, 1228, 1397
2929, 781, 847, 1282, 1381
2930, 973, 1402, 1229, 1449
2931, 1068, 1362, 1228, 1414
2932, 254, 270, 269, 1225
2933, 1127, 1368, 1216, 1401
2934, 822, 856, 759, 1212
2935, 931, 1316, 1245, 1372
2936, 869, 1227, 225, 1412
2937, 1124, 1277, 1189, 1445
2938, 1215, 1306, 714, 1358
2939, 775, 180, 877, 1315
2940, 778, 1336, 782, 1381
2941, 702, 701, 658, 1226
2942, 748, 652, 148, 1257
2943, 801, 798, 800, 1354
2944, 148, 440, 527, 1257
2945, 715, 717, 760, 1260
2946, 255, 1201, 489, 1361
2947, 1168, 1128, 1346, 1403
2948, 1346, 1403, 1128, 1432
2949, 1179, 1392, 1212, 1419
2950, 830, 743, 682, 1242
2951, 406, 275, 273, 1207
2952, 1014, 874, 808, 1232
2953, 963, 1060, 1186, 1441
2954, 811, 1232, 1343, 1382
2955, 148, 652, 440, 1257
2956, 837, 1292, 690, 1359
2957, 393, 433, 323, 1204
2958, 636, 495, 1368, 1399
2959, 1212, 1131, 1285, 1419
2960, 43, 291, 865, 956
2961, 371, 455, 391, 1247
2962, 1201, 1295, 1275, 1361
2963, 613, 1222, 561, 1328
2964, 1156, 1317, 1161, 1363
2965, 1161, 1318, 1156, 1363
2966, 608, 607, 544, 1304
2967, 1321, 1438, 1138, 1455
2968, 1063, 1053, 999, 1231
2969, 456, 638, 628, 1260
2970, 1128, 1325, 1237, 1350
2971, 1127, 1274, 1270, 1436
2972, 976, 1067, 1278, 1336
2973, 963, 1356, 960, 1441
2974, 315, 1332, 1220, 1439
2975, 974, 1278, 1067, 1336
2976, 1136, 1162, 1294, 1411
2977, 1131, 1293, 1218, 1411
2978, 872, 792, 679, 1167
2979, 646, 507, 1244, 1311
2980, 1147, 1382, 1232, 1388
2981, 410, 1290, 309, 1333
2982, 844, 1222, 780, 1331
2983, 1162, 1262, 1294, 1345
2984, 1019, 431, 234, 1287
2985, 1130, 1258, 1200, 1284
2986, 1027, 1213, 1258, 1339
2987, 566, 562, 568, 1282
2988, 485, 1351, 1425, 1444
2989, 494, 493, 625, 1296
2990, 947, 1054, 1068, 1228
2991, 822, 1212, 759, 1434
2992, 1019, 958, 431, 1287
2993, 1150, 1402, 1194, 1409
2994, 327, 328, 326, 1280
2995, 1131, 1185, 1293, 1411
2996, 667, 794, 134, 1282
2997, 1172, 1308, 768, 1427
2998, 1165, 1276, 1169, 1398
2999, 934, 936, 1022, 1215
3000, 631, 1192, 552, 1420
3001, 742, 680, 1404, 1437
3002, 481, 480, 483, 1351
3003, 18, 1006, 890, 228
3004, 555, 553, 1272, 1420
3005, 229, 331, 1231, 1442
3006, 327, 230, 361, 1233
3007, 696, 693, 694, 1352
3008, 1085, 1075, 650, 1408
3009, 936, 1215, 934, 1303
3010, 1108, 1104, 1121, 1267
3011, 220, 259, 260, 1223
3012, 864, 903, 902, 1223
3013, 1253, 1280, 1196, 1379
3014, 1191, 1416, 1222, 1417
3015, 622, 1177, 450, 1413
3016, 145, 581, 471, 651
3017, 880, 1005, 188, 776
3018, 84, 575, 311, 454
3019, 1088, 1074, 218, 1365
3020, 465, 134, 794, 1282
3021, 663, 124, 750, 1269
3022, 797, 668, 137, 469
3023, 1226, 1296, 1284, 1359
3024, 1184, 1295, 1123, 1440
3025, 263, 407, 1295, 1361
3026, 786, 1208, 846, 1435
3027, 667, 134, 568, 1282
3028, 725, 1244, 727, 1319
3029, 261, 260, 262, 1295
3030, 1136, 1288, 1199, 1411
3031, 1135, 1310, 1246, 1373
3032, 805, 799, 669, 1238
3033, 698, 1424, 1352, 1443
3034, 995, 1042, 1170, 1388
3035, 782, 681, 785, 1336
3036, 391, 582, 252, 1453
3037, 1079, 1292, 1078, 1408
3038, 663, 534, 124, 1269
3039, 560, 137, 668, 469
3040, 917, 940, 913, 1412
3041, 483, 1351, 485, 1444
3042, 758, 1301, 1212, 1392
3043, 350, 1246, 396, 1373
3044, 270, 269, 1225, 1393
3045, 1198, 1373, 1341, 1400
3046, 259, 260, 1223, 1415
3047, 661, 731, 747, 1235
3048, 1086, 1302, 1090, 1339
3049, 1050, 1302, 1025, 1339
3050, 1113, 1251, 1112, 1309
3051, 330, 326, 328, 1280
3052, 1152, 1270, 1261, 1355
3053, 1109, 814, 1266, 1344
3054, 1042, 1271, 984, 1299
3055, 1009, 1228, 377, 1414
3056, 1259, 1273, 1166, 1447
3057, 516, 518, 1253, 1379
3058, 1280, 1379, 1198, 1400
3059, 1063, 1010, 1053, 1231
3060, 588, 586, 643, 1238
3061, 355, 422, 227, 1353
3062, 73, 247, 362, 450
3063, 780, 844, 668, 1222
3064, 964, 888, 966, 1333
3065, 1155, 1286, 1172, 1389
3066, 521, 531, 606, 1246
3067, 1062, 994, 1059, 1233
3068, 718, 702, 809, 1399
3069, 775, 677, 180, 1315
3070, 1187, 1313, 1148, 1322
3071, 234, 395, 305, 1287
3072, 1009, 1068, 1054, 1228
3073, 508, 1311, 1248, 1386
3074, 1079, 1096, 1087, 1320
3075, 1231, 1313, 1128, 1330
3076, 501, 502, 1261, 1368
3077, 465, 568, 134, 1282
3078, 1018, 967, 966, 1264
3079, 378, 285, 270, 1412
3080, 946, 1285, 1212, 1434
3081, 1128, 1313, 1234, 1330
3082, 1170, 1373, 376, 1400
3083, 825, 1394, 801, 1449
3084, 692, 1252, 695, 1335
3085, 696, 698, 1352, 1443
3086, 73, 247, 450, 531
3087, 413, 307, 410, 1333
3088, 379, 380, 283, 1224
3089, 552, 452, 612, 1357
3090, 332, 1231, 1325, 1346
3091, 1107, 601, 1251, 1364
3092, 977, 975, 971, 1376
3093, 1201, 1309, 1251, 1364
3094, 1232, 1322, 1132, 1388
3095, 732, 734, 1187, 1377
3096, 869, 919, 939, 1227
3097, 607, 1304, 488, 1433
3098, 471, 1214, 607, 1433
3099, 1167, 1234, 1330, 1348
3100, 1003, 1058, 875, 1404
3101, 320, 324, 303, 1337
3102, 602, 624, 499, 1364
3103, 1207, 1296, 1176, 1426
3104, 1341, 1373, 1170, 1400
3105, 668, 828, 780, 1222
3106, 1043, 1409, 1402, 1449
3107, 236, 36, 969, 348
3108, 560, 668, 136, 791
3109, 963, 1186, 1356, 1441
3110, 815, 1203, 1266, 1344
3111, 811, 741, 1147, 1343
3112, 342, 1270, 408, 1355
3113, 1107, 106, 601, 1100
3114, 1188, 1369, 1168, 1403
3115, 1159, 1348, 1347, 1403
3116, 1246, 1310, 1198, 1373
3117, 144, 456, 760, 754
3118, 1347, 1348, 1167, 1403
3119, 1417, 1421, 1153, 1453
3120, 1101, 1121, 1114, 1267
3121, 1191, 1150, 1394, 1416
3122, 1031, 920, 795, 1202
3123, 1168, 1316, 1167, 1403
3124, 1180, 1298, 1175, 1430
3125, 1108, 861, 1029, 1267
3126, 338, 418, 1248, 1369
3127, 765, 764, 763, 1406
3128, 733, 731, 661, 1235
3129, 327, 326, 230, 1233
3130, 228, 17, 1006, 353
3131, 778, 784, 782, 1336
3132, 678, 777, 776, 1229
3133, 818, 1085, 650, 1408
3134, 648, 1244, 507, 1386
3135, 1088, 1089, 1091, 1365
3136, 1222, 1328, 613, 1417
3137, 315, 1220, 236, 1439
3138, 501, 502, 503, 1261
3139, 1125, 1175, 1314, 1430
3140, 373, 367, 237, 1240
3141, 509, 511, 1159, 1386
3142, 752, 873, 1002, 1234
3143, 555, 1272, 1307, 1420
3144, 298, 377, 293, 1228
3145, 729, 730, 1347, 1348
3146, 1167, 1330, 1168, 1403
3147, 712, 1306, 699, 1424
3148, 554, 1307, 1263, 1420
3149, 1043, 1016, 1409, 1449
3150, 1157, 1385, 1243, 1437
3151, 626, 482, 1275, 1361
3152, 713, 715, 651, 1433
3153, 1135, 1198, 1310, 1373
3154, 955, 952, 1071, 1240
3155, 824, 853, 803, 1236
3156, 1230, 721, 1380, 1390
3157, 1218, 1301, 1131, 1411
3158, 1135, 1374, 1164, 1385
3159, 90, 439, 296, 427
3160, 744, 1256, 1242, 1437
3161, 691, 707, 1252, 1384
3162, 507, 1244, 1311, 1386
3163, 906, 898, 1030, 1203
3164, 581, 760, 456, 1260
3165, 529, 1211, 487, 1342
3166, 1175, 1312, 1180, 1430
3167, 1014, 993, 874, 1232
3168, 327, 361, 376, 1400
3169, 660, 459, 576, 1244
3170, 1284, 1296, 1146, 1359
3171, 811, 684, 1232, 1382
3172, 1032, 1262, 937, 1349
3173, 767, 1308, 827, 1389
3174, 610, 805, 1238, 1450
3175, 627, 625, 493, 1226
3176, 1166, 1327, 1135, 1385
3177, 919, 918, 926, 1274
3178, 1172, 1308, 1155, 1389
3179, 383, 217, 382, 1395
3180, 617, 664, 125, 750
3181, 496, 490, 491, 1207
3182, 1236, 1360, 953, 1409
3183, 295, 1217, 434, 1397
3184, 812, 716, 1215, 1345
3185, 516, 448, 518, 1379
3186, 1130, 1200, 1340, 1405
3187, 342, 341, 340, 1270
3188, 463, 1159, 511, 1235
3189, 688, 815, 708, 1203
3190, 1222, 1331, 1125, 1416
3191, 1137, 1317, 1318, 1440
3192, 1156, 1318, 1317, 1440
3193, 377, 1228, 298, 1414
3194, 1181, 1438, 1321, 1455
3195, 1317, 1318, 1161, 1429
3196, 229, 1231, 1010, 1442
3197, 295, 1334, 1217, 1397
3198, 843, 770, 1272, 1427
3199, 625, 1226, 474, 1359
3200, 1175, 1125, 1312, 1430
3201, 227, 393, 982, 1353
3202, 796, 841, 774, 1256
3203, 1177, 1374, 1327, 1385
3204, 179, 877, 1012, 775
3205, 1027, 921, 916, 1258
3206, 72, 349, 247, 531
3207, 1154, 1298, 1175, 1376
3208, 470, 529, 240, 1211
3209, 426, 1184, 239, 1444
3210, 564, 1417, 1221, 1453
3211, 883, 1183, 1069, 1443
3212, 337, 339, 1245, 1326
3213, 649, 159, 1109, 1099
3214, 269, 1225, 1305, 1407
3215, 862, 1077, 214, 1084
3216, 338, 1248, 1326, 1369
3217, 269, 1305, 1225, 1393
3218, 878, 963, 1060, 1406
3219, 1125, 1314, 1195, 1430
3220, 346, 376, 231, 1299
3221, 984, 986, 985, 1447
3222, 487, 1304, 1211, 1425
3223, 1073, 871, 1066, 1323
3224, 454, 1221, 311, 1453
3225, 973, 1314, 1229, 1402
3226, 780, 1222, 828, 1394
3227, 1128, 1325, 1231, 1346
3228, 858, 726, 1249, 1319
3229, 414, 1327, 350, 1373
3230, 625, 494, 1296, 1359
3231, 1173, 1398, 1307, 1446
3232, 665, 796, 127, 559
3233, 1124, 1283, 1181, 1438
3234, 861, 1108, 210, 1101
3235, 835, 1256, 744, 1437
3236, 650, 1085, 207, 1075
3237, 1307, 1398, 1165, 1446
3238, 1132, 1343, 1232, 1388
3239, 601, 1100, 435, 1364
3240, 1141, 1395, 1300, 1415
3241, 758, 1212, 856, 1392
3242, 1132, 1233, 1280, 1400
3243, 1064, 1229, 973, 1314
3244, 742, 743, 680, 1437
3245, 993, 1322, 1232, 1388
3246, 1059, 1011, 1062, 1233
3247, 946, 1285, 947, 1362
3248, 727, 725, 749, 1244
3249, 839, 695, 688, 1335
3250, 954, 953, 1360, 1409
3251, 1007, 1006, 17, 353
3252, 824, 1015, 685, 1449
3253, 523, 1164, 464, 1269
3254, 820, 744, 774, 1256
3255, 1049, 1300, 899, 1415
3256, 357, 394, 430, 1289
3257, 610, 1238, 643, 1450
3258, 1108, 1104, 1267, 1344
3259, 1137, 1318, 1317, 1429
3260, 1195, 1138, 1381, 1430
3261, 1257, 1424, 1205, 1425
3262, 1137, 1424, 1257, 1425
3263, 816, 1292, 837, 1408
3264, 1010, 1231, 1063, 1442
3265, 349, 72, 449, 531
3266, 922, 1030, 1049, 1267
3267, 716, 1294, 1215, 1345
3268, 439, 594, 90, 296
3269, 763, 683, 183, 981
3270, 31, 323, 958, 894
3271, 131, 467, 788, 547
3272, 250, 572, 79, 300
3273, 669, 139, 805, 588
3274, 373, 39, 955, 237
3275, 552, 1286, 549, 1420
3276, 1040, 1071, 867, 1414
3277, 350, 1327, 1246, 1373
3278, 497, 625, 627, 1226
3279, 1157, 1166, 1385, 1447
3280, 840, 1200, 703, 1329
3281, 1147, 1341, 1170, 1388
3282, 627, 1226, 493, 1375
3283, 1180, 1312, 1125, 1430
3284, 191, 1020, 881, 803
3285, 158, 1099, 649, 817
3286, 642, 634, 570, 1337
3287, 455, 371, 87, 590
3288, 485, 1425, 1211, 1444
3289, 770, 1276, 1272, 1427
3290, 1038, 1220, 970, 1402
3291, 1186, 1356, 1308, 1406
3292, 447, 512, 528, 1237
3293, 1077, 1086, 1025, 215
3294, 1110, 211, 1101, 1028
3295, 1234, 1313, 998, 1330
3296, 371, 391, 429, 1247
3297, 326, 331, 325, 1442
3298, 1021, 1023, 930, 1249
3299, 61, 443, 597, 287
3300, 1200, 1340, 1405, 1454
3301, 819, 706, 704, 1284
3302, 1114, 1105, 1115, 1309
3303, 1232, 1322, 1187, 1387
3304, 206, 816, 650, 1075
3305, 1079, 1087, 1292, 1320
3306, 1171, 1377, 1187, 1387
3307, 1089, 1320, 1096, 1396
3308, 711, 202, 924, 688
3309, 455, 590, 584, 1247
3310, 994, 1322, 993, 1388
3311, 920, 674, 795, 1454
3312, 397, 1332, 315, 1439
3313, 608, 1304, 1224, 1342
3314, 283, 281, 379, 1224
3315, 517, 460, 515, 1239
3316, 1034, 1032, 949, 1262
3317, 1026, 1213, 1027, 1339
3318, 842, 1272, 770, 1276
3319, 506, 530, 508, 1248
3320, 236, 1220, 969, 1439
3321, 698, 1210, 1424, 1443
3322, 521, 523, 1310, 1374
3323, 395, 431, 323, 1287
3324, 1087, 1076, 436, 1320
3325, 414, 346, 1327, 1373
3326, 819, 837, 706, 1408
3327, 1128, 1350, 1235, 1377
3328, 425, 287, 286, 1216
3329, 298, 1228, 1397, 1414
3330, 178, 1012, 876, 682
3331, 973, 1043, 1402, 1449
3332, 542, 628, 1370, 1431
3333, 1068, 1228, 1009, 1414
3334, 144, 456, 581, 760
3335, 1002, 873, 998, 1234
3336, 973, 1229, 880, 1449
3337, 1168, 1346, 1188, 1403
3338, 710, 162, 900, 921
3339, 1130, 1207, 1305, 1426
3340, 1242, 1385, 1157, 1437
3341, 1159, 1386, 1188, 1403
3342, 734, 736, 1187, 1387
3343, 1237, 1325, 1128, 1346
3344, 1189, 1139, 1378, 1445
3345, 738, 737, 662, 1239
3346, 1156, 1184, 1318, 1440
3347, 1221, 1416, 1153, 1417
3348, 1211, 1304, 487, 1342
3349, 1137, 1257, 1206, 1351
3350, 1206, 1257, 1137, 1352
3351, 564, 1221, 454, 1453
3352, 654, 142, 541, 807
3353, 1090, 1365, 1091, 1396
3354, 588, 643, 610, 1238
3355, 177, 876, 1003, 830
3356, 1237, 1346, 1128, 1432
3357, 930, 1249, 1316, 1372
3358, 641, 452, 375, 1357
3359, 332, 1325, 333, 1346
3360, 305, 1378, 302, 1451
3361, 675, 792, 1023, 1249
3362, 840, 1200, 1329, 1454
3363, 840, 838, 703, 1200
3364, 830, 178, 876, 682
3365, 629, 1413, 1173, 1446
3366, 59, 444, 490, 275
3367, 762, 823, 802, 1423
3368, 920, 1202, 915, 1454
3369, 515, 460, 533, 1235
3370, 949, 1285, 946, 1434
3371, 1137, 1184, 1351, 1440
3372, 827, 768, 666, 1389
3373, 872, 1023, 792, 1249
3374, 328, 411, 1280, 1379
3375, 1007, 931, 1006, 1245
3376, 632, 454, 564, 1221
3377, 413, 410, 347, 1333
3378, 804, 799, 805, 1238
3379, 1135, 1170, 1341, 1373
3380, 59, 444, 275, 226
3381, 259, 276, 260, 1415
3382, 432, 414, 350, 1373
3383, 467, 826, 788, 1324
3384, 513, 1350, 1235, 1432
3385, 815, 707, 836, 1266
3386, 491, 492, 493, 1375
3387, 704, 703, 838, 1284
3388, 707, 692, 691, 1252
3389, 316, 1298, 423, 1376
3390, 203, 923, 898, 708
3391, 955, 1071, 1040, 1240
3392, 306, 244, 308, 1263
3393, 390, 370, 299, 1418
3394, 1212, 1301, 1131, 1419
3395, 854, 131, 788, 547
3396, 300, 572, 79, 641
3397, 323, 431, 31, 958
3398, 183, 1072, 763, 981
3399, 517, 596, 460, 1239
3400, 601, 1117, 1107, 1251
3401, 1137, 1318, 1184, 1440
3402, 441, 592, 614, 1450
3403, 287, 597, 61, 424
3404, 630, 631, 554, 1263
3405, 91, 535, 439, 427
3406, 1115, 1309, 1112, 1395
3407, 730, 679, 1167, 1234
3408, 804, 1238, 805, 1450
3409, 388, 287, 425, 1216
3410, 371, 428, 87, 590
3411, 1188, 1346, 1168, 1369
3412, 548, 550, 467, 1324
3413, 989, 990, 1018, 1273
3414, 489, 482, 626, 1361
3415, 1137, 1351, 1206, 1440
3416, 773, 772, 771, 1276
3417, 474, 497, 111, 700
3418, 1107, 1251, 1113, 1364
3419, 1020, 191, 852, 803
3420, 419, 236, 315, 1220
3421, 1026, 862, 214, 1084
3422, 300, 641, 375, 1357
3423, 346, 432, 376, 1373
3424, 1135, 1310, 1198, 1341
3425, 1096, 1079, 1081, 1396
3426, 1171, 1350, 1196, 1448
3427, 761, 807, 756, 1241
3428, 807, 142, 541, 639
3429, 328, 1280, 412, 1379
3430, 367, 373, 372, 1240
3431, 1035, 1023, 872, 1249
3432, 435, 1100, 107, 1111
3433, 1050, 1025, 862, 1339
3434, 407, 263, 255, 1361
3435, 1176, 1365, 1140, 1396
3436, 814, 649, 159, 1109
3437, 537, 1370, 1265, 1431
3438, 612, 551, 1286, 1357
3439, 576, 509, 511, 1159
3440, 1265, 1370, 1136, 1431
3441, 82, 453, 578, 1366
3442, 210, 1029, 1108, 861
3443, 410, 307, 1290, 1333
3444, 727, 749, 660, 1244
3445, 106, 601, 1100, 435
3446, 263, 1201, 255, 1361
3447, 706, 837, 690, 1359
3448, 1191, 1394, 1222, 1416
3449, 998, 1313, 999, 1330
3450, 1135, 1341, 1198, 1373
3451, 891, 345, 24, 1299
3452, 630, 1263, 554, 1307
3453, 1083, 154, 1076, 599
3454, 436, 1087, 155, 1076
3455, 1087, 436, 603, 1320
3456, 774, 835, 796, 1256
3457, 600, 435, 107, 1111
3458, 709, 838, 840, 1200
3459, 953, 1016, 1236, 1409
3460, 1188, 1346, 1237, 1432
3461, 813, 1162, 1294, 1345
3462, 880, 1229, 776, 1449
3463, 475, 99, 277, 489
3464, 909, 1317, 1210, 1443
3465, 1211, 1318, 266, 1444
3466, 811, 739, 741, 1343
3467, 650, 207, 1085, 818
3468, 1130, 1296, 1207, 1426
3469, 315, 236, 397, 1439
3470, 515, 533, 513, 1235
3471, 1077, 1086, 1090, 1339
3472, 1125, 1328, 1222, 1416
3473, 384, 218, 385, 1365
3474, 958, 960, 959, 1287
3475, 1137, 1183, 1317, 1440
3476, 517, 598, 1239, 1253
3477, 322, 301, 304, 1378
3478, 642, 570, 1277, 1337
3479, 1196, 1237, 1325, 1350
3480, 648, 646, 507, 1244
3481, 775, 1012, 179, 682
3482, 1159, 1403, 1188, 1432
3483, 466, 127, 796, 559
3484, 632, 1221, 564, 1328
3485, 780, 1331, 1222, 1394
3486, 1035, 1001, 1033, 1316
3487, 1115, 1113, 1112, 1309
3488, 722, 850, 719, 1254
3489, 737, 1343, 736, 1387
3490, 573, 659, 826, 1324
3491, 767, 768, 827, 1308
3492, 704, 701, 703, 1284
3493, 600, 624, 435, 1364
3494, 535, 91, 238, 427
3495, 735, 662, 737, 1239
3496, 339, 353, 337, 1245
3497, 421, 316, 423, 1376
3498, 392, 311, 312, 1221
3499, 328, 411, 330, 1280
3500, 1188, 1386, 1159, 1432
3501, 1147, 1232, 1343, 1388
3502, 695, 815, 688, 1203
3503, 291, 284, 292, 1349
3504, 740, 742, 1243, 1437
3505, 730, 792, 728, 1167
3506, 551, 548, 549, 1286
3507, 727, 1319, 1244, 1347
3508, 490, 58, 275, 258
3509, 740, 821, 742, 1437
3510, 524, 464, 523, 1164
3511, 822, 759, 885, 1434
3512, 799, 1238, 804, 1423
3513, 1229, 1402, 1150, 1449
3514, 694, 692, 695, 1335
3515, 403, 382, 1117, 1251
3516, 228, 337, 353, 1245
3517, 231, 24, 345, 1299
3518, 999, 1053, 1000, 1330
3519, 327, 328, 1280, 1400
3520, 338, 1248, 420, 1326
3521, 494, 496, 491, 1296
3522, 513, 512, 1350, 1432
3523, 601, 620, 1117, 1251
3524, 139, 669, 640, 588
3525, 39, 1070, 955, 237
3526, 248, 82, 578, 1366
3527, 271, 273, 269, 1305
3528, 1183, 1137, 1352, 1440
3529, 626, 481, 645, 1361
3530, 1206, 1352, 1137, 1440
3531, 262, 407, 426, 1361
3532, 403, 1117, 620, 1251
3533, 553, 461, 555, 1272
3534, 82, 319, 453, 1366
3535, 402, 1046, 901, 1302
3536, 937, 936, 935, 1262
3537, 777, 780, 825, 1331
3538, 1232, 736, 1343, 1387
3539, 616, 582, 583, 1453
3540, 372, 367, 1240, 1418
3541, 626, 1275, 481, 1361
3542, 486, 1304, 487, 1425
3543, 1045, 401, 899, 1300
3544, 264, 266, 265, 1318
3545, 909, 907, 908, 1317
3546, 414, 432, 346, 1373
3547, 778, 779, 777, 1331
3548, 1185, 1136, 1370, 1411
3549, 537, 545, 544, 1265
3550, 552, 612, 551, 1286
3551, 1064, 880, 973, 1229
3552, 983, 891, 24, 1299
3553, 10, 257, 901, 1407
3554, 337, 1326, 1245, 1369
3555, 1104, 1109, 1266, 1344
3556, 1171, 1235, 1350, 1377
3557, 630, 574, 631, 1263
3558, 839, 711, 849, 1335
3559, 1187, 1313, 1234, 1377
3560, 924, 883, 201, 711
3561, 256, 1300, 404, 1415
3562, 1402, 1409, 1150, 1449
3563, 692, 707, 695, 1252
3564, 1016, 881, 953, 1236
3565, 687, 709, 163, 870
3566, 484, 1351, 1257, 1425
3567, 731, 732, 1348, 1377
3568, 728, 729, 730, 1347
3569, 301, 1357, 302, 1378
3570, 540, 1293, 1241, 1383
3571, 1137, 1317, 1424, 1429
3572, 1210, 1424, 1317, 1429
3573, 329, 376, 1373, 1400
3574, 269, 1305, 274, 1407
3575, 907, 1317, 909, 1443
3576, 1003, 753, 680, 1404
3577, 522, 523, 1269, 1310
3578, 266, 1318, 264, 1444
3579, 311, 1221, 392, 1453
3580, 231, 983, 24, 1299
3581, 922, 1049, 899, 1415
3582, 1212, 1392, 1301, 1419
3583, 676, 874, 173, 991
3584, 701, 706, 700, 1359
3585, 1060, 965, 1315, 1441
3586, 915, 914, 1044, 1340
3587, 697, 1257, 1352, 1424
3588, 52, 899, 1045, 401
3589, 1281, 1323, 1193, 1435
3590, 459, 646, 648, 1244
3591, 155, 603, 1087, 436
3592, 901, 402, 9, 1046
3593, 367, 1338, 1240, 1418
3594, 677, 771, 769, 1315
3595, 873, 676, 172, 991
3596, 747, 533, 119, 661
3597, 747, 660, 118, 576
3598, 215, 1025, 1077, 862
3599, 1090, 1302, 1082, 1365
3600, 1075, 1079, 1078, 1408
3601, 804, 1423, 1238, 1450
3602, 548, 547, 549, 1389
3603, 666, 593, 854, 1389
3604, 799, 1354, 1238, 1423
3605, 832, 152, 618, 1297
3606, 479, 482, 499, 1275
3607, 211, 861, 1101, 1028
3608, 470, 487, 529, 1211
3609, 509, 510, 511, 1386
3610, 723, 721, 751, 1390
3611, 930, 1249, 1035, 1316
3612, 645, 483, 546, 1444
3613, 682, 743, 820, 1242
3614, 239, 278, 97, 438
3615, 738, 596, 122, 468
3616, 1146, 1320, 1176, 1396
3617, 545, 92, 380, 1265
3618, 1087, 603, 1292, 1320
3619, 627, 495, 636, 1399
3620, 533, 745, 120, 661
3621, 540, 1241, 614, 1383
3622, 1218, 1370, 1136, 1411
3623, 642, 572, 611, 1337
3624, 852, 192, 943, 655
3625, 783, 1381, 782, 1435
3626, 1176, 1396, 1140, 1426
3627, 1247, 1371, 584, 1421
3628, 539, 542, 638, 1370
3629, 764, 765, 767, 1308
3630, 432, 329, 376, 1373
3631, 965, 1264, 1315, 1441
3632, 176, 753, 680, 1003
3633, 634, 642, 445, 1337
3634, 826, 467, 573, 1324
3635, 1159, 1235, 1348, 1432
3636, 223, 88, 428, 473
3637, 547, 854, 593, 1389
3638, 1128, 1348, 1235, 1432
3639, 1109, 1099, 1104, 1266
3640, 421, 423, 235, 1376
3641, 686, 141, 639, 441
3642, 1041, 1356, 963, 1406
3643, 1106, 1300, 1114, 1395
3644, 257, 1302, 901, 1407
3645, 1231, 1325, 1148, 1442
3646, 804, 686, 761, 1450
3647, 785, 789, 766, 1323
3648, 995, 987, 1042, 1388
3649, 943, 1020, 192, 852
3650, 944, 946, 947, 1362
3651, 970, 1314, 973, 1402
3652, 470, 1211, 289, 1444
3653, 733, 732, 731, 1377
3654, 768, 1308, 765, 1427
3655, 308, 1290, 307, 1451
3656, 538, 1293, 540, 1383
3657, 396, 350, 349, 1246
3658, 372, 253, 298, 1414
3659, 460, 121, 745, 662
3660, 944, 951, 945, 1362
3661, 755, 754, 717, 1260
3662, 194, 885, 759, 1434
3663, 854, 666, 130, 593
3664, 78, 375, 641, 452
3665, 403, 620, 475, 1251
3666, 358, 417, 414, 1327
3667, 30, 1019, 431, 234
3668, 696, 849, 671, 1443
3669, 521, 1310, 1246, 1374
3670, 1136, 1370, 1260, 1431
3671, 473, 88, 428, 590
3672, 547, 854, 130, 593
3673, 375, 300, 78, 641
3674, 431, 1019, 30, 958
3675, 596, 738, 122, 662
3676, 595, 592, 589, 1383
3677, 141, 807, 686, 639
3678, 248, 319, 82, 1366
3679, 317, 248, 320, 1366
3680, 1026, 900, 1027, 1213
3681, 1113, 1251, 1309, 1364
3682, 793, 168, 1021, 675
3683, 1108, 1267, 1029, 1344
3684, 564, 616, 1417, 1453
3685, 597, 444, 60, 424
3686, 825, 776, 1229, 1449
3687, 585, 584, 1371, 1421
3688, 1327, 1374, 1135, 1385
3689, 536, 539, 538, 1293
3690, 914, 870, 1044, 1200
3691, 553, 552, 549, 1420
3692, 292, 294, 293, 1334
3693, 789, 1037, 683, 1323
3694, 973, 880, 1043, 1449
3695, 816, 1078, 1094, 1292
3696, 302, 301, 300, 1357
3697, 226, 60, 444, 424
3698, 255, 263, 383, 1201
3699, 154, 436, 1076, 599
3700, 194, 950, 885, 1434
3701, 1038, 969, 970, 1220
3702, 1246, 1327, 1177, 1374
3703, 1027, 916, 925, 1258
3704, 293, 1334, 295, 1397
3705, 789, 871, 1037, 1323
3706, 752, 171, 1002, 873
3707, 537, 542, 1370, 1431
3708, 622, 558, 1255, 1413
3709, 542, 543, 628, 1431
3710, 1008, 186, 879, 1336
3711, 860, 858, 726, 1249
3712, 564, 1328, 1221, 1417
3713, 675, 860, 792, 1249
3714, 380, 92, 238, 1265
3715, 905, 1279, 903, 1452
3716, 385, 258, 384, 1422
3717, 979, 961, 980, 1268
3718, 672, 1210, 884, 1358
3719, 367, 370, 1338, 1418
3720, 1043, 1015, 1016, 1449
3721, 186, 1008, 681, 1336
3722, 417, 351, 414, 1327
3723, 851, 950, 194, 1434
3724, 941, 1210, 746, 1443
3725, 784, 879, 186, 1336
3726, 799, 802, 1354, 1423
3727, 507, 1311, 508, 1386
3728, 816, 1094, 831, 1292
3729, 598, 468, 596, 1239
3730, 756, 1301, 758, 1392
3731, 299, 372, 1397, 1418
3732, 316, 313, 317, 1298
3733, 313, 319, 317, 1366
3734, 429, 252, 369, 1453
3735, 334, 333, 409, 1346
3736, 196, 882, 670, 1345
3737, 1203, 1267, 1266, 1344
3738, 965, 1264, 1056, 1315
3739, 766, 1281, 786, 1435
3740, 117, 660, 459, 576
3741, 332, 333, 334, 1346
3742, 1044, 1200, 870, 1454
3743, 722, 723, 724, 1390
3744, 550, 1277, 570, 1455
3745, 811, 859, 684, 1382
3746, 1009, 377, 41, 1414
3747, 341, 342, 343, 1270
3748, 969, 1220, 1038, 1439
3749, 825, 776, 777, 1229
3750, 511, 510, 512, 1432
3751, 262, 1295, 407, 1361
3752, 709, 1200, 840, 1454
3753, 1146, 1396, 1176, 1426
3754, 468, 598, 647, 1391
3755, 584, 583, 1247, 1421
3756, 70, 251, 519, 1379
3757, 726, 1319, 727, 1347
3758, 10, 901, 911, 1407
3759, 752, 732, 734, 1187
3760, 94, 529, 437, 1342
3761, 915, 920, 918, 1202
3762, 537, 543, 542, 1431
3763, 1038, 1220, 1402, 1439
3764, 1128, 1348, 1234, 1377
3765, 839, 849, 694, 1335
3766, 257, 10, 268, 1407
3767, 759, 851, 194, 1434
3768, 331, 333, 332, 1325
3769, 842, 843, 770, 1272
3770, 1159, 1348, 1403, 1432
3771, 896, 1017, 1036, 1439
3772, 494, 604, 1296, 1359
3773, 947, 948, 1054, 1285
3774, 321, 1283, 433, 1353
3775, 1186, 1427, 1308, 1428
3776, 1308, 1427, 1172, 1428
3777, 736, 808, 676, 1187
3778, 338, 1326, 337, 1369
3779, 1128, 1235, 1348, 1377
3780, 1031, 918, 920, 1202
3781, 734, 676, 752, 1187
3782, 624, 1297, 476, 1384
3783, 1111, 1100, 1120, 1364
3784, 1128, 1403, 1348, 1432
3785, 743, 744, 820, 1242
3786, 621, 498, 831, 1292
3787, 540, 541, 614, 1241
3788, 860, 675, 858, 1249
3789, 1033, 1001, 1000, 1330
3790, 538, 540, 595, 1383
3791, 1317, 1440, 1183, 1452
3792, 1156, 1440, 1317, 1452
3793, 663, 750, 740, 1269
3794, 557, 556, 555, 1307
3795, 1132, 1343, 1239, 1387
3796, 734, 736, 676, 1187
3797, 742, 1404, 1243, 1437
3798, 569, 550, 570, 1455
3799, 583, 455, 584, 1247
3800, 1148, 1313, 1231, 1442
3801, 321, 322, 433, 1283
3802, 186, 681, 784, 1336
3803, 931, 930, 1316, 1372
3804, 732, 1234, 1348, 1377
3805, 533, 747, 463, 1235
3806, 811, 737, 739, 1343
3807, 407, 278, 426, 1361
3808, 1026, 1027, 862, 1339
3809, 1094, 603, 621, 1292
3810, 757, 756, 755, 1301
3811, 994, 995, 1059, 1388
3812, 708, 898, 203, 688
3813, 507, 506, 508, 1311
3814, 556, 1307, 557, 1446
3815, 1074, 1082, 386, 1365
3816, 689, 691, 151, 1384
3817, 539, 536, 542, 1370
3818, 728, 860, 726, 1347
3819, 1222, 1416, 1328, 1417
3820, 1041, 963, 878, 1406
3821, 1000, 998, 999, 1330
3822, 162, 710, 687, 921
3823, 519, 448, 70, 1379
3824, 110, 690, 498, 1359
3825, 438, 626, 645, 1361
3826, 766, 786, 785, 1435
3827, 857, 673, 850, 1254
3828, 418, 420, 338, 1248
3829, 983, 1042, 984, 1299
3830, 366, 397, 365, 1439
3831, 164, 870, 709, 1454
3832, 819, 1213, 818, 1408
3833, 1228, 1362, 1144, 1414
3834, 855, 1281, 787, 1324
3835, 1080, 1075, 1085, 1408
3836, 744, 835, 774, 1256
3837, 329, 412, 328, 1400
3838, 541, 639, 614, 1241
3839, 562, 563, 561, 1328
3840, 689, 151, 476, 1384
3841, 717, 715, 716, 1294
3842, 233, 968, 28, 1333
3843, 1113, 1309, 1120, 1364
3844, 769, 768, 765, 1427
3845, 953, 954, 1016, 1409
3846, 703, 701, 702, 1329
3847, 567, 1321, 566, 1455
3848, 297, 44, 957, 1349
3849, 437, 545, 93, 380
3850, 888, 28, 968, 1333
3851, 419, 315, 314, 1312
3852, 875, 1382, 753, 1404
3853, 1077, 1097, 1084, 1339
3854, 1107, 1113, 1100, 1364
3855, 470, 240, 289, 1211
3856, 735, 737, 736, 1387
3857, 1243, 1404, 1157, 1437
3858, 1041, 1072, 981, 1406
3859, 523, 606, 525, 1374
3860, 604, 496, 494, 1296
3861, 296, 295, 294, 1334
3862, 1063, 996, 1062, 1442
3863, 1144, 1397, 1228, 1414
3864, 771, 1276, 770, 1427
3865, 564, 454, 616, 1453
3866, 867, 1009, 41, 1414
3867, 308, 307, 306, 1451
3868, 196, 1024, 882, 1345
3869, 855, 787, 788, 1324
3870, 700, 690, 110, 1359
3871, 776, 189, 880, 1449
3872, 202, 898, 924, 688
3873, 242, 420, 418, 1248
3874, 951, 1362, 1068, 1414
3875, 831, 1094, 621, 1292
3876, 70, 360, 251, 1379
3877, 255, 277, 99, 489
3878, 801, 853, 685, 1449
3879, 402, 901, 257, 1302
3880, 843, 842, 790, 1272
3881, 888, 347, 28, 1333
3882, 970, 971, 972, 1314
3883, 1081, 1089, 1096, 1396
3884, 611, 250, 324, 1337
3885, 636, 458, 627, 1399
3886, 470, 485, 1211, 1444
3887, 256, 899, 401, 1300
3888, 303, 321, 320, 1283
3889, 964, 963, 960, 1441
3890, 966, 1264, 965, 1441
3891, 907, 904, 908, 1452
3892, 1196, 1280, 1253, 1448
3893, 1112, 55, 1098, 217
3894, 1074, 386, 218, 1365
3895, 998, 997, 999, 1313
3896, 1111, 1103, 1102, 1297
3897, 337, 338, 339, 1326
3898, 354, 241, 408, 1355
3899, 665, 790, 842, 1272
3900, 70, 448, 360, 1379
3901, 1235, 1350, 1128, 1432
3902, 598, 522, 647, 1310
3903, 513, 1235, 511, 1432
3904, 969, 37, 236, 1439
3905, 558, 525, 622, 1255
3906, 941, 672, 746, 1210
3907, 513, 512, 514, 1350
3908, 298, 299, 372, 1397
3909, 884, 1210, 932, 1358
3910, 713, 699, 712, 1306
3911, 431, 395, 234, 1287
3912, 988, 1273, 989, 1447
3913, 884, 672, 941, 1210
3914, 1036, 1017, 954, 1409
3915, 152, 832, 689, 1297
3916, 892, 34, 355, 1376
3917, 1121, 1101, 1108, 1267
3918, 499, 478, 479, 1384
3919, 684, 808, 811, 1232
3920, 672, 712, 1210, 1358
3921, 168, 1023, 1021, 675
3922, 152, 476, 618, 1297
3923, 1088, 1074, 103, 218
3924, 478, 151, 691, 1384
3925, 808, 684, 174, 1014
3926, 722, 857, 850, 1254
3927, 611, 324, 445, 1337
3928, 772, 842, 770, 1276
3929, 674, 164, 709, 1454
3930, 912, 911, 925, 1407
3931, 253, 41, 377, 1414
3932, 313, 314, 312, 1312
3933, 874, 808, 174, 1014
3934, 1132, 1253, 1280, 1448
3935, 691, 689, 707, 1384
3936, 195, 851, 670, 882
3937, 673, 167, 886, 793
3938, 330, 333, 331, 1325
3939, 387, 1106, 1098, 1395
3940, 899, 52, 256, 401
3941, 704, 706, 701, 1284
3942, 44, 297, 291, 1349
3943, 48, 942, 290, 1363
3944, 257, 402, 9, 901
3945, 501, 500, 502, 1368
3946, 284, 381, 292, 1288
3947, 1098, 1115, 1112, 1395
3948, 818, 819, 710, 1213
3949, 386, 1092, 402, 1302
3950, 875, 987, 1039, 1382
3951, 233, 28, 347, 1333
3952, 999, 996, 1063, 1313
3953, 935, 936, 934, 1303
3954, 580, 622, 450, 1413
3955, 1099, 1103, 1104, 1266
3956, 195, 851, 882, 950
3957, 269, 274, 268, 1407
3958, 401, 1116, 387, 1300
3959, 630, 451, 574, 1263
3960, 332, 334, 335, 1346
3961, 1025, 1092, 1086, 1302
3962, 308, 244, 310, 1263
3963, 929, 927, 928, 1372
3964, 1135, 1327, 1246, 1374
3965, 663, 534, 1269, 1391
3966, 555, 1307, 554, 1420
3967, 260, 263, 262, 1295
3968, 1221, 1417, 1153, 1453
3969, 1110, 1116, 1028, 1300
3970, 10, 911, 268, 1407
3971, 498, 1292, 604, 1359
3972, 761, 756, 758, 1392
3973, 938, 863, 933, 1250
3974, 1013, 989, 893, 1259
3975, 993, 994, 992, 1322
3976, 293, 295, 298, 1397
3977, 288, 280, 219, 1250
3978, 282, 283, 284, 1288
3979, 744, 1242, 743, 1437
3980, 650, 816, 837, 1408
3981, 1079, 1087, 1078, 1292
3982, 1090, 1091, 1081, 1396
3983, 382, 1112, 1117, 1251
3984, 475, 277, 403, 1251
3985, 1145, 1367, 1227, 1412
3986, 425, 241, 388, 1355
3987, 817, 1118, 1102, 1297
3988, 746, 1210, 698, 1443
3989, 387, 1098, 217, 1395
3990, 1062, 887, 1063, 1442
3991, 405, 386, 1302, 1365
3992, 690, 1292, 498, 1359
3993, 950, 949, 946, 1434
3994, 443, 61, 388, 287
3995, 98, 438, 278, 1361
3996, 467, 550, 573, 1324
3997, 579, 657, 113, 1399
3998, 1038, 1402, 1017, 1439
3999, 1106, 1110, 1114, 1300
4000, 1087, 603, 1094, 1292
4001, 712, 698, 1210, 1424
4002, 54, 387, 1106, 1098
4003, 726, 725, 727, 1319
4004, 785, 783, 782, 1435
4005, 1090, 1086, 1082, 1302
4006, 1002, 872, 170, 679
4007, 1082, 386, 102, 1074
4008, 1010, 20, 229, 1442
4009, 507, 646, 505, 1311
4010, 432, 396, 329, 1373
4011, 776, 685, 189, 1449
4012, 921, 687, 163, 870
4013, 1128, 1350, 1237, 1432
4014, 759, 822, 885, 194
4015, 594, 389, 90, 296
4016, 464, 617, 125, 750
4017, 34, 235, 355, 1376
4018, 555, 461, 559, 1272
4019, 610, 805, 139, 588
4020, 485, 487, 1211, 1425
4021, 464, 750, 124, 1269
4022, 894, 32, 393, 982
4023, 467, 573, 132, 826
4024, 184, 683, 789, 1037
4025, 324, 611, 80, 250
4026, 193, 885, 943, 822
4027, 44, 956, 957, 1349
4028, 443, 388, 62, 532
4029, 55, 1112, 382, 217
4030, 999, 997, 996, 1313
4031, 521, 606, 523, 1374
4032, 333, 330, 416, 1325
4033, 386, 1082, 1302, 1365
4034, 459, 648, 576, 1244
4035, 1246, 1327, 1135, 1373
4036, 1105, 1120, 1113, 1309
4037, 191, 881, 824, 803
4038, 955, 1040, 39, 373
4039, 1040, 40, 373, 253
4040, 1037, 183, 683, 981
4041, 611, 572, 79, 250
4042, 323, 31, 393, 894
4043, 131, 467, 826, 788
4044, 387, 404, 1300, 1395
4045, 473, 389, 89, 594
4046, 87, 391, 371, 455
4047, 34, 977, 235, 1376
4048, 585, 615, 587, 1421
4049, 817, 832, 1118, 1297
4050, 478, 476, 151, 1384
4051, 781, 783, 847, 1381
4052, 357, 356, 394, 1259
4053, 44, 291, 956, 1349
4054, 603, 604, 1292, 1320
4055, 1230, 1368, 1143, 1399
4056, 1088, 1091, 1074, 1365
4057, 534, 464, 124, 1269
4058, 1046, 1092, 1025, 1302
4059, 1200, 1405, 1329, 1454
4060, 724, 726, 858, 1319
4061, 892, 977, 34, 1376
4062, 505, 506, 507, 1311
4063, 328, 412, 411, 1379
4064, 222, 866, 48, 1363
4065, 564, 613, 1328, 1417
4066, 601, 602, 1251, 1364
4067, 282, 281, 283, 1291
4068, 85, 454, 311, 1453
4069, 48, 866, 942, 1363
4070, 222, 48, 290, 1363
4071, 240, 279, 1211, 1342
4072, 815, 1266, 814, 1344
4073, 679, 752, 1002, 1234
4074, 987, 1058, 986, 1271
4075, 138, 669, 797, 640
4076, 365, 1070, 38, 237
4077, 384, 1088, 103, 218
4078, 253, 867, 41, 1414
4079, 946, 948, 947, 1285
4080, 1045, 1028, 1116, 1300
4081, 304, 302, 305, 1378
4082, 54, 387, 1098, 217
4083, 146, 591, 720, 1433
4084, 247, 349, 350, 1246
4085, 605, 525, 558, 1255
4086, 1143, 1380, 1230, 1399
4087, 386, 1082, 1092, 1302
4088, 587, 1417, 616, 1421
4089, 1104, 1108, 1109, 1344
4090, 315, 312, 314, 1312
4091, 690, 831, 498, 1292
4092, 978, 961, 979, 1268
4093, 541, 609, 142, 654
4094, 1074, 386, 102, 218
4095, 987, 995, 1039, 1388
4096, 527, 440, 484, 1257
4097, 686, 805, 140, 1450
4098, 729, 731, 730, 1348
4099, 905, 903, 904, 1452
4100, 387, 1116, 1106, 1300
4101, 1056, 1060, 965, 1315
4102, 771, 677, 775, 1315
4103, 1029, 1267, 1030, 1344
4104, 697, 652, 748, 1257
4105, 276, 256, 404, 1415
4106, 805, 610, 140, 1450
4107, 449, 531, 521, 1246
4108, 360, 411, 412, 1379
4109, 564, 613, 561, 1328
4110, 495, 500, 501, 1368
4111, 654, 609, 143, 754
4112, 772, 770, 771, 1276
4113, 1232, 1343, 1132, 1387
4114, 600, 1118, 618, 1297
4115, 164, 1044, 870, 1454
4116, 885, 950, 946, 1434
4117, 990, 989, 988, 1273
4118, 689, 476, 1297, 1384
4119, 719, 848, 705, 1380
4120, 366, 369, 397, 1332
4121, 366, 367, 368, 1338
4122, 1227, 1410, 1145, 1412
4123, 524, 525, 605, 1255
4124, 640, 797, 138, 469
4125, 717, 813, 755, 1294
4126, 736, 811, 1232, 1343
4127, 896, 1070, 38, 365
4128, 388, 241, 62, 532
4129, 13, 869, 225, 1412
4130, 1076, 1096, 1089, 1320
4131, 972, 1064, 973, 1314
4132, 657, 809, 113, 1399
4133, 994, 993, 995, 1388
4134, 503, 502, 504, 1261
4135, 321, 303, 322, 1283
4136, 930, 1023, 1035, 1249
4137, 659, 132, 573, 826
4138, 32, 227, 393, 982
4139, 871, 184, 789, 1037
4140, 445, 611, 80, 324
4141, 930, 1035, 931, 1316
4142, 236, 37, 365, 1439
4143, 177, 1003, 680, 830
4144, 739, 740, 741, 1243
4145, 368, 367, 370, 1338
4146, 40, 1040, 867, 253
4147, 1113, 1107, 1112, 1251
4148, 605, 1255, 558, 1446
4149, 1106, 387, 1300, 1395
4150, 903, 905, 906, 1279
4151, 576, 511, 463, 1159
4152, 726, 727, 728, 1347
4153, 385, 274, 273, 1305
4154, 996, 994, 1062, 1322
4155, 771, 770, 769, 1427
4156, 458, 579, 113, 1399
4157, 189, 1015, 880, 1449
4158, 990, 988, 1061, 1273
4159, 628, 581, 456, 1260
4160, 537, 542, 536, 1370
4161, 963, 962, 960, 1356
4162, 487, 470, 485, 1211
4163, 969, 896, 37, 1439
4164, 909, 1210, 941, 1443
4165, 612, 641, 572, 1357
4166, 289, 1211, 266, 1444
4167, 569, 567, 566, 1455
4168, 912, 914, 913, 1340
4169, 840, 1329, 705, 1454
4170, 458, 113, 809, 1399
4171, 974, 975, 976, 1278
4172, 1004, 1056, 877, 1315
4173, 966, 965, 964, 1441
4174, 182, 763, 1072, 1406
4175, 1068, 1071, 951, 1414
4176, 152, 689, 476, 1297
4177, 1048, 923, 833, 1344
4178, 351, 350, 414, 1327
4179, 1119, 1029, 1048, 1344
4180, 432, 350, 396, 1373
4181, 994, 996, 992, 1322
4182, 730, 679, 792, 1167
4183, 584, 585, 583, 1421
4184, 675, 169, 1023, 792
4185, 369, 252, 392, 1453
4186, 1044, 920, 915, 1454
4187, 822, 943, 193, 655
4188, 182, 1072, 878, 1406
4189, 945, 952, 953, 1360
4190, 338, 336, 418, 1369
4191, 223, 389, 89, 473
4192, 1111, 1118, 600, 1297
4193, 229, 20, 325, 1442
4194, 636, 495, 501, 1368
4195, 252, 85, 311, 1453
4196, 724, 725, 726, 1319
4197, 509, 648, 507, 1386
4198, 965, 966, 967, 1264
4199, 1257, 1351, 1137, 1425
4200, 1137, 1352, 1257, 1424
4201, 1060, 1056, 1004, 1315
4202, 545, 537, 535, 1265
4203, 609, 456, 143, 754
4204, 800, 799, 802, 1354
4205, 698, 746, 712, 1210
4206, 1010, 887, 20, 1442
4207, 934, 932, 1303, 1358
4208, 836, 689, 817, 1297
4209, 387, 404, 256, 1300
4210, 196, 670, 812, 1345
4211, 335, 336, 337, 1369
4212, 983, 984, 891, 1299
4213, 854, 788, 827, 1389
4214, 883, 201, 711, 671
4215, 672, 712, 746, 1210
4216, 522, 521, 523, 1310
4217, 801, 685, 825, 1449
4218, 257, 405, 386, 1302
4219, 1032, 937, 956, 1349
4220, 923, 1029, 1030, 1344
4221, 1109, 1119, 814, 1344
4222, 423, 316, 318, 1298
4223, 720, 651, 146, 1433
4224, 837, 816, 690, 1292
4225, 486, 488, 487, 1304
4226, 551, 549, 552, 1286
4227, 960, 958, 1019, 1287
4228, 794, 667, 847, 1282
4229, 97, 239, 438, 546
4230, 1246, 1310, 1135, 1374
4231, 555, 554, 553, 1420
4232, 674, 1044, 164, 1454
4233, 1032, 1034, 937, 1262
4234, 965, 967, 1056, 1264
4235, 619, 400, 258, 1422
4236, 189, 685, 1015, 1449
4237, 1038, 970, 973, 1402
4238, 985, 988, 989, 1447
4239, 94, 437, 379, 1342
4240, 578, 453, 635, 1366
4241, 340, 338, 420, 1326
4242, 949, 948, 946, 1285
4243, 730, 732, 1234, 1348
4244, 507, 508, 509, 1386
4245, 798, 799, 800, 1354
4246, 13, 378, 940, 1412
4247, 887, 325, 20, 1442
4248, 883, 1069, 907, 1443
4249, 607, 608, 488, 1304
4250, 901, 925, 911, 1407
4251, 1093, 384, 400, 1422
4252, 264, 426, 239, 1444
4253, 13, 225, 378, 1412
4254, 262, 263, 407, 1295
4255, 256, 51, 899, 1415
4256, 339, 338, 340, 1326
4257, 1238, 1423, 1149, 1450
4258, 167, 1021, 886, 793
4259, 307, 308, 309, 1290
4260, 268, 274, 257, 1407
4261, 140, 441, 686, 1450
4262, 316, 317, 318, 1298
4263, 356, 357, 232, 1259
4264, 715, 713, 714, 1306
4265, 1083, 1089, 1088, 1422
4266, 182, 878, 806, 1406
4267, 1108, 1029, 1119, 1344
4268, 518, 448, 519, 1379
4269, 283, 1265, 381, 1288
4270, 973, 970, 972, 1314
4271, 169, 872, 1023, 792
4272, 13, 940, 869, 1412
4273, 509, 508, 510, 1386
4274, 674, 165, 920, 795
4275, 1092, 1046, 402, 1302
4276, 1033, 931, 1035, 1316
4277, 338, 337, 336, 1369
4278, 753, 1382, 859, 1404
4279, 625, 474, 494, 1359
4280, 610, 441, 140, 1450
4281, 565, 566, 567, 1321
4282, 465, 566, 568, 1282
4283, 806, 763, 182, 1406
4284, 1116, 401, 1045, 1300
4285, 1017, 1402, 1043, 1409
4286, 306, 305, 302, 1451
4287, 533, 747, 119, 463
4288, 357, 430, 417, 1289
4289, 874, 676, 173, 808
4290, 270, 271, 269, 1393
4291, 289, 279, 266, 1211
4292, 909, 932, 941, 1210
4293, 589, 586, 584, 1371
4294, 600, 476, 624, 1297
4295, 1119, 833, 814, 1344
4296, 745, 533, 120, 460
4297, 118, 747, 576, 463
4298, 196, 812, 1024, 1345
4299, 952, 954, 953, 1360
4300, 488, 471, 607, 1433
4301, 172, 752, 676, 873
4302, 212, 1028, 1110, 1116
4303, 1025, 1092, 216, 1086
4304, 85, 582, 454, 1453
4305, 1089, 1081, 1091, 1396
4306, 289, 240, 279, 1211
4307, 884, 941, 932, 1210
4308, 1255, 1413, 558, 1446
4309, 1022, 198, 884, 1358
4310, 1024, 812, 197, 1022
4311, 482, 479, 481, 1275
4312, 641, 612, 452, 1357
4313, 300, 375, 302, 1357
4314, 1022, 810, 198, 1358
4315, 498, 474, 110, 1359
4316, 1041, 962, 963, 1356
4317, 146, 471, 591, 1433
4318, 121, 460, 596, 662
4319, 814, 160, 1119, 1109
4320, 441, 643, 592, 1450
4321, 583, 587, 616, 1421
4322, 630, 554, 556, 1307
4323, 513, 511, 512, 1432
4324, 601, 1117, 105, 1107
4325, 899, 1300, 256, 1415
4326, 896, 365, 37, 1439
4327, 599, 1083, 153, 1093
4328, 109, 621, 498, 831
4329, 485, 1351, 484, 1425
4330, 556, 554, 555, 1307
4331, 571, 642, 570, 1277
4332, 281, 1291, 279, 1342
4333, 834, 208, 818, 1095
4334, 936, 1262, 1034, 1345
4335, 1102, 817, 157, 1118
4336, 816, 205, 1094, 1078
4337, 529, 94, 240, 1342
4338, 85, 252, 582, 1453
4339, 619, 258, 477, 1422
4340, 1085, 818, 208, 1095
4341, 782, 783, 781, 1381
4342, 546, 483, 485, 1444
4343, 327, 329, 328, 1400
4344, 1091, 1090, 1082, 1365
4345, 570, 550, 571, 1277
4346, 987, 984, 1042, 1271
4347, 1075, 1080, 1079, 1408
4348, 544, 543, 537, 1431
4349, 475, 601, 602, 1251
4350, 1050, 862, 1027, 1339
4351, 727, 729, 728, 1347
4352, 697, 1352, 698, 1424
4353, 585, 584, 586, 1371
4354, 345, 346, 231, 1299
4355, 598, 596, 517, 1239
4356, 736, 737, 811, 1343
4357, 474, 700, 110, 1359
4358, 190, 881, 1015, 824
4359, 1096, 1076, 1087, 1320
4360, 455, 86, 391, 582
4361, 98, 278, 255, 1361
4362, 1025, 1050, 901, 1302
4363, 696, 671, 698, 1443
4364, 382, 277, 383, 1251
4365, 787, 786, 766, 1281
4366, 1038, 1017, 896, 1439
4367, 438, 98, 489, 1361
4368, 765, 768, 767, 1308
4369, 146, 651, 471, 1433
4370, 832, 157, 817, 1118
4371, 1028, 212, 1045, 1116
4372, 1046, 1092, 216, 1025
4373, 153, 619, 599, 1093
4374, 1094, 831, 205, 816
4375, 815, 814, 708, 1344
4376, 324, 250, 303, 1337
4377, 343, 286, 285, 1367
4378, 984, 987, 986, 1271
4379, 369, 392, 315, 1332
4380, 927, 919, 926, 1274
4381, 902, 899, 51, 1415
4382, 815, 649, 814, 1266
4383, 766, 789, 683, 1323
4384, 723, 722, 721, 1390
4385, 760, 717, 754, 1260
4386, 515, 516, 517, 1253
4387, 700, 706, 690, 1359
4388, 802, 799, 804, 1423
4389, 592, 540, 614, 1383
4390, 914, 915, 913, 1340
4391, 624, 476, 499, 1384
4392, 679, 171, 1002, 752
4393, 705, 718, 719, 1380
4394, 475, 620, 601, 1251
4395, 902, 51, 259, 1415
4396, 517, 518, 598, 1253
4397, 626, 482, 481, 1275
4398, 804, 805, 686, 1450
4399, 160, 1119, 833, 814
4400, 718, 721, 719, 1380
4401, 1106, 1114, 1115, 1395
4402, 539, 540, 538, 1293
4403, 410, 307, 309, 1290
4404, 377, 298, 253, 1414
4405, 1083, 1093, 599, 1422
4406, 674, 920, 1044, 1454
4407, 620, 1117, 105, 601
4408, 618, 1118, 832, 1297
4409, 926, 928, 927, 1274
4410, 529, 95, 470, 240
4411, 400, 57, 619, 258
4412, 277, 382, 403, 1251
4413, 855, 786, 787, 1281
4414, 607, 543, 544, 1431
4415, 1049, 1028, 899, 1300
4416, 498, 603, 604, 1292
4417, 1112, 1107, 1117, 1251
4418, 272, 271, 270, 1393
4419, 372, 370, 367, 1418
4420, 463, 511, 513, 1235
4421, 380, 238, 381, 1265
4422, 1031, 166, 673, 795
4423, 866, 908, 942, 1363
4424, 290, 265, 222, 1363
4425, 826, 855, 788, 1324
4426, 867, 1071, 1068, 1414
4427, 831, 690, 816, 1292
4428, 659, 855, 826, 1324
4429, 705, 840, 703, 1329
4430, 1073, 1037, 871, 1323
4431, 93, 437, 380, 379
4432, 968, 966, 888, 1333
4433, 758, 756, 757, 1301
4434, 975, 977, 892, 1376
4435, 229, 325, 331, 1442
4436, 934, 933, 935, 1303
4437, 1001, 998, 1000, 1330
4438, 718, 809, 657, 1399
4439, 227, 433, 393, 1353
4440, 547, 593, 549, 1389
4441, 703, 702, 705, 1329
4442, 599, 1093, 619, 1422
4443, 256, 259, 51, 1415
4444, 1113, 1120, 1100, 1364
4445, 922, 899, 902, 1415
4446, 957, 956, 937, 1349
4447, 974, 976, 1067, 1278
4448, 161, 834, 710, 1047
4449, 1048, 923, 204, 833
4450, 1119, 209, 1048, 1029
4451, 650, 819, 818, 1408
4452, 463, 513, 533, 1235
4453, 672, 884, 198, 1358
4454, 603, 436, 604, 1320
4455, 824, 1015, 190, 685
4456, 252, 391, 86, 582
4457, 782, 781, 778, 1381
4458, 739, 738, 663, 1391
4459, 810, 672, 198, 1358
4460, 403, 382, 56, 1117
4461, 757, 829, 759, 1434
4462, 833, 1119, 1048, 1344
4463, 825, 780, 801, 1394
4464, 813, 1294, 716, 1345
4465, 558, 1413, 629, 1446
4466, 484, 483, 480, 1351
4467, 923, 708, 833, 1344
4468, 563, 632, 564, 1328
4469, 831, 498, 109, 690
4470, 486, 485, 484, 1425
4471, 693, 696, 697, 1352
4472, 384, 104, 1093, 400
4473, 513, 514, 515, 1350
4474, 285, 286, 272, 1367
4475, 736, 811, 808, 1232
4476, 709, 840, 674, 1454
4477, 494, 474, 604, 1359
4478, 720, 713, 651, 1433
4479, 123, 738, 468, 1391
4480, 477, 619, 57, 258
4481, 378, 225, 285, 1412
4482, 784, 681, 782, 1336
4483, 621, 1094, 156, 603
4484, 280, 281, 282, 1291
4485, 383, 404, 217, 1395
4486, 734, 735, 736, 1387
4487, 608, 487, 1304, 1342
4488, 906, 905, 1051, 1279
4489, 475, 403, 100, 620
4490, 697, 698, 699, 1424
4491, 825, 685, 776, 1449
4492, 269, 273, 274, 1305
4493, 493, 492, 495, 1375
4494, 213, 1026, 1084, 1095
4495, 209, 1119, 1108, 1029
4496, 430, 363, 417, 1289
4497, 483, 484, 485, 1351
4498, 940, 917, 869, 1412
4499, 213, 1047, 1026, 1095
4500, 401, 1116, 53, 387
4501, 1092, 402, 101, 386
4502, 919, 917, 918, 1410
4503, 534, 663, 123, 1391
4504, 384, 1093, 1088, 1422
4505, 600, 108, 618, 1118
4506, 694, 695, 839, 1335
4507, 297, 284, 291, 1349
4508, 601, 435, 602, 1364
4509, 1090, 1097, 1077, 1339
4510, 698, 697, 696, 1352
4511, 1087, 1094, 1078, 1292
4512, 293, 294, 295, 1334
4513, 741, 1243, 742, 1404
4514, 872, 170, 679, 792
4515, 1067, 1008, 879, 1336
4516, 714, 1306, 712, 1358
4517, 623, 599, 477, 1422
4518, 1029, 861, 1030, 1267
4519, 1016, 1017, 1043, 1409
4520, 1014, 684, 175, 1382
4521, 1087, 156, 1094, 603
4522, 827, 666, 854, 1389
4523, 385, 218, 405, 1365
4524, 732, 733, 734, 1377
4525, 931, 929, 930, 1372
4526, 386, 402, 257, 1302
4527, 621, 603, 498, 1292
4528, 471, 488, 591, 1433
4529, 301, 302, 304, 1378
4530, 915, 918, 917, 1410
4531, 498, 604, 474, 1359
4532, 299, 370, 372, 1418
4533, 802, 804, 762, 1423
4534, 815, 836, 649, 1266
4535, 401, 387, 256, 1300
4536, 387, 1116, 53, 1106
4537, 101, 1092, 386, 1082
4538, 753, 875, 175, 1382
4539, 741, 740, 742, 1243
4540, 108, 600, 1111, 1118
4541, 861, 1049, 1030, 1267
4542, 779, 780, 777, 1331
4543, 255, 489, 98, 1361
4544, 252, 311, 392, 1453
4545, 730, 732, 679, 1234
4546, 813, 812, 670, 1345
4547, 887, 21, 20, 325
4548, 134, 133, 465, 794
4549, 355, 33, 34, 892
4550, 681, 186, 185, 1008
4551, 578, 81, 82, 248
4552, 25, 24, 891, 345
4553, 969, 1038, 896, 1439
4554, 1013, 26, 25, 232
4555, 235, 34, 35, 977
4556, 135, 134, 568, 667
4557, 453, 82, 83, 319
4558, 186, 784, 187, 879
4559, 46, 47, 288, 938
4560, 49, 48, 942, 290
4561, 748, 148, 149, 527
4562, 64, 63, 354, 442
4563, 65, 64, 242, 530
4564, 147, 440, 148, 652
4565, 436, 623, 604, 1320
4566, 67, 66, 246, 528
4567, 222, 47, 48, 866
4568, 12, 13, 378, 940
4569, 66, 65, 352, 446
4570, 69, 68, 243, 526
4571, 598, 520, 522, 1310
4572, 219, 45, 46, 863
4573, 869, 14, 13, 225
4574, 405, 218, 386, 1365
4575, 68, 67, 359, 447
4576, 376, 329, 327, 1400
4577, 730, 731, 732, 1348
4578, 653, 149, 150, 472
4579, 50, 49, 864, 220
4580, 765, 763, 806, 1406
4581, 254, 11, 12, 897
4582, 468, 123, 122, 738
4583, 752, 679, 732, 1234
4584, 899, 52, 51, 256
4585, 151, 152, 689, 476
4586, 257, 9, 10, 901
4587, 297, 44, 45, 957
4588, 299, 295, 434, 1397
4589, 15, 14, 939, 344
4590, 147, 146, 591, 720
4591, 1082, 1086, 1092, 1302
4592, 993, 1039, 995, 1388
4593, 22, 21, 1011, 230
4594, 1010, 20, 19, 229
4595, 462, 136, 135, 791
4596, 35, 36, 348, 889
4597, 689, 832, 817, 1297
4598, 188, 187, 678, 1005
4599, 575, 83, 84, 245
4600, 16, 15, 868, 224
4601, 397, 369, 315, 1332
4602, 124, 123, 534, 663
4603, 812, 810, 197, 1022
4604, 1116, 1110, 1106, 1300
4605, 844, 780, 779, 1331
4606, 71, 70, 251, 519
4607, 947, 951, 944, 1362
4608, 310, 76, 75, 451
4609, 42, 41, 1009, 377
4610, 564, 561, 563, 1328
4611, 70, 69, 360, 448
4612, 123, 663, 738, 1391
4613, 485, 486, 487, 1425
4614, 249, 75, 74, 580
4615, 94, 379, 240, 1342
4616, 712, 699, 698, 1424
4617, 317, 319, 248, 1366
4618, 895, 23, 22, 361
4619, 968, 28, 27, 233
4620, 1007, 17, 16, 353
4621, 347, 410, 233, 1333
4622, 684, 753, 175, 1382
4623, 516, 518, 517, 1253
4624, 1046, 1025, 901, 1302
4625, 259, 256, 276, 1415
4626, 365, 397, 236, 1439
4627, 900, 161, 710, 1047
4628, 73, 72, 247, 531
4629, 497, 112, 111, 658
4630, 751, 114, 115, 457
4631, 523, 464, 522, 1269
4632, 753, 176, 175, 875
4633, 113, 114, 657, 579
4634, 1045, 899, 1028, 1300
4635, 458, 113, 112, 809
4636, 884, 934, 1022, 1358
4637, 883, 907, 909, 1443
4638, 266, 264, 239, 1444
4639, 656, 115, 116, 577
4640, 985, 986, 988, 1447
4641, 199, 672, 746, 941
4642, 425, 342, 408, 1355
4643, 943, 192, 193, 655
4644, 199, 672, 941, 884
4645, 89, 88, 223, 473
4646, 100, 277, 403, 475
4647, 24, 23, 983, 231
4648, 893, 27, 26, 356
4649, 251, 360, 412, 1379
4650, 145, 144, 581, 760
4651, 141, 686, 140, 441
4652, 382, 1112, 56, 1117
4653, 708, 204, 923, 833
4654, 798, 801, 828, 1394
4655, 758, 856, 762, 1392
4656, 381, 283, 380, 1265
4657, 1043, 880, 1015, 1449
4658, 522, 464, 534, 1269
4659, 384, 104, 1088, 1093
4660, 175, 174, 684, 1014
4661, 567, 635, 565, 1321
4662, 540, 592, 595, 1383
4663, 468, 534, 123, 1391
4664, 867, 1068, 1009, 1414
4665, 387, 217, 404, 1395
4666, 600, 618, 476, 1297
4667, 240, 95, 470, 289
4668, 181, 182, 878, 806
4669, 666, 129, 130, 593
4670, 375, 78, 77, 452
4671, 1019, 30, 29, 234
4672, 554, 552, 553, 1420
4673, 1014, 175, 875, 1382
4674, 1024, 1034, 882, 1345
4675, 244, 77, 76, 574
4676, 499, 476, 478, 1384
4677, 1093, 400, 619, 1422
4678, 72, 71, 349, 449
4679, 936, 937, 1034, 1262
4680, 85, 84, 311, 454
4681, 189, 880, 188, 776
4682, 904, 907, 905, 1452
4683, 905, 907, 1069, 1452
4684, 886, 1031, 166, 673
4685, 749, 116, 117, 459
4686, 444, 59, 60, 226
4687, 934, 884, 932, 1358
4688, 252, 86, 85, 582
4689, 189, 190, 1015, 685
4690, 178, 179, 1012, 682
4691, 268, 10, 11, 911
4692, 691, 150, 151, 478
4693, 902, 51, 50, 259
4694, 298, 295, 299, 1397
4695, 422, 321, 433, 1353
4696, 888, 29, 28, 347
4697, 241, 425, 408, 1355
4698, 631, 552, 554, 1420
4699, 19, 18, 890, 374
4700, 762, 761, 758, 1392
4701, 1102, 1118, 1111, 1297
4702, 601, 105, 106, 1107
4703, 627, 493, 495, 1375
4704, 602, 435, 624, 1364
4705, 433, 227, 422, 1353
4706, 567, 569, 570, 1455
4707, 934, 932, 933, 1303
4708, 1048, 1029, 923, 1344
4709, 616, 587, 564, 1417
4710, 43, 44, 291, 956
4711, 790, 128, 129, 461
4712, 181, 1004, 180, 677
4713, 796, 126, 127, 466
4714, 235, 423, 355, 1376
4715, 770, 768, 769, 1427
4716, 642, 611, 445, 1337
4717, 1115, 1105, 1113, 1309
4718, 1057, 988, 986, 1447
4719, 96, 546, 470, 1444
4720, 529, 608, 437, 1342
4721, 400, 384, 258, 1422
4722, 951, 947, 1068, 1362
4723, 780, 828, 801, 1394
4724, 42, 43, 221, 865
4725, 969, 37, 36, 236
4726, 668, 136, 137, 560
4727, 146, 145, 471, 651
4728, 840, 705, 848, 1454
4729, 582, 616, 454, 1453
4730, 1006, 18, 17, 228
4731, 227, 32, 33, 982
4732, 133, 132, 573, 659
4733, 184, 789, 185, 871
4734, 80, 81, 445, 324
4735, 520, 521, 522, 1310
4736, 587, 613, 564, 1417
4737, 362, 74, 73, 450
4738, 241, 63, 62, 532
4739, 867, 41, 40, 253
4740, 785, 786, 783, 1435
4741, 936, 1034, 1024, 1345
4742, 96, 239, 546, 1444
4743, 650, 837, 819, 1408
4744, 96, 470, 289, 1444
4745, 570, 634, 567, 1455
4746, 200, 671, 883, 1443
4747, 214, 1026, 1084, 213
4748, 470, 546, 485, 1444
4749, 1029, 1108, 209, 210
4750, 608, 529, 487, 1342
4751, 629, 556, 558, 1446
4752, 200, 746, 671, 1443
4753, 279, 281, 280, 1291
4754, 605, 558, 557, 1446
4755, 963, 964, 965, 1441
4756, 1016, 954, 1017, 1409
4757, 200, 941, 746, 1443
4758, 535, 91, 92, 238
4759, 458, 636, 579, 1399
4760, 1072, 1041, 878, 1406
4761, 603, 1087, 156, 155
4762, 558, 556, 557, 1446
4763, 674, 165, 164, 920
4764, 1109, 1108, 1119, 1344
4765, 649, 159, 1099, 158
4766, 137, 138, 797, 469
4767, 599, 1083, 154, 153
4768, 38, 37, 896, 365
4769, 671, 746, 698, 1443
4770, 305, 306, 307, 1451
4771, 817, 158, 1102, 157
4772, 206, 650, 207, 1075
4773, 812, 813, 716, 1345
4774, 205, 816, 206, 1078
4775, 770, 843, 768, 1427
4776, 848, 674, 840, 1454
4777, 585, 587, 583, 1421
4778, 924, 201, 202, 711
4779, 160, 814, 159, 1109
4780, 164, 1044, 674, 920
4781, 200, 883, 941, 1443
4782, 622, 580, 558, 1413
4783, 1043, 1017, 973, 1402
4784, 96, 289, 239, 1444
4785, 742, 744, 743, 1437
4786, 875, 1039, 1014, 1382
4787, 818, 207, 1085, 208
4788, 240, 281, 279, 1342
4789, 1010, 1063, 887, 1442
4790, 284, 283, 381, 1288
4791, 684, 859, 753, 1382
4792, 179, 180, 877, 775
4793, 278, 98, 97, 438
4794, 387, 53, 54, 1106
4795, 386, 102, 101, 1082
4796, 600, 107, 108, 1111
4797, 665, 127, 128, 559
4798, 281, 240, 379, 1342
4799, 1074, 1091, 1082, 1365
4800, 144, 143, 456, 754
4801, 1028, 1110, 211, 212
4802, 216, 1025, 1086, 215
4803, 928, 930, 929, 1372
4804, 132, 131, 467, 826
4805, 611, 79, 80, 250
4806, 683, 184, 183, 1037
4807, 31, 32, 393, 894
4808, 1040, 40, 39, 373
4809, 413, 305, 307, 1451
4810, 822, 193, 885, 194
4811, 90, 89, 389, 594
4812, 139, 140, 805, 610
4813, 498, 110, 109, 690
4814, 468, 647, 534, 1391
4815, 558, 580, 629, 1413
4816, 168, 169, 1023, 675
4817, 1031, 920, 165, 795
4818, 783, 786, 846, 1435
4819, 62, 61, 388, 443
4820, 57, 58, 477, 258
4821, 963, 965, 1060, 1441
4822, 167, 168, 1021, 793
4823, 862, 1077, 215, 214
4824, 1100, 107, 106, 435
4825, 708, 814, 833, 1344
4826, 154, 436, 155, 1076
4827, 211, 861, 210, 1101
4828, 759, 829, 851, 1434
4829, 489, 626, 438, 1361
4830, 609, 143, 142, 654
4831, 3, 403, 1117, 620
4832, 1106, 1115, 1098, 1395
4833, 973, 1017, 1038, 1402
4834, 1093, 4, 619, 400
4835, 672, 714, 712, 1358
4836, 670, 196, 195, 882
4837, 1048, 7, 1119, 833
4838, 1047, 8, 834, 1095
4839, 1, 402, 1092, 1046
4840, 1116, 2, 1045, 401
4841, 618, 5, 832, 1118
4842, 255, 278, 407, 1361
4843, 487, 488, 608, 1304
4844, 474, 111, 110, 700
4845, 6, 1094, 621, 831
4846, 190, 191, 881, 824
4847, 391, 87, 86, 455
4848, 672, 810, 714, 1358
4849, 753, 859, 741, 1404
4850, 813, 717, 716, 1294
4851, 599, 619, 477, 1422
4852, 714, 713, 712, 1306
4853, 744, 742, 821, 1437
4854, 92, 93, 545, 380
4855, 763, 182, 1072, 183
4856, 300, 79, 78, 641
4857, 854, 130, 131, 547
4858, 30, 31, 431, 958
4859, 660, 117, 118, 576
4860, 191, 192, 1020, 852
4861, 166, 167, 886, 673
4862, 142, 807, 141, 639
4863, 88, 87, 428, 590
4864, 741, 680, 753, 1404
4865, 597, 60, 61, 424
4866, 1112, 56, 55, 382
4867, 58, 59, 490, 275
4868, 680, 741, 742, 1404
4869, 1088, 103, 104, 384
4870, 39, 38, 1070, 237
4871, 669, 138, 139, 640
4872, 171, 752, 172, 873
4873, 120, 119, 533, 661
4874, 808, 174, 173, 874
4875, 876, 177, 178, 830
4876, 173, 172, 676, 991
4877, 460, 121, 120, 745
4878, 162, 687, 163, 921
4879, 747, 118, 119, 463
4880, 680, 176, 1003, 177
4881, 883, 909, 941, 1443
4882, 239, 289, 266, 1444
4883, 596, 122, 121, 662
4884, 170, 171, 1002, 679
4885, 202, 203, 898, 688
4886, 90, 91, 439, 427
4887, 125, 124, 464, 750
4888, 610, 643, 441, 1450
4889, 1088, 1093, 1083, 1422
4890, 99, 98, 255, 489
4891, 196, 812, 197, 1024
4892, 169, 170, 872, 792
4893, 851, 195, 194, 950
4894, 162, 161, 710, 900
4895, 100, 99, 277, 475
4896, 203, 204, 923, 708
4897, 164, 163, 709, 870
4898, 7, 1119, 833, 160
4899, 1117, 105, 3, 620
4900, 93, 94, 437, 379
4901, 166, 1031, 165, 795
4902, 6, 1094, 831, 205
4903, 153, 4, 619, 1093
4904, 5, 157, 832, 1118
4905, 216, 1, 1092, 1046
4906, 1045, 212, 2, 1116
4907, 8, 208, 834, 1095
4908, 529, 94, 95, 240
4909, 56, 3, 403, 1117
4910, 104, 4, 1093, 400
4911, 1098, 55, 54, 217
4912, 1074, 102, 103, 218
4913, 8, 1047, 213, 1095
4914, 403, 3, 100, 620
4915, 664, 125, 126, 617
4916, 1045, 2, 52, 401
4917, 5, 832, 152, 618
4918, 402, 1, 9, 1046
4919, 7, 1048, 204, 833
4920, 8, 834, 161, 1047
4921, 619, 4, 57, 400
4922, 621, 109, 6, 831
4923, 209, 7, 1119, 1048
4924, 239, 97, 96, 546
4925, 402, 101, 1, 1092
4926, 53, 2, 1116, 401
4927, 618, 108, 5, 1118
4928, 200, 201, 883, 671
4929, 6, 1094, 156, 621
4930, 198, 197, 810, 1022
4931, 746, 199, 941, 200
4932, 95, 96, 470, 289
4933, 672, 199, 198, 884
4934, 691, 1384, 653, 478
4935, 691, 653, 1384, 1252
4936, 472, 653, 1384, 478
4937, 472, 1384, 653, 1252
4938, 1289, 364, 309, 430
4939, 1289, 309, 364, 1173
4940, 1256, 773, 1165, 774
4941, 1256, 1165, 773, 1169
4942, 1289, 309, 394, 430
4943, 1289, 394, 309, 1158
4944, 1363, 288, 267, 222
4945, 1363, 267, 288, 1161
4946, 1363, 938, 910, 1161
4947, 1363, 910, 938, 866
4948, 1364, 1275, 499, 602
4949, 1364, 499, 1275, 1142
4950, 1412, 897, 913, 1225
4951, 1412, 913, 897, 940
4952, 1318, 261, 1184, 1156
4953, 1318, 1184, 261, 264
4954, 1295, 1184, 261, 1156
4955, 1295, 261, 1184, 264
4956, 1412, 254, 270, 378
4957, 1412, 270, 254, 1225
4958, 1255, 1165, 466, 1256
4959, 466, 1165, 1255, 1446
4960, 238, 1185, 427, 398
4961, 492, 1207, 1375, 491
4962, 1375, 1207, 492, 1178
4963, 1399, 658, 702, 809
4964, 1399, 702, 658, 1226
4965, 1266, 1384, 1252, 707
4966, 1252, 1384, 1266, 1142
4967, 821, 1256, 664, 835
4968, 664, 1256, 821, 1164
4969, 1228, 292, 1334, 1199
4970, 1228, 1334, 292, 293
4971, 1330, 1053, 1168, 1231
4972, 1330, 1168, 1053, 1000
4973, 890, 1168, 1053, 1231
4974, 890, 1053, 1168, 1000
4975, 1383, 1450, 1371, 1149
4976, 1371, 1450, 1383, 592
4977, 1394, 853, 1449, 1150
4978, 1394, 1449, 853, 801
4979, 1379, 526, 516, 448
4980, 1379, 516, 526, 1196
4981, 1376, 421, 977, 235
4982, 1376, 977, 421, 1175
4983, 1442, 230, 326, 1233
4984, 1442, 326, 230, 325
4985, 1244, 656, 725, 749
4986, 1244, 725, 656, 1182
4987, 1285, 1054, 1199, 948
4988, 1285, 1199, 1054, 1228
4989, 865, 1199, 1054, 948
4990, 865, 1054, 1199, 1228
4991, 1390, 857, 1160, 724
4992, 1390, 1160, 857, 1254
4993, 1289, 358, 1327, 417
4994, 1289, 1327, 358, 1166
4995, 1353, 318, 1376, 422
4996, 1353, 1376, 318, 1154
4997, 1315, 967, 1055, 1169
4998, 1315, 1055, 967, 1056
4999, 1364, 1103, 1309, 1120
5000, 1364, 1309, 1103, 1142
5001, 1453, 455, 583, 1247
5002, 1453, 583, 455, 582
5003, 1345, 1022, 936, 1215
5004, 1345, 936, 1022, 1024
5005, 1407, 1365, 274, 405
5006, 1407, 274, 1365, 1140
5007, 914, 1258, 912, 916
5008, 914, 912, 1258, 1340
5009, 1357, 250, 301, 300
5010, 1357, 301, 250, 1189
5011, 1421, 1238, 1126, 1371
5012, 1421, 1126, 1238, 1191
5013, 409, 1346, 415, 334
5014, 415, 1346, 409, 1237
5015, 255, 1251, 383, 277
5016, 383, 1251, 255, 1201
5017, 1322, 1442, 1233, 1062
5018, 1233, 1442, 1322, 1148
5019, 1449, 881, 1016, 1236
5020, 1449, 1016, 881, 1015
5021, 1439, 237, 366, 1194
5022, 1439, 366, 237, 365
5023, 1450, 807, 761, 1241
5024, 1450, 761, 807, 686
5025, 354, 1355, 420, 1152
5026, 354, 420, 1355, 408
5027, 340, 420, 1355, 1152
5028, 340, 1355, 420, 408
5029, 1363, 1452, 1317, 908
5030, 1317, 1452, 1363, 1156
5031, 830, 1003, 1157, 876
5032, 830, 1157, 1003, 680
5033, 1407, 254, 269, 1225
5034, 1407, 269, 254, 268
5035, 1324, 1124, 1208, 1281
5036, 1324, 1208, 1124, 1277
5037, 1438, 1281, 1193, 1435
5038, 1438, 1193, 1281, 1124
5039, 1407, 897, 912, 911
5040, 1407, 912, 897, 1225
5041, 1255, 523, 524, 525
5042, 1255, 524, 523, 1164
5043, 1293, 541, 1218, 539
5044, 1293, 1218, 541, 1241
5045, 1394, 797, 798, 1191
5046, 1394, 798, 797, 828
5047, 1323, 980, 981, 1190
5048, 1323, 981, 980, 1073
5049, 426, 1295, 264, 262
5050, 264, 1295, 426, 1184
5051, 1446, 1122, 1165, 1255
5052, 1446, 1165, 1122, 1398
5053, 1351, 527, 1206, 480
5054, 1351, 1206, 527, 1257
5055, 1164, 1437, 1269, 1243
5056, 1164, 1269, 1437, 821
5057, 740, 1269, 1437, 1243
5058, 740, 1437, 1269, 821
5059, 1366, 633, 319, 453
5060, 1366, 319, 633, 1180
5061, 1352, 748, 1206, 1257
5062, 1352, 1206, 748, 693
5063, 1342, 1134, 1224, 1291
5064, 1342, 1224, 1134, 1304
5065, 714, 1358, 716, 1215
5066, 714, 716, 1358, 810
5067, 812, 716, 1358, 1215
5068, 812, 1358, 716, 810
5069, 1261, 637, 644, 503
5070, 1261, 644, 637, 1230
5071, 248, 1366, 445, 1181
5072, 248, 445, 1366, 578
5073, 634, 445, 1366, 1181
5074, 634, 1366, 445, 578
5075, 635, 565, 1366, 633
5076, 635, 1366, 565, 1321
5077, 1180, 1366, 565, 633
5078, 1180, 565, 1366, 1321
5079, 1321, 634, 1455, 567
5080, 1321, 1455, 634, 1181
5081, 427, 535, 1185, 238
5082, 427, 1185, 535, 439
5083, 1269, 1310, 1391, 522
5084, 1269, 1391, 1310, 1151
5085, 647, 1391, 1310, 522
5086, 647, 1310, 1391, 1151
5087, 681, 1336, 871, 1193
5088, 681, 871, 1336, 1008
5089, 1066, 871, 1336, 1193
5090, 1066, 1336, 871, 1008
5091, 666, 1172, 768, 843
5092, 666, 768, 1172, 1389
5093, 1351, 645, 1444, 483
5094, 1351, 1444, 645, 1184
5095, 849, 1352, 1443, 696
5096, 1443, 1352, 849, 1183
5097, 1452, 1123, 1183, 1279
5098, 1452, 1183, 1123, 1440
5099, 1406, 806, 1315, 878
5100, 1315, 806, 1406, 1186
5101, 1315, 1060, 1406, 878
5102, 1406, 1060, 1315, 1186
5103, 1325, 1448, 1280, 1196
5104, 1280, 1448, 1325, 1148
5105, 1165, 1122, 1169, 1256
5106, 1165, 1169, 1122, 1398
5107, 761, 1423, 762, 804
5108, 762, 1423, 761, 1392
5109, 501, 1399, 637, 636
5110, 628, 1370, 638, 542
5111, 638, 1370, 628, 1260
5112, 1431, 628, 581, 543
5113, 1431, 581, 628, 1260
5114, 1410, 1405, 1401, 1145
5115, 1410, 1401, 1405, 1202
5116, 1379, 329, 251, 1198
5117, 1379, 251, 329, 412
5118, 1339, 1080, 1084, 1213
5119, 1339, 1084, 1080, 1097
5120, 758, 1434, 757, 759
5121, 757, 1434, 758, 1301
5122, 1430, 1321, 1298, 1138
5123, 1430, 1298, 1321, 1180
5124, 1368, 637, 1399, 1230
5125, 1368, 1399, 637, 501
5126, 1372, 1436, 1274, 1160
5127, 1274, 1436, 1372, 1174
5128, 1438, 1321, 1298, 1181
5129, 1438, 1298, 1321, 1138
5130, 1176, 1207, 258, 477
5131, 490, 1207, 258, 275
5132, 490, 258, 1207, 477
5133, 664, 466, 126, 796
5134, 126, 466, 664, 617
5135, 1326, 1436, 1270, 1174
5136, 1270, 1436, 1326, 1152
5137, 1425, 1424, 1429, 1137
5138, 1425, 1429, 1424, 1205
5139, 239, 1444, 438, 546
5140, 239, 438, 1444, 1184
5141, 645, 438, 1444, 546
5142, 645, 1444, 438, 1184
5143, 883, 1443, 711, 1183
5144, 883, 711, 1443, 671
5145, 849, 711, 1443, 1183
5146, 849, 1443, 711, 671
5147, 1428, 1356, 1308, 1186
5148, 1428, 1308, 1356, 1139
5149, 522, 1391, 534, 647
5150, 534, 1391, 522, 1269
5151, 617, 750, 1164, 664
5152, 1164, 750, 617, 464
5153, 1267, 1104, 1309, 1266
5154, 1267, 1309, 1104, 1121
5155, 1105, 1309, 1104, 1266
5156, 1105, 1104, 1309, 1121
5157, 977, 35, 348, 889
5158, 348, 35, 977, 235
5159, 977, 421, 348, 235
5160, 319, 83, 575, 245
5161, 575, 83, 319, 453
5162, 319, 633, 575, 453
5163, 1207, 258, 385, 1176
5164, 1207, 385, 258, 275
5165, 348, 977, 1175, 421
5166, 1175, 977, 348, 889
5167, 575, 319, 1180, 633
5168, 1180, 319, 575, 245

*NSET, NSET=CONSTRAINT_1
1, 4, 6, 8, 101, 102, 103, 104, 153, 154, 155, 156, 205, 206, 207, 208
213, 214, 215, 216, 1074, 1075, 1076, 1077, 1078, 1079, 1080, 1081, 1082, 1083, 1084, 1085
1086, 1087, 1088, 1089, 1090, 1091, 1092, 1093, 1094, 1095, 1096, 1097

*NSET, NSET=DLOAD_1
2, 3, 5, 7, 53, 54, 55, 56, 105, 106, 107, 108, 157, 158, 159, 160
209, 210, 211, 212, 1098, 1099, 1100, 1101, 1102, 1103, 1104, 1105, 1106, 1107, 1108, 1109
1110, 1111, 1112, 1113, 1114, 1115, 1116, 1117, 1118, 1119, 1120, 1121

*NSET, NSET=DLOAD_2
2, 3, 5, 7, 53, 54, 55, 56, 105, 106, 107, 108, 157, 158, 159, 160
209, 210, 211, 212, 1098, 1099, 1100, 1101, 1102, 1103, 1104, 1105, 1106, 1107, 1108, 1109
1110, 1111, 1112, 1113, 1114, 1115, 1116, 1117, 1118, 1119, 1120, 1121

*MATERIAL, NAME=STRUCTURAL_STEEL
*ELASTIC
200000.000000, 0.300000

*SOLID SECTION, ELSET=ALL_ELEMENTS, MATERIAL=STRUCTURAL_STEEL

*BOUNDARY
CONSTRAINT_1, 1, 3

*STEP, NLGEOM=NO
*STATIC
0.1, 1.0

*CLOAD
DLOAD_1, 1, 2000.000000

*CLOAD
DLOAD_2, 3, -5000.000000

*NODE FILE
U, RF
*EL FILE
S, E

*END STEP
