*HEADING
Portal frame (CSG: two columns + top beam) with left base fully fixed and right base as a lateral roller (x free, y+z fixed). Top lateral wind load drives asymmetric sway mode.

*NODE, NSET=ALL_NODES
1, 0.000000, 0.000000, 75.000000
2, 10.000000, 0.000000, 75.000000
3, 0.000000, 0.000000, 80.000000
4, 10.000000, 0.000000, 80.000000
5, 0.000000, 0.000000, 0.000000
6, 10.000000, 0.000000, 0.000000
7, 0.000000, 0.000000, 85.000000
8, 60.000000, 0.000000, 85.000000
9, 60.000000, 0.000000, 80.000000
10, 50.000000, 0.000000, 80.000000
11, 50.000000, 0.000000, 75.000000
12, 0.000000, 10.000000, 75.000000
13, 0.000000, 10.000000, 80.000000
14, 10.000000, 10.000000, 0.000000
15, 0.000000, 10.000000, 0.000000
16, 10.000000, 10.000000, 75.000000
17, 50.000000, 10.000000, 75.000000
18, 60.000000, 0.000000, 75.000000
19, 60.000000, 10.000000, 80.000000
20, 60.000000, 10.000000, 85.000000
21, 0.000000, 10.000000, 85.000000
22, 10.000000, 10.000000, 80.000000
23, 50.000000, 10.000000, 80.000000
24, 50.000000, 10.000000, 0.000000
25, 50.000000, 0.000000, 0.000000
26, 60.000000, 0.000000, 0.000000
27, 60.000000, 10.000000, 75.000000
28, 60.000000, 10.000000, 0.000000
29, 3.333333, 0.000000, 75.000000
30, 6.666667, 0.000000, 75.000000
31, 0.000000, 0.000000, 77.500000
32, 3.333333, 0.000000, 80.000000
33, 6.666667, 0.000000, 80.000000
34, 10.000000, 0.000000, 77.500000
35, 3.333333, 0.000000, 0.000000
36, 6.666667, 0.000000, 0.000000
37, 0.000000, 0.000000, 3.260870
38, 0.000000, 0.000000, 6.521739
39, 0.000000, 0.000000, 9.782609
40, 0.000000, 0.000000, 13.043478
41, 0.000000, 0.000000, 16.304348
42, 0.000000, 0.000000, 19.565218
43, 0.000000, 0.000000, 22.826086
44, 0.000000, 0.000000, 26.086956
45, 0.000000, 0.000000, 29.347826
46, 0.000000, 0.000000, 32.608696
47, 0.000000, 0.000000, 35.869564
48, 0.000000, 0.000000, 39.130436
49, 0.000000, 0.000000, 42.391304
50, 0.000000, 0.000000, 45.652172
51, 0.000000, 0.000000, 48.913044
52, 0.000000, 0.000000, 52.173912
53, 0.000000, 0.000000, 55.434784
54, 0.000000, 0.000000, 58.695652
55, 0.000000, 0.000000, 61.956520
56, 0.000000, 0.000000, 65.217392
57, 0.000000, 0.000000, 68.478264
58, 0.000000, 0.000000, 71.739128
59, 10.000000, 0.000000, 3.260870
60, 10.000000, 0.000000, 6.521739
61, 10.000000, 0.000000, 9.782609
62, 10.000000, 0.000000, 13.043478
63, 10.000000, 0.000000, 16.304348
64, 10.000000, 0.000000, 19.565218
65, 10.000000, 0.000000, 22.826086
66, 10.000000, 0.000000, 26.086956
67, 10.000000, 0.000000, 29.347826
68, 10.000000, 0.000000, 32.608696
69, 10.000000, 0.000000, 35.869564
70, 10.000000, 0.000000, 39.130436
71, 10.000000, 0.000000, 42.391304
72, 10.000000, 0.000000, 45.652172
73, 10.000000, 0.000000, 48.913044
74, 10.000000, 0.000000, 52.173912
75, 10.000000, 0.000000, 55.434784
76, 10.000000, 0.000000, 58.695652
77, 10.000000, 0.000000, 61.956520
78, 10.000000, 0.000000, 65.217392
79, 10.000000, 0.000000, 68.478264
80, 10.000000, 0.000000, 71.739128
81, 0.000000, 0.000000, 82.500000
82, 3.333333, 0.000000, 85.000000
83, 6.666667, 0.000000, 85.000000
84, 10.000000, 0.000000, 85.000000
85, 13.333333, 0.000000, 85.000000
86, 16.666666, 0.000000, 85.000000
87, 20.000000, 0.000000, 85.000000
88, 23.333334, 0.000000, 85.000000
89, 26.666666, 0.000000, 85.000000
90, 30.000000, 0.000000, 85.000000
91, 33.333332, 0.000000, 85.000000
92, 36.666668, 0.000000, 85.000000
93, 40.000000, 0.000000, 85.000000
94, 43.333332, 0.000000, 85.000000
95, 46.666668, 0.000000, 85.000000
96, 50.000000, 0.000000, 85.000000
97, 53.333332, 0.000000, 85.000000
98, 56.666668, 0.000000, 85.000000
99, 60.000000, 0.000000, 82.500000
100, 53.333332, 0.000000, 80.000000
101, 56.666668, 0.000000, 80.000000
102, 50.000000, 0.000000, 77.500000
103, 13.333333, 0.000000, 75.000000
104, 16.666666, 0.000000, 75.000000
105, 20.000000, 0.000000, 75.000000
106, 23.333334, 0.000000, 75.000000
107, 26.666666, 0.000000, 75.000000
108, 30.000000, 0.000000, 75.000000
109, 33.333332, 0.000000, 75.000000
110, 36.666668, 0.000000, 75.000000
111, 40.000000, 0.000000, 75.000000
112, 43.333332, 0.000000, 75.000000
113, 46.666668, 0.000000, 75.000000
114, 0.000000, 6.666667, 75.000000
115, 0.000000, 3.333333, 75.000000
116, 0.000000, 10.000000, 77.500000
117, 0.000000, 6.666667, 80.000000
118, 0.000000, 3.333333, 80.000000
119, 10.000000, 3.333333, 0.000000
120, 10.000000, 6.666667, 0.000000
121, 6.666667, 10.000000, 0.000000
122, 3.333333, 10.000000, 0.000000
123, 0.000000, 6.666667, 0.000000
124, 0.000000, 3.333333, 0.000000
125, 10.000000, 3.333333, 75.000000
126, 10.000000, 6.666667, 75.000000
127, 10.000000, 10.000000, 3.260870
128, 10.000000, 10.000000, 6.521739
129, 10.000000, 10.000000, 9.782609
130, 10.000000, 10.000000, 13.043478
131, 10.000000, 10.000000, 16.304348
132, 10.000000, 10.000000, 19.565218
133, 10.000000, 10.000000, 22.826086
134, 10.000000, 10.000000, 26.086956
135, 10.000000, 10.000000, 29.347826
136, 10.000000, 10.000000, 32.608696
137, 10.000000, 10.000000, 35.869564
138, 10.000000, 10.000000, 39.130436
139, 10.000000, 10.000000, 42.391304
140, 10.000000, 10.000000, 45.652172
141, 10.000000, 10.000000, 48.913044
142, 10.000000, 10.000000, 52.173912
143, 10.000000, 10.000000, 55.434784
144, 10.000000, 10.000000, 58.695652
145, 10.000000, 10.000000, 61.956520
146, 10.000000, 10.000000, 65.217392
147, 10.000000, 10.000000, 68.478264
148, 10.000000, 10.000000, 71.739128
149, 0.000000, 10.000000, 3.260870
150, 0.000000, 10.000000, 6.521739
151, 0.000000, 10.000000, 9.782609
152, 0.000000, 10.000000, 13.043478
153, 0.000000, 10.000000, 16.304348
154, 0.000000, 10.000000, 19.565218
155, 0.000000, 10.000000, 22.826086
156, 0.000000, 10.000000, 26.086956
157, 0.000000, 10.000000, 29.347826
158, 0.000000, 10.000000, 32.608696
159, 0.000000, 10.000000, 35.869564
160, 0.000000, 10.000000, 39.130436
161, 0.000000, 10.000000, 42.391304
162, 0.000000, 10.000000, 45.652172
163, 0.000000, 10.000000, 48.913044
164, 0.000000, 10.000000, 52.173912
165, 0.000000, 10.000000, 55.434784
166, 0.000000, 10.000000, 58.695652
167, 0.000000, 10.000000, 61.956520
168, 0.000000, 10.000000, 65.217392
169, 0.000000, 10.000000, 68.478264
170, 0.000000, 10.000000, 71.739128
171, 50.000000, 6.666667, 75.000000
172, 50.000000, 3.333333, 75.000000
173, 46.666668, 10.000000, 75.000000
174, 43.333332, 10.000000, 75.000000
175, 40.000000, 10.000000, 75.000000
176, 36.666668, 10.000000, 75.000000
177, 33.333332, 10.000000, 75.000000
178, 30.000000, 10.000000, 75.000000
179, 26.666666, 10.000000, 75.000000
180, 23.333334, 10.000000, 75.000000
181, 20.000000, 10.000000, 75.000000
182, 16.666666, 10.000000, 75.000000
183, 13.333333, 10.000000, 75.000000
184, 53.333332, 0.000000, 75.000000
185, 56.666668, 0.000000, 75.000000
186, 60.000000, 0.000000, 77.500000
187, 60.000000, 3.333333, 80.000000
188, 60.000000, 6.666667, 80.000000
189, 60.000000, 3.333333, 85.000000
190, 60.000000, 6.666667, 85.000000
191, 60.000000, 10.000000, 82.500000
192, 56.666668, 10.000000, 85.000000
193, 53.333332, 10.000000, 85.000000
194, 50.000000, 10.000000, 85.000000
195, 46.666668, 10.000000, 85.000000
196, 43.333332, 10.000000, 85.000000
197, 40.000000, 10.000000, 85.000000
198, 36.666668, 10.000000, 85.000000
199, 33.333332, 10.000000, 85.000000
200, 30.000000, 10.000000, 85.000000
201, 26.666666, 10.000000, 85.000000
202, 23.333334, 10.000000, 85.000000
203, 20.000000, 10.000000, 85.000000
204, 16.666666, 10.000000, 85.000000
205, 13.333333, 10.000000, 85.000000
206, 10.000000, 10.000000, 85.000000
207, 6.666667, 10.000000, 85.000000
208, 3.333333, 10.000000, 85.000000
209, 0.000000, 6.666667, 85.000000
210, 0.000000, 3.333333, 85.000000
211, 0.000000, 10.000000, 82.500000
212, 6.666667, 10.000000, 75.000000
213, 3.333333, 10.000000, 75.000000
214, 10.000000, 10.000000, 77.500000
215, 6.666667, 10.000000, 80.000000
216, 3.333333, 10.000000, 80.000000
217, 56.666668, 10.000000, 80.000000
218, 53.333332, 10.000000, 80.000000
219, 50.000000, 10.000000, 77.500000
220, 50.000000, 6.666667, 0.000000
221, 50.000000, 3.333333, 0.000000
222, 50.000000, 10.000000, 3.260870
223, 50.000000, 10.000000, 6.521739
224, 50.000000, 10.000000, 9.782609
225, 50.000000, 10.000000, 13.043478
226, 50.000000, 10.000000, 16.304348
227, 50.000000, 10.000000, 19.565218
228, 50.000000, 10.000000, 22.826086
229, 50.000000, 10.000000, 26.086956
230, 50.000000, 10.000000, 29.347826
231, 50.000000, 10.000000, 32.608696
232, 50.000000, 10.000000, 35.869564
233, 50.000000, 10.000000, 39.130436
234, 50.000000, 10.000000, 42.391304
235, 50.000000, 10.000000, 45.652172
236, 50.000000, 10.000000, 48.913044
237, 50.000000, 10.000000, 52.173912
238, 50.000000, 10.000000, 55.434784
239, 50.000000, 10.000000, 58.695652
240, 50.000000, 10.000000, 61.956520
241, 50.000000, 10.000000, 65.217392
242, 50.000000, 10.000000, 68.478264
243, 50.000000, 10.000000, 71.739128
244, 50.000000, 0.000000, 3.260870
245, 50.000000, 0.000000, 6.521739
246, 50.000000, 0.000000, 9.782609
247, 50.000000, 0.000000, 13.043478
248, 50.000000, 0.000000, 16.304348
249, 50.000000, 0.000000, 19.565218
250, 50.000000, 0.000000, 22.826086
251, 50.000000, 0.000000, 26.086956
252, 50.000000, 0.000000, 29.347826
253, 50.000000, 0.000000, 32.608696
254, 50.000000, 0.000000, 35.869564
255, 50.000000, 0.000000, 39.130436
256, 50.000000, 0.000000, 42.391304
257, 50.000000, 0.000000, 45.652172
258, 50.000000, 0.000000, 48.913044
259, 50.000000, 0.000000, 52.173912
260, 50.000000, 0.000000, 55.434784
261, 50.000000, 0.000000, 58.695652
262, 50.000000, 0.000000, 61.956520
263, 50.000000, 0.000000, 65.217392
264, 50.000000, 0.000000, 68.478264
265, 50.000000, 0.000000, 71.739128
266, 53.333332, 0.000000, 0.000000
267, 56.666668, 0.000000, 0.000000
268, 60.000000, 0.000000, 3.260870
269, 60.000000, 0.000000, 6.521739
270, 60.000000, 0.000000, 9.782609
271, 60.000000, 0.000000, 13.043478
272, 60.000000, 0.000000, 16.304348
273, 60.000000, 0.000000, 19.565218
274, 60.000000, 0.000000, 22.826086
275, 60.000000, 0.000000, 26.086956
276, 60.000000, 0.000000, 29.347826
277, 60.000000, 0.000000, 32.608696
278, 60.000000, 0.000000, 35.869564
279, 60.000000, 0.000000, 39.130436
280, 60.000000, 0.000000, 42.391304
281, 60.000000, 0.000000, 45.652172
282, 60.000000, 0.000000, 48.913044
283, 60.000000, 0.000000, 52.173912
284, 60.000000, 0.000000, 55.434784
285, 60.000000, 0.000000, 58.695652
286, 60.000000, 0.000000, 61.956520
287, 60.000000, 0.000000, 65.217392
288, 60.000000, 0.000000, 68.478264
289, 60.000000, 0.000000, 71.739128
290, 60.000000, 3.333333, 75.000000
291, 60.000000, 6.666667, 75.000000
292, 60.000000, 10.000000, 77.500000
293, 56.666668, 10.000000, 75.000000
294, 53.333332, 10.000000, 75.000000
295, 60.000000, 3.333333, 0.000000
296, 60.000000, 6.666667, 0.000000
297, 56.666668, 10.000000, 0.000000
298, 53.333332, 10.000000, 0.000000
299, 60.000000, 10.000000, 3.260870
300, 60.000000, 10.000000, 6.521739
301, 60.000000, 10.000000, 9.782609
302, 60.000000, 10.000000, 13.043478
303, 60.000000, 10.000000, 16.304348
304, 60.000000, 10.000000, 19.565218
305, 60.000000, 10.000000, 22.826086
306, 60.000000, 10.000000, 26.086956
307, 60.000000, 10.000000, 29.347826
308, 60.000000, 10.000000, 32.608696
309, 60.000000, 10.000000, 35.869564
310, 60.000000, 10.000000, 39.130436
311, 60.000000, 10.000000, 42.391304
312, 60.000000, 10.000000, 45.652172
313, 60.000000, 10.000000, 48.913044
314, 60.000000, 10.000000, 52.173912
315, 60.000000, 10.000000, 55.434784
316, 60.000000, 10.000000, 58.695652
317, 60.000000, 10.000000, 61.956520
318, 60.000000, 10.000000, 65.217392
319, 60.000000, 10.000000, 68.478264
320, 60.000000, 10.000000, 71.739128
321, 5.000000, 0.000000, 77.500000
322, 7.500000, 0.000000, 77.361115
323, 2.500000, 0.000000, 77.638885
324, 2.755757, 0.000000, 57.086411
325, 2.823996, 0.000000, 63.586956
326, 7.223005, 0.000000, 50.624886
327, 2.823996, 0.000000, 24.456522
328, 2.776995, 0.000000, 11.494452
329, 7.451608, 0.000000, 17.876635
330, 2.823996, 0.000000, 34.239132
331, 2.823996, 0.000000, 40.760868
332, 5.000000, 0.000000, 3.023904
333, 5.000000, 0.000000, 71.976097
334, 7.176004, 0.000000, 60.326088
335, 7.176004, 0.000000, 44.021740
336, 7.176004, 0.000000, 27.717392
337, 7.575719, 0.000000, 8.259748
338, 7.176004, 0.000000, 37.500000
339, 2.548392, 0.000000, 47.340759
340, 7.176004, 0.000000, 66.847824
341, 2.668996, 0.000000, 17.853374
342, 2.823996, 0.000000, 60.326088
343, 7.292688, 0.000000, 53.817917
344, 4.811284, 0.000000, 52.352558
345, 7.237514, 0.000000, 57.065807
346, 7.176004, 0.000000, 34.239132
347, 2.690357, 0.000000, 44.026684
348, 2.823996, 0.000000, 27.717392
349, 2.743328, 0.000000, 14.592505
350, 5.318418, 0.000000, 13.043478
351, 7.176004, 0.000000, 40.760868
352, 2.823996, 0.000000, 37.500000
353, 2.647293, 0.000000, 8.273316
354, 7.309642, 0.000000, 21.190708
355, 7.238028, 0.000000, 24.456306
356, 2.735865, 0.000000, 21.190708
357, 2.823996, 0.000000, 30.978260
358, 7.176004, 0.000000, 30.978260
359, 7.338837, 0.000000, 47.377586
360, 2.823996, 0.000000, 66.847824
361, 7.176004, 0.000000, 63.586956
362, 2.517056, 0.000000, 5.014561
363, 2.546506, 0.000000, 70.005630
364, 7.445572, 0.000000, 5.018911
365, 7.453494, 0.000000, 70.005630
366, 2.457174, 0.000000, 53.837654
367, 5.168576, 0.000000, 16.267521
368, 4.848735, 0.000000, 48.981907
369, 5.191255, 0.000000, 9.836439
370, 5.000000, 0.000000, 58.695652
371, 5.028460, 0.000000, 19.549377
372, 5.022665, 0.000000, 22.821764
373, 5.000000, 0.000000, 35.869564
374, 5.000000, 0.000000, 26.086956
375, 5.000000, 0.000000, 32.608696
376, 5.000000, 0.000000, 39.130436
377, 5.000000, 0.000000, 29.347826
378, 4.933721, 0.000000, 45.689995
379, 4.991327, 0.000000, 42.393158
380, 5.000000, 0.000000, 61.956520
381, 5.000000, 0.000000, 65.217392
382, 2.444264, 0.000000, 50.599972
383, 5.005111, 0.000000, 55.434784
384, 7.755799, 0.000000, 14.668144
385, 7.732725, 0.000000, 11.426278
386, 5.000000, 0.000000, 68.483398
387, 5.000000, 0.000000, 6.534597
388, 2.455041, 0.000000, 72.527061
389, 2.455041, 0.000000, 2.472940
390, 7.544960, 0.000000, 2.472940
391, 7.544960, 0.000000, 72.527061
392, 44.804234, 0.000000, 82.388824
393, 15.195767, 0.000000, 82.388824
394, 31.666666, 0.000000, 77.886749
395, 25.000000, 0.000000, 82.113251
396, 38.333332, 0.000000, 82.113251
397, 18.333334, 0.000000, 77.886749
398, 41.666668, 0.000000, 77.886749
399, 47.834938, 0.000000, 78.750000
400, 12.165064, 0.000000, 78.750000
401, 31.666666, 0.000000, 82.113251
402, 25.000000, 0.000000, 77.886749
403, 18.341827, 0.000000, 82.192902
404, 41.658173, 0.000000, 82.192902
405, 11.889221, 0.000000, 81.936066
406, 48.110779, 0.000000, 81.936066
407, 38.333332, 0.000000, 77.886749
408, 21.666666, 0.000000, 77.886749
409, 21.666666, 0.000000, 82.113251
410, 45.281601, 0.000000, 77.544815
411, 14.718397, 0.000000, 77.544815
412, 35.000000, 0.000000, 77.886749
413, 28.333334, 0.000000, 77.886749
414, 28.333334, 0.000000, 82.113251
415, 35.000000, 0.000000, 82.113251
416, 51.629574, 0.000000, 82.406013
417, 8.370426, 0.000000, 82.406013
418, 54.925983, 0.000000, 82.503815
419, 5.074016, 0.000000, 82.503815
420, 43.333332, 0.000000, 80.013329
421, 16.666666, 0.000000, 80.013329
422, 40.000000, 0.000000, 80.000000
423, 20.000000, 0.000000, 80.000000
424, 57.500000, 0.000000, 82.638885
425, 2.500000, 0.000000, 82.638885
426, 23.333334, 0.000000, 80.000000
427, 36.666668, 0.000000, 80.000000
428, 33.333332, 0.000000, 80.000000
429, 30.000000, 0.000000, 80.000000
430, 26.666666, 0.000000, 80.000000
431, 45.872978, 0.000000, 80.126610
432, 14.127023, 0.000000, 80.126610
433, 12.043359, 0.000000, 76.758965
434, 47.956642, 0.000000, 76.758965
435, 0.000000, 5.000000, 77.500000
436, 0.000000, 7.500000, 77.638885
437, 0.000000, 2.500000, 77.361115
438, 2.977983, 5.000000, 0.000000
439, 7.026766, 5.000000, 0.000000
440, 5.000792, 2.474399, 0.000000
441, 5.000792, 7.525601, 0.000000
442, 7.576802, 7.576802, 0.000000
443, 2.423198, 7.576802, 0.000000
444, 2.423198, 2.423198, 0.000000
445, 7.576802, 2.423198, 0.000000
446, 10.000000, 2.755757, 57.086411
447, 10.000000, 2.823996, 63.586956
448, 10.000000, 7.223005, 50.624886
449, 10.000000, 2.823996, 24.456522
450, 10.000000, 2.823996, 11.413043
451, 10.000000, 2.823996, 17.934782
452, 10.000000, 2.823996, 34.239132
453, 10.000000, 2.823996, 40.760868
454, 10.000000, 5.000000, 3.023904
455, 10.000000, 5.000000, 71.976097
456, 10.000000, 7.176004, 60.326088
457, 10.000000, 7.176004, 44.021740
458, 10.000000, 7.176004, 27.717392
459, 10.000000, 7.176004, 8.152174
460, 10.000000, 7.176004, 14.673913
461, 10.000000, 7.176004, 21.195652
462, 10.000000, 7.176004, 37.500000
463, 10.000000, 2.548392, 47.340759
464, 10.000000, 7.176004, 66.847824
465, 10.000000, 2.823996, 60.326088
466, 10.000000, 7.292688, 53.817917
467, 10.000000, 4.811284, 52.352558
468, 10.000000, 7.237514, 57.065807
469, 10.000000, 7.176004, 34.239132
470, 10.000000, 2.690357, 44.026684
471, 10.000000, 2.823996, 27.717392
472, 10.000000, 7.176004, 17.934782
473, 10.000000, 2.823996, 14.673913
474, 10.000000, 7.176004, 40.760868
475, 10.000000, 2.823996, 37.500000
476, 10.000000, 7.176004, 24.456522
477, 10.000000, 2.823996, 8.152174
478, 10.000000, 2.823996, 21.195652
479, 10.000000, 2.823996, 30.978260
480, 10.000000, 7.176004, 30.978260
481, 10.000000, 7.338837, 47.377586
482, 10.000000, 2.823996, 66.847824
483, 10.000000, 7.176004, 63.586956
484, 10.000000, 7.176004, 11.413043
485, 10.000000, 2.546506, 4.994370
486, 10.000000, 2.546506, 70.005630
487, 10.000000, 7.453494, 4.994370
488, 10.000000, 7.453494, 70.005630
489, 10.000000, 2.457174, 53.837654
490, 10.000000, 4.848735, 48.981907
491, 10.000000, 5.000000, 58.695652
492, 10.000000, 5.000000, 16.304348
493, 10.000000, 5.000000, 19.565218
494, 10.000000, 5.000000, 35.869564
495, 10.000000, 5.000000, 22.826086
496, 10.000000, 5.000000, 26.086956
497, 10.000000, 5.000000, 32.608696
498, 10.000000, 5.000000, 39.130436
499, 10.000000, 5.000000, 29.347826
500, 10.000000, 4.933721, 45.689995
501, 10.000000, 4.991327, 42.393158
502, 10.000000, 5.000000, 61.956520
503, 10.000000, 5.000000, 13.043478
504, 10.000000, 5.000000, 65.217392
505, 10.000000, 5.000000, 9.782609
506, 10.000000, 2.444264, 50.599972
507, 10.000000, 5.005111, 55.434784
508, 10.000000, 5.000000, 68.483398
509, 10.000000, 5.000000, 6.529912
510, 10.000000, 2.455041, 72.527061
511, 10.000000, 2.455041, 2.472940
512, 10.000000, 7.544960, 2.472940
513, 10.000000, 7.544960, 72.527061
514, 0.000000, 7.244243, 57.044025
515, 0.000000, 2.776995, 63.505547
516, 0.000000, 2.823996, 50.543480
517, 0.000000, 7.244243, 24.435331
518, 0.000000, 2.823996, 8.152174
519, 0.000000, 2.823996, 14.673913
520, 0.000000, 2.715146, 30.978260
521, 0.000000, 2.823996, 37.500000
522, 0.000000, 2.823996, 44.021740
523, 0.000000, 5.000000, 71.976097
524, 0.000000, 7.463590, 4.912775
525, 0.000000, 7.176004, 11.413043
526, 0.000000, 2.823996, 21.195652
527, 0.000000, 7.176004, 17.934782
528, 0.000000, 7.244243, 34.260323
529, 0.000000, 7.176004, 40.760868
530, 0.000000, 7.176004, 47.282608
531, 0.000000, 7.575719, 66.740250
532, 0.000000, 2.823996, 57.065216
533, 0.000000, 2.707312, 60.312519
534, 0.000000, 5.188716, 61.777874
535, 0.000000, 2.697004, 27.717392
536, 0.000000, 5.052991, 29.347826
537, 0.000000, 7.176004, 50.543480
538, 0.000000, 2.823996, 40.760868
539, 0.000000, 7.176004, 44.021740
540, 0.000000, 2.823996, 11.413043
541, 0.000000, 7.176004, 37.500000
542, 0.000000, 2.536410, 4.912775
543, 0.000000, 2.823996, 17.934782
544, 0.000000, 7.176004, 14.673913
545, 0.000000, 7.176004, 53.804348
546, 0.000000, 7.244707, 8.153106
547, 0.000000, 2.762039, 24.456522
548, 0.000000, 2.762826, 34.239132
549, 0.000000, 7.176004, 21.195652
550, 0.000000, 2.823996, 53.804348
551, 0.000000, 2.823996, 47.282608
552, 0.000000, 2.647293, 66.726685
553, 0.000000, 2.517056, 69.985435
554, 0.000000, 7.445572, 69.981087
555, 0.000000, 5.000000, 2.833481
556, 0.000000, 7.542826, 60.292782
557, 0.000000, 7.458356, 27.795267
558, 0.000000, 7.458298, 31.129612
559, 0.000000, 5.169638, 65.133789
560, 0.000000, 5.000000, 52.173912
561, 0.000000, 5.000000, 55.434784
562, 0.000000, 5.000000, 19.565218
563, 0.000000, 5.000000, 16.304348
564, 0.000000, 5.000000, 48.913044
565, 0.000000, 5.000000, 22.826086
566, 0.000000, 5.000000, 39.130436
567, 0.000000, 5.000000, 13.043478
568, 0.000000, 5.000000, 45.652172
569, 0.000000, 5.000000, 42.391304
570, 0.000000, 5.000000, 35.869564
571, 0.000000, 5.000000, 9.782609
572, 0.000000, 5.000000, 6.521739
573, 0.000000, 5.038918, 32.637451
574, 0.000000, 4.994889, 26.086956
575, 0.000000, 4.994889, 58.695652
576, 0.000000, 7.579483, 63.519768
577, 0.000000, 5.000000, 68.465401
578, 0.000000, 2.455041, 72.527061
579, 0.000000, 7.544960, 72.527061
580, 0.000000, 2.314101, 2.311366
581, 0.000000, 7.685899, 2.311366
582, 31.691233, 2.805824, 75.000000
583, 25.000000, 7.243598, 75.000000
584, 15.015333, 2.551658, 75.000000
585, 38.333332, 7.113249, 75.000000
586, 44.984665, 7.448342, 75.000000
587, 21.642101, 2.805824, 75.000000
588, 18.333334, 7.113249, 75.000000
589, 41.666668, 2.886751, 75.000000
590, 31.666666, 7.113249, 75.000000
591, 15.015333, 7.448342, 75.000000
592, 28.333334, 7.265323, 75.000000
593, 26.666666, 4.228739, 75.000000
594, 44.984665, 2.551658, 75.000000
595, 35.000000, 2.886751, 75.000000
596, 35.000000, 7.113249, 75.000000
597, 38.333332, 2.886751, 75.000000
598, 21.666666, 7.186393, 75.000000
599, 18.332548, 2.719827, 75.000000
600, 41.666000, 7.194903, 75.000000
601, 47.122589, 5.000000, 75.000000
602, 12.877412, 5.000000, 75.000000
603, 29.004913, 2.408631, 75.000000
604, 24.328421, 2.408631, 75.000000
605, 33.333332, 5.000000, 75.000000
606, 43.333332, 5.000000, 75.000000
607, 36.666668, 5.000000, 75.000000
608, 16.666666, 5.000000, 75.000000
609, 19.995775, 4.972314, 75.000000
610, 40.000000, 5.000000, 75.000000
611, 30.042282, 4.933896, 75.000000
612, 23.290794, 4.935338, 75.000000
613, 47.576801, 2.423198, 75.000000
614, 12.423198, 7.576802, 75.000000
615, 47.576801, 7.576802, 75.000000
616, 12.423198, 2.423198, 75.000000
617, 55.000000, 0.000000, 77.500000
618, 52.500000, 0.000000, 77.638885
619, 57.500000, 0.000000, 77.361115
620, 60.000000, 5.000000, 82.500000
621, 60.000000, 7.500000, 82.361115
622, 60.000000, 2.500000, 82.638885
623, 31.599257, 2.556313, 85.000000
624, 54.984665, 2.551658, 85.000000
625, 5.015334, 7.448342, 85.000000
626, 25.094374, 7.167736, 85.000000
627, 38.333332, 2.886751, 85.000000
628, 11.666667, 7.113249, 85.000000
629, 18.333334, 7.113249, 85.000000
630, 45.094376, 2.832265, 85.000000
631, 41.734077, 7.443687, 85.000000
632, 51.691235, 7.194176, 85.000000
633, 35.000000, 7.113249, 85.000000
634, 8.333333, 2.886751, 85.000000
635, 21.734077, 2.556313, 85.000000
636, 15.000000, 2.886751, 85.000000
637, 54.988762, 7.461830, 85.000000
638, 41.776768, 2.694266, 85.000000
639, 5.015334, 2.551658, 85.000000
640, 31.572292, 7.296652, 85.000000
641, 34.995907, 2.772718, 85.000000
642, 18.337427, 2.772718, 85.000000
643, 28.238960, 7.207384, 85.000000
644, 26.666666, 4.615211, 85.000000
645, 21.776770, 7.305734, 85.000000
646, 15.000000, 7.113249, 85.000000
647, 8.333999, 7.194903, 85.000000
648, 38.337429, 7.227282, 85.000000
649, 11.666667, 2.886751, 85.000000
650, 48.349064, 2.747321, 85.000000
651, 46.873764, 5.225515, 85.000000
652, 51.666698, 2.714122, 85.000000
653, 57.122887, 5.000983, 85.000000
654, 2.877412, 5.000000, 85.000000
655, 29.957308, 4.796703, 85.000000
656, 43.413166, 5.181846, 85.000000
657, 23.378647, 4.791608, 85.000000
658, 48.371944, 7.551074, 85.000000
659, 33.298573, 4.922606, 85.000000
660, 40.043571, 5.072305, 85.000000
661, 20.037821, 4.923270, 85.000000
662, 36.666668, 5.000000, 85.000000
663, 10.000000, 5.000000, 85.000000
664, 13.333333, 5.000000, 85.000000
665, 16.670231, 4.983778, 85.000000
666, 53.333332, 5.000000, 85.000000
667, 6.666667, 5.000000, 85.000000
668, 50.000000, 4.991409, 85.000000
669, 25.006847, 2.192111, 85.000000
670, 28.321041, 2.287085, 85.000000
671, 45.065491, 7.567020, 85.000000
672, 57.576801, 7.576802, 85.000000
673, 2.423198, 7.576802, 85.000000
674, 2.423198, 2.423198, 85.000000
675, 57.576801, 2.423198, 85.000000
676, 0.000000, 5.000000, 82.500000
677, 0.000000, 7.500000, 82.638885
678, 0.000000, 2.500000, 82.361115
679, 5.000000, 10.000000, 77.500000
680, 2.500000, 10.000000, 77.361115
681, 7.500000, 10.000000, 77.638885
682, 7.176004, 10.000000, 57.065216
683, 7.176004, 10.000000, 63.586956
684, 2.823996, 10.000000, 50.543480
685, 2.755757, 10.000000, 24.435331
686, 7.176004, 10.000000, 11.413043
687, 7.176004, 10.000000, 17.934782
688, 7.223005, 10.000000, 30.896852
689, 7.176004, 10.000000, 37.500000
690, 7.176004, 10.000000, 44.021740
691, 5.000000, 10.000000, 71.976097
692, 5.000000, 10.000000, 3.023904
693, 2.823996, 10.000000, 60.326088
694, 2.823996, 10.000000, 8.152174
695, 2.823996, 10.000000, 14.673913
696, 2.548392, 10.000000, 34.180981
697, 2.823996, 10.000000, 40.760868
698, 2.823996, 10.000000, 66.847824
699, 7.176004, 10.000000, 50.543480
700, 7.176004, 10.000000, 24.456522
701, 7.176004, 10.000000, 60.326088
702, 2.823996, 10.000000, 53.804348
703, 2.823996, 10.000000, 57.065216
704, 2.823996, 10.000000, 44.021740
705, 7.292688, 10.000000, 27.703823
706, 4.811284, 10.000000, 29.169180
707, 2.823996, 10.000000, 47.282608
708, 7.176004, 10.000000, 40.760868
709, 7.338837, 10.000000, 34.144154
710, 7.176004, 10.000000, 14.673913
711, 2.690357, 10.000000, 37.495056
712, 7.176004, 10.000000, 8.152174
713, 7.176004, 10.000000, 53.804348
714, 2.823996, 10.000000, 17.934782
715, 2.823996, 10.000000, 21.195652
716, 7.176004, 10.000000, 21.195652
717, 7.176004, 10.000000, 47.282608
718, 7.176004, 10.000000, 66.847824
719, 2.823996, 10.000000, 63.586956
720, 2.823996, 10.000000, 11.413043
721, 7.453494, 10.000000, 4.994370
722, 7.453494, 10.000000, 70.005630
723, 2.546506, 10.000000, 4.994370
724, 2.546506, 10.000000, 70.005630
725, 2.457174, 10.000000, 27.684086
726, 4.848735, 10.000000, 32.539833
727, 5.000000, 10.000000, 58.695652
728, 5.000000, 10.000000, 48.913044
729, 5.000000, 10.000000, 19.565218
730, 5.000000, 10.000000, 45.652172
731, 5.000000, 10.000000, 16.304348
732, 5.000000, 10.000000, 22.826086
733, 5.000000, 10.000000, 55.434784
734, 5.000000, 10.000000, 39.130436
735, 5.000000, 10.000000, 52.173912
736, 5.000000, 10.000000, 42.391304
737, 4.933721, 10.000000, 35.831741
738, 5.000000, 10.000000, 61.956520
739, 5.000000, 10.000000, 13.043478
740, 5.000000, 10.000000, 9.782609
741, 5.000000, 10.000000, 65.217392
742, 2.444264, 10.000000, 30.921766
743, 5.005111, 10.000000, 26.086956
744, 5.000000, 10.000000, 68.483398
745, 5.000000, 10.000000, 6.529912
746, 7.544960, 10.000000, 72.527061
747, 7.544960, 10.000000, 2.472940
748, 2.455041, 10.000000, 2.472940
749, 2.455041, 10.000000, 72.527061
750, 14.703760, 10.000000, 77.555252
751, 45.308186, 10.000000, 77.550316
752, 35.022556, 10.000000, 77.760597
753, 28.333334, 10.000000, 77.886749
754, 21.666666, 10.000000, 77.886749
755, 41.749798, 10.000000, 82.332458
756, 18.333334, 10.000000, 82.113251
757, 31.642622, 10.000000, 82.193840
758, 25.000000, 10.000000, 82.113251
759, 41.760227, 10.000000, 77.568558
760, 18.297644, 10.000000, 77.663116
761, 38.380573, 10.000000, 77.674889
762, 36.696156, 10.000000, 80.771408
763, 21.639210, 10.000000, 82.129105
764, 15.178692, 10.000000, 82.401001
765, 44.832550, 10.000000, 82.436935
766, 12.073763, 10.000000, 78.932999
767, 47.924030, 10.000000, 78.932007
768, 48.141617, 10.000000, 81.983154
769, 28.333334, 10.000000, 82.113251
770, 31.667645, 10.000000, 77.813751
771, 24.998974, 10.000000, 77.820442
772, 11.859102, 10.000000, 81.976288
773, 51.634712, 10.000000, 82.413857
774, 8.365406, 10.000000, 82.412712
775, 54.926422, 10.000000, 82.504486
776, 5.073589, 10.000000, 82.504387
777, 34.334423, 10.000000, 82.591171
778, 16.666666, 10.000000, 80.000000
779, 39.050091, 10.000000, 82.610527
780, 43.342838, 10.000000, 79.997421
781, 19.996443, 10.000000, 80.000000
782, 57.500000, 10.000000, 82.638885
783, 2.500000, 10.000000, 82.638885
784, 23.309687, 10.000000, 80.018646
785, 40.150814, 10.000000, 80.056137
786, 30.000000, 10.000000, 80.000000
787, 26.665596, 10.000000, 79.997932
788, 33.294666, 10.000000, 80.062706
789, 45.909843, 10.000000, 80.179970
790, 14.095881, 10.000000, 80.123650
791, 12.022171, 10.000000, 76.797653
792, 47.979778, 10.000000, 76.796463
793, 50.000000, 2.755757, 57.044025
794, 50.000000, 7.223005, 63.505547
795, 50.000000, 2.548392, 50.485329
796, 50.000000, 7.176004, 24.456522
797, 50.000000, 7.223005, 11.494452
798, 50.000000, 2.548392, 17.876635
799, 50.000000, 7.176004, 30.978260
800, 50.000000, 7.176004, 37.500000
801, 50.000000, 7.284854, 44.021740
802, 50.000000, 5.000000, 3.023904
803, 50.000000, 5.000000, 71.976097
804, 50.000000, 2.823996, 27.717392
805, 50.000000, 7.176004, 53.804348
806, 50.000000, 2.424281, 8.259748
807, 50.000000, 2.823996, 34.239132
808, 50.000000, 2.755757, 40.739677
809, 50.000000, 2.424281, 66.740250
810, 50.000000, 7.331004, 17.853374
811, 50.000000, 7.292688, 60.312519
812, 50.000000, 4.811284, 61.777874
813, 50.000000, 7.331004, 50.462070
814, 50.000000, 7.266980, 47.187634
815, 50.000000, 4.817307, 45.473530
816, 50.000000, 7.237514, 57.064629
817, 50.000000, 7.176004, 27.717392
818, 50.000000, 7.237174, 40.760868
819, 50.000000, 7.176004, 34.239132
820, 50.000000, 2.628778, 53.794903
821, 50.000000, 7.256672, 14.592505
822, 50.000000, 4.681582, 13.043478
823, 50.000000, 2.823996, 37.500000
824, 50.000000, 7.352707, 8.273316
825, 50.000000, 2.690357, 21.190708
826, 50.000000, 2.761972, 24.456306
827, 50.000000, 7.264135, 21.190708
828, 50.000000, 2.823996, 30.978260
829, 50.000000, 7.352707, 66.726685
830, 50.000000, 7.482944, 5.014561
831, 50.000000, 7.482944, 69.985435
832, 50.000000, 2.554427, 5.018911
833, 50.000000, 2.554427, 69.981087
834, 50.000000, 2.457174, 60.292782
835, 50.000000, 2.458178, 43.988434
836, 50.000000, 4.831424, 16.267521
837, 50.000000, 4.855763, 48.844181
838, 50.000000, 4.808745, 9.836439
839, 50.000000, 4.830362, 65.133789
840, 50.000000, 4.971540, 19.549377
841, 50.000000, 4.977335, 22.821764
842, 50.000000, 4.988044, 55.432884
843, 50.000000, 5.000000, 26.086956
844, 50.000000, 5.000000, 39.130436
845, 50.000000, 5.000000, 32.608696
846, 50.000000, 5.000000, 29.347826
847, 50.000000, 5.000000, 35.869564
848, 50.000000, 4.921331, 52.137287
849, 50.000000, 2.446607, 47.226116
850, 50.000000, 2.244201, 14.668144
851, 50.000000, 5.005111, 42.391304
852, 50.000000, 5.005111, 58.695652
853, 50.000000, 2.420517, 63.519768
854, 50.000000, 2.267275, 11.426278
855, 50.000000, 5.000000, 68.465401
856, 50.000000, 5.000000, 6.534597
857, 50.000000, 7.544960, 72.527061
858, 50.000000, 7.544960, 2.472940
859, 50.000000, 2.455041, 2.472940
860, 50.000000, 2.455041, 72.527061
861, 52.755756, 0.000000, 57.086411
862, 52.823997, 0.000000, 63.586956
863, 57.223003, 0.000000, 50.624886
864, 52.823997, 0.000000, 24.456522
865, 52.715145, 0.000000, 8.152174
866, 57.451607, 0.000000, 14.615765
867, 52.823997, 0.000000, 34.239132
868, 52.823997, 0.000000, 40.760868
869, 55.000000, 0.000000, 71.976097
870, 57.176003, 0.000000, 60.326088
871, 52.823997, 0.000000, 17.934782
872, 57.414387, 0.000000, 4.848492
873, 57.176003, 0.000000, 27.717392
874, 57.176003, 0.000000, 44.021740
875, 52.548393, 0.000000, 47.340759
876, 57.176003, 0.000000, 21.195652
877, 57.176003, 0.000000, 37.500000
878, 57.176003, 0.000000, 66.847824
879, 52.823997, 0.000000, 60.326088
880, 57.292686, 0.000000, 53.817917
881, 54.811283, 0.000000, 52.352558
882, 57.237514, 0.000000, 57.065807
883, 57.176003, 0.000000, 34.239132
884, 52.823997, 0.000000, 27.717392
885, 52.690357, 0.000000, 44.026684
886, 52.517418, 0.000000, 4.912775
887, 52.758854, 0.000000, 11.331635
888, 55.187000, 0.000000, 9.606224
889, 52.658138, 0.000000, 14.578937
890, 52.823997, 0.000000, 37.500000
891, 57.176003, 0.000000, 40.760868
892, 52.823997, 0.000000, 21.195652
893, 57.309643, 0.000000, 17.929838
894, 57.176003, 0.000000, 24.456522
895, 52.823997, 0.000000, 30.978260
896, 57.176003, 0.000000, 30.978260
897, 57.338837, 0.000000, 47.377586
898, 52.823997, 0.000000, 66.847824
899, 57.176003, 0.000000, 63.586956
900, 52.546505, 0.000000, 70.005630
901, 57.453495, 0.000000, 70.005630
902, 54.994656, 0.000000, 2.828796
903, 52.457172, 0.000000, 53.837654
904, 55.147449, 0.000000, 12.974992
905, 54.848736, 0.000000, 48.981907
906, 57.570896, 0.000000, 8.115641
907, 55.000000, 0.000000, 58.695652
908, 55.000000, 0.000000, 35.869564
909, 55.000000, 0.000000, 32.608696
910, 55.065140, 0.000000, 16.266588
911, 55.008625, 0.000000, 19.563364
912, 55.000000, 0.000000, 26.086956
913, 55.001438, 0.000000, 22.825779
914, 55.000000, 0.000000, 29.347826
915, 55.000000, 0.000000, 39.130436
916, 54.933720, 0.000000, 45.689995
917, 54.991325, 0.000000, 42.393158
918, 55.000000, 0.000000, 61.956520
919, 55.000000, 0.000000, 65.217392
920, 52.444263, 0.000000, 50.599972
921, 55.005112, 0.000000, 55.434784
922, 57.559494, 0.000000, 11.356451
923, 54.994888, 0.000000, 6.521739
924, 55.000000, 0.000000, 68.483398
925, 52.455040, 0.000000, 72.527061
926, 57.544960, 0.000000, 72.527061
927, 52.312328, 0.000000, 2.311024
928, 57.815144, 0.000000, 2.187631
929, 60.000000, 5.000000, 77.500000
930, 60.000000, 7.500000, 77.361115
931, 60.000000, 2.500000, 77.638885
932, 55.000000, 10.000000, 77.500000
933, 57.500000, 10.000000, 77.638885
934, 52.500000, 10.000000, 77.361115
935, 55.000000, 7.048083, 0.000000
936, 55.000000, 2.949494, 0.000000
937, 52.474400, 4.999596, 0.000000
938, 57.525600, 4.999596, 0.000000
939, 52.423199, 2.423198, 0.000000
940, 57.576801, 7.576802, 0.000000
941, 57.576801, 2.423198, 0.000000
942, 52.423199, 7.576802, 0.000000
943, 57.244244, 10.000000, 57.086411
944, 57.176003, 10.000000, 63.586956
945, 52.776997, 10.000000, 50.624886
946, 57.244244, 10.000000, 24.435331
947, 52.823997, 10.000000, 8.152174
948, 52.823997, 10.000000, 14.673913
949, 52.715145, 10.000000, 30.978260
950, 52.823997, 10.000000, 37.500000
951, 52.823997, 10.000000, 44.021740
952, 55.000000, 10.000000, 71.976097
953, 52.823997, 10.000000, 60.326088
954, 57.463589, 10.000000, 4.912775
955, 57.176003, 10.000000, 11.413043
956, 57.176003, 10.000000, 17.934782
957, 52.823997, 10.000000, 21.195652
958, 57.244244, 10.000000, 34.260323
959, 57.176003, 10.000000, 40.760868
960, 57.451607, 10.000000, 47.340759
961, 52.823997, 10.000000, 66.847824
962, 57.176003, 10.000000, 60.326088
963, 52.707314, 10.000000, 53.817917
964, 55.188717, 10.000000, 52.352558
965, 52.762486, 10.000000, 57.065807
966, 52.697002, 10.000000, 27.717392
967, 55.052990, 10.000000, 29.347826
968, 57.176003, 10.000000, 37.500000
969, 57.309643, 10.000000, 44.026684
970, 52.536411, 10.000000, 4.912775
971, 52.823997, 10.000000, 11.413043
972, 52.823997, 10.000000, 40.760868
973, 52.823997, 10.000000, 17.934782
974, 52.762039, 10.000000, 24.456522
975, 52.762825, 10.000000, 34.239132
976, 57.176003, 10.000000, 21.195652
977, 57.244705, 10.000000, 8.153106
978, 57.176003, 10.000000, 14.673913
979, 52.661163, 10.000000, 47.377586
980, 57.176003, 10.000000, 66.847824
981, 52.823997, 10.000000, 63.586956
982, 57.453495, 10.000000, 70.005630
983, 52.546505, 10.000000, 70.005630
984, 55.000000, 10.000000, 2.833481
985, 57.542828, 10.000000, 53.837654
986, 57.458355, 10.000000, 27.795267
987, 57.458298, 10.000000, 31.129612
988, 55.151264, 10.000000, 48.981907
989, 55.000000, 10.000000, 58.695652
990, 55.000000, 10.000000, 13.043478
991, 55.000000, 10.000000, 19.565218
992, 55.000000, 10.000000, 16.304348
993, 55.000000, 10.000000, 22.826086
994, 55.066280, 10.000000, 45.689995
995, 55.000000, 10.000000, 39.130436
996, 55.008675, 10.000000, 42.393158
997, 55.000000, 10.000000, 35.869564
998, 55.000000, 10.000000, 61.956520
999, 55.000000, 10.000000, 9.782609
1000, 55.000000, 10.000000, 65.217392
1001, 55.000000, 10.000000, 6.521739
1002, 57.555737, 10.000000, 50.599972
1003, 54.994888, 10.000000, 55.434784
1004, 55.038918, 10.000000, 32.637451
1005, 54.994888, 10.000000, 26.086956
1006, 55.000000, 10.000000, 68.483398
1007, 57.544960, 10.000000, 72.527061
1008, 52.455040, 10.000000, 72.527061
1009, 52.314102, 10.000000, 2.311366
1010, 57.685898, 10.000000, 2.311366
1011, 60.000000, 7.176004, 57.065216
1012, 60.000000, 7.176004, 63.586956
1013, 60.000000, 7.176004, 50.543480
1014, 60.000000, 2.823996, 24.456522
1015, 60.000000, 2.548392, 8.210322
1016, 60.000000, 2.755757, 17.955975
1017, 60.000000, 2.823996, 34.239132
1018, 60.000000, 2.823996, 40.760868
1019, 60.000000, 5.000000, 71.976097
1020, 60.000000, 2.823996, 60.326088
1021, 60.000000, 7.176004, 44.021740
1022, 60.000000, 7.176004, 27.717392
1023, 60.000000, 2.823996, 53.804348
1024, 60.000000, 7.463590, 4.912775
1025, 60.000000, 7.223005, 11.494452
1026, 60.000000, 7.176004, 21.195652
1027, 60.000000, 7.176004, 37.500000
1028, 60.000000, 2.823996, 47.282608
1029, 60.000000, 2.823996, 66.847824
1030, 60.000000, 7.176004, 60.326088
1031, 60.000000, 7.176004, 34.239132
1032, 60.000000, 2.823996, 50.543480
1033, 60.000000, 2.823996, 44.021740
1034, 60.000000, 2.823996, 27.717392
1035, 60.000000, 7.176004, 17.934782
1036, 60.000000, 7.292688, 14.687481
1037, 60.000000, 4.811284, 13.222124
1038, 60.000000, 2.490476, 4.922467
1039, 60.000000, 7.176004, 40.760868
1040, 60.000000, 7.176004, 53.804348
1041, 60.000000, 2.823996, 37.500000
1042, 60.000000, 2.823996, 57.065216
1043, 60.000000, 7.386768, 8.250729
1044, 60.000000, 7.176004, 24.456522
1045, 60.000000, 2.823996, 21.195652
1046, 60.000000, 2.823996, 30.978260
1047, 60.000000, 7.176004, 30.978260
1048, 60.000000, 2.823996, 63.586956
1049, 60.000000, 7.176004, 47.282608
1050, 60.000000, 7.176004, 66.847824
1051, 60.000000, 7.453494, 70.005630
1052, 60.000000, 2.546506, 70.005630
1053, 60.000000, 4.996652, 2.834188
1054, 60.000000, 2.457174, 14.707219
1055, 60.000000, 4.856724, 9.852068
1056, 60.000000, 5.000000, 61.956520
1057, 60.000000, 5.000000, 48.913044
1058, 60.000000, 5.000000, 55.434784
1059, 60.000000, 5.000000, 19.565218
1060, 60.000000, 5.000000, 35.869564
1061, 60.000000, 5.000000, 22.826086
1062, 60.000000, 5.000000, 26.086956
1063, 60.000000, 5.000000, 32.608696
1064, 60.000000, 5.000000, 39.130436
1065, 60.000000, 5.000000, 29.347826
1066, 60.000000, 5.000000, 45.652172
1067, 60.000000, 5.000000, 42.391304
1068, 60.000000, 5.000000, 58.695652
1069, 60.000000, 5.000000, 52.173912
1070, 60.000000, 5.000000, 65.217392
1071, 60.000000, 4.984366, 6.512757
1072, 60.000000, 2.445596, 11.469637
1073, 60.000000, 5.005111, 16.304348
1074, 60.000000, 5.000000, 68.483398
1075, 60.000000, 7.544960, 72.527061
1076, 60.000000, 2.455041, 72.527061
1077, 60.000000, 2.310509, 2.312124
1078, 60.000000, 7.685655, 2.311418
1079, 55.000000, 5.000000, 79.305557
1080, 5.000000, 5.000000, 79.305557
1081, 15.378534, 5.003911, 80.004868
1082, 5.000000, 5.000000, 17.934782
1083, 5.000000, 5.000000, 11.413043
1084, 55.000000, 5.000000, 30.978260
1085, 55.000000, 5.000000, 37.500000
1086, 5.000001, 4.999999, 57.065216
1087, 55.000000, 5.000000, 57.065216
1088, 5.000000, 5.000000, 40.760868
1089, 4.999999, 5.000001, 24.456522
1090, 55.000000, 5.000000, 24.456522
1091, 55.002522, 5.002522, 17.934782
1092, 4.994085, 5.005915, 47.282608
1093, 5.005837, 4.994163, 34.239132
1094, 55.011749, 4.999844, 47.282608
1095, 5.000000, 5.000000, 63.549683
1096, 55.000000, 5.000000, 63.549683
1097, 45.146008, 5.002215, 80.253250
1098, 54.979977, 5.009294, 11.450432
1099, 28.333334, 5.000000, 79.990082
1100, 35.000000, 5.000000, 80.000000
1101, 55.009708, 5.009706, 73.942001
1102, 4.990294, 4.990294, 73.942001
1103, 21.713701, 4.996173, 80.022896
1104, 50.098442, 4.955897, 80.044037
1105, 40.151169, 4.999021, 79.999023
1106, 4.892362, 5.107638, 52.174038
1107, 5.107636, 4.892364, 29.347702
1108, 54.892727, 5.107574, 42.391441
1109, 10.365218, 5.000000, 80.000000
1110, 55.107635, 4.881554, 52.174038
1111, 55.000000, 5.000000, 68.922752
1112, 4.999195, 5.000805, 68.922012
1113, 5.000093, 5.000093, 6.411740
1114, 54.999851, 4.999948, 6.449912
1115, 6.255592, 3.495913, 14.673913
1116, 56.324429, 6.345912, 34.239132
1117, 53.681618, 6.359806, 27.717392
1118, 53.669056, 3.669056, 34.239132
1119, 56.330944, 3.669056, 27.717392
1120, 6.330945, 6.330945, 21.195652
1121, 3.670443, 3.665867, 21.195652
1122, 3.564502, 6.297596, 60.307449
1123, 53.564503, 3.702403, 60.307449
1124, 56.331413, 6.331412, 21.196682
1125, 53.663517, 3.672139, 21.194620
1126, 53.325825, 4.018787, 14.689786
1127, 3.669058, 3.669058, 37.499996
1128, 3.669056, 6.330945, 14.673913
1129, 3.667960, 6.332040, 44.019329
1130, 25.031689, 3.786199, 81.513741
1131, 6.370433, 3.705200, 44.024162
1132, 56.364922, 6.327491, 14.689211
1133, 6.339413, 3.660587, 60.307449
1134, 56.339413, 6.339413, 60.307449
1135, 6.331189, 6.331189, 37.500538
1136, 31.668606, 3.716185, 78.691711
1137, 56.638607, 6.638745, 3.532071
1138, 25.021872, 6.303811, 78.675583
1139, 18.540529, 3.623181, 81.387337
1140, 31.773874, 6.338521, 81.375916
1141, 53.451103, 3.313983, 3.530217
1142, 18.551685, 5.557003, 78.296417
1143, 3.303165, 6.561757, 3.525504
1144, 6.308635, 3.446849, 3.320405
1145, 47.560654, 6.597927, 78.332695
1146, 52.826843, 6.697126, 81.620140
1147, 53.350819, 3.146230, 81.877663
1148, 6.638973, 6.854237, 81.877487
1149, 6.631240, 3.145906, 81.877571
1150, 53.339996, 3.433276, 66.236221
1151, 3.339670, 6.567144, 66.235367
1152, 6.733835, 3.347131, 49.801117
1153, 6.719155, 3.346217, 54.543034
1154, 11.266501, 7.157303, 77.884201
1155, 6.594959, 3.405041, 66.236328
1156, 56.595009, 6.595009, 66.236221
1157, 6.814820, 3.185180, 71.291168
1158, 6.815215, 6.815215, 71.291161
1159, 56.815449, 6.815450, 71.291145
1160, 56.815449, 3.184550, 71.291145
1161, 3.352934, 6.736861, 31.720629
1162, 3.298656, 6.694640, 26.979214
1163, 6.302855, 6.855513, 76.618042
1164, 53.697144, 3.144487, 76.618042
1165, 56.667015, 3.332986, 40.021301
1166, 6.768276, 6.768276, 4.058944
1167, 3.172720, 3.190608, 71.290718
1168, 56.673477, 6.753256, 54.611378
1169, 56.302219, 6.859643, 76.629486
1170, 3.697780, 3.140357, 76.629486
1171, 53.176033, 3.186462, 71.280685
1172, 3.175874, 6.813698, 71.280678
1173, 53.274738, 3.326467, 8.946491
1174, 56.664539, 6.775457, 49.741234
1175, 56.849876, 3.038921, 3.402861
1176, 53.170082, 6.812201, 71.273369
1177, 53.293018, 3.257153, 54.621651
1178, 3.293442, 3.218780, 54.680763
1179, 3.302474, 3.194455, 49.664474
1180, 42.739475, 6.699742, 78.319099
1181, 42.573521, 6.716851, 81.749741
1182, 53.304844, 3.234866, 49.721470
1183, 6.653555, 3.271118, 8.912391
1184, 3.284368, 3.305006, 31.785429
1185, 53.238731, 3.314451, 44.840416
1186, 6.718165, 6.735376, 26.853773
1187, 56.679928, 3.358972, 44.757656
1188, 53.226765, 6.730779, 4.046881
1189, 3.254385, 3.277640, 26.840508
1190, 56.731777, 3.251714, 54.697456
1191, 47.546150, 3.303874, 78.718674
1192, 3.314660, 6.672505, 8.912392
1193, 6.763419, 6.747738, 54.732025
1194, 3.264957, 6.735043, 54.693626
1195, 6.735042, 3.264958, 26.828115
1196, 53.259068, 3.263885, 39.866020
1197, 53.257881, 6.731836, 39.871788
1198, 56.739025, 6.739023, 39.862835
1199, 56.723045, 3.206097, 9.077129
1200, 3.264045, 6.735954, 49.658482
1201, 6.735941, 3.264059, 31.863310
1202, 12.874823, 3.349132, 78.296219
1203, 12.871431, 3.367316, 81.773567
1204, 52.240120, 6.504331, 77.714317
1205, 6.784612, 6.748739, 49.600048
1206, 42.943436, 3.223536, 78.223534
1207, 56.688797, 6.682802, 8.953788
1208, 56.727272, 3.238066, 49.654457
1209, 37.574959, 3.354441, 78.354439
1210, 6.752386, 6.788432, 31.929831
1211, 53.262714, 6.753507, 54.709381
1212, 6.728301, 6.728301, 9.026612
1213, 56.230671, 6.905332, 81.863655
1214, 13.130090, 6.799692, 81.897804
1215, 7.149181, 3.492325, 77.006409
1216, 47.703796, 6.661967, 81.706985
1217, 3.251565, 3.255970, 9.067983
1218, 56.740868, 6.763032, 44.932457
1219, 53.264992, 6.738365, 9.058202
1220, 53.251202, 6.729488, 44.909821
1221, 56.843430, 3.139664, 15.767865
1222, 53.172081, 6.836122, 33.139992
1223, 56.824982, 3.175017, 33.151928
1224, 3.175017, 6.824983, 20.108450
1225, 53.175018, 3.175017, 28.804592
1226, 6.824983, 6.824983, 15.761114
1227, 6.824983, 3.175017, 38.587200
1228, 53.255619, 6.780176, 49.603420
1229, 56.777153, 3.222847, 65.839912
1230, 6.824628, 6.824628, 59.239666
1231, 56.824966, 3.175035, 22.282814
1232, 6.777173, 6.777173, 65.839874
1233, 56.824627, 3.175371, 59.239666
1234, 6.826075, 3.176159, 20.107538
1235, 3.135373, 3.089413, 15.879026
1236, 56.834755, 6.814758, 28.812756
1237, 3.141196, 3.151674, 59.180523
1238, 53.141197, 6.848326, 59.180523
1239, 53.177231, 6.827066, 22.284571
1240, 42.568924, 3.272003, 81.712982
1241, 3.175029, 6.824996, 38.587193
1242, 3.185905, 3.163725, 42.943695
1243, 53.217068, 6.795604, 65.808128
1244, 3.217216, 3.204571, 65.808495
1245, 7.071835, 7.071835, 42.391304
1246, 52.946518, 7.002613, 16.186001
1247, 56.763729, 3.514193, 81.848358
1248, 37.575653, 6.784369, 78.585800
1249, 17.823286, 6.848359, 81.252144
1250, 2.975210, 3.230008, 3.543299
1251, 37.339096, 3.243913, 81.756088
1252, 32.871258, 3.169152, 81.911003
1253, 32.840660, 6.845581, 78.161903
1254, 7.117637, 7.051817, 45.725544
1255, 3.206858, 6.555072, 81.803703
1256, 47.421738, 3.435152, 81.962845
1257, 16.659695, 2.916751, 77.818169
1258, 23.759968, 6.876112, 81.923187
1259, 23.905077, 3.159477, 78.251320

*ELEMENT, TYPE=C3D4, ELSET=ALL_ELEMENTS
1, 648, 1100, 1248, 1251
2, 797, 1098, 971, 1246
3, 32, 1080, 425, 1149
4, 1102, 1163, 114, 1170
5, 1101, 1164, 290, 1169
6, 118, 678, 32, 1080
7, 674, 1149, 425, 1255
8, 648, 1248, 1105, 1251
9, 931, 1079, 929, 1169
10, 436, 1080, 435, 1170
11, 971, 1098, 990, 1246
12, 328, 1083, 540, 1235
13, 172, 1104, 102, 1164
14, 436, 435, 114, 1170
15, 931, 929, 290, 1169
16, 678, 425, 32, 1080
17, 436, 114, 1163, 1170
18, 931, 290, 1164, 1169
19, 948, 971, 990, 1246
20, 648, 662, 1100, 1251
21, 670, 414, 1099, 1252
22, 436, 1163, 1080, 1170
23, 931, 1164, 1079, 1169
24, 797, 1126, 1098, 1246
25, 950, 1085, 800, 1222
26, 877, 1085, 1041, 1223
27, 864, 1090, 826, 1225
28, 355, 1089, 449, 1234
29, 1072, 1098, 922, 1221
30, 686, 1083, 484, 1226
31, 528, 1093, 696, 1241
32, 797, 948, 821, 1246
33, 515, 1095, 325, 1237
34, 981, 1096, 794, 1238
35, 346, 452, 1093, 1227
36, 948, 797, 971, 1246
37, 821, 1126, 797, 1246
38, 648, 662, 633, 1100
39, 779, 1105, 648, 1248
40, 678, 1080, 118, 1255
41, 769, 1099, 643, 1258
42, 551, 1092, 339, 1242
43, 483, 1095, 683, 1230
44, 1048, 899, 1096, 1233
45, 893, 1016, 1091, 1231
46, 587, 408, 1103, 1142
47, 1044, 946, 1090, 1236
48, 685, 1089, 517, 1224
49, 102, 1104, 172, 1191
50, 674, 425, 678, 1255
51, 423, 1103, 408, 1142
52, 655, 670, 1099, 1252
53, 213, 114, 1102, 1163
54, 290, 1101, 185, 1164
55, 618, 102, 1104, 1164
56, 592, 753, 1099, 1253
57, 540, 1083, 567, 1235
58, 328, 350, 1083, 1235
59, 213, 680, 114, 1163
60, 619, 290, 185, 1164
61, 587, 397, 408, 1142
62, 587, 599, 397, 1142
63, 647, 1109, 774, 1214
64, 696, 1093, 737, 1241
65, 922, 1098, 904, 1221
66, 618, 102, 10, 1104
67, 647, 774, 628, 1214
68, 378, 339, 1092, 1242
69, 423, 408, 397, 1142
70, 800, 1085, 847, 1222
71, 436, 114, 680, 1163
72, 931, 290, 619, 1164
73, 997, 1085, 950, 1222
74, 1109, 1148, 681, 1163
75, 826, 1090, 843, 1225
76, 380, 325, 1095, 1237
77, 998, 1096, 981, 1238
78, 570, 1093, 528, 1241
79, 685, 732, 1089, 1224
80, 762, 648, 1100, 1248
81, 787, 1099, 769, 1258
82, 1041, 1085, 1060, 1223
83, 908, 1085, 877, 1223
84, 912, 1090, 864, 1225
85, 372, 1089, 355, 1234
86, 1059, 1091, 1016, 1231
87, 1044, 1090, 1062, 1236
88, 449, 1089, 495, 1234
89, 643, 1099, 644, 1258
90, 414, 429, 1099, 1252
91, 686, 739, 1083, 1226
92, 503, 484, 1083, 1226
93, 494, 1093, 452, 1227
94, 346, 1093, 373, 1227
95, 34, 1109, 125, 1215
96, 1037, 1098, 1072, 1221
97, 810, 973, 1239, 1246
98, 681, 1154, 1109, 1163
99, 893, 1091, 911, 1231
100, 568, 1092, 551, 1242
101, 125, 1109, 34, 1202
102, 1005, 1090, 946, 1236
103, 502, 1095, 483, 1230
104, 738, 683, 1095, 1230
105, 1048, 1096, 1056, 1233
106, 918, 1096, 899, 1233
107, 517, 1089, 565, 1224
108, 753, 786, 1099, 1253
109, 1098, 1132, 990, 1246
110, 774, 1109, 647, 1148
111, 417, 1109, 634, 1203
112, 1016, 893, 1091, 1221
113, 821, 822, 797, 1126
114, 187, 1079, 101, 1247
115, 534, 1095, 515, 1237
116, 794, 1096, 812, 1238
117, 1099, 1130, 644, 1258
118, 22, 681, 1109, 1148
119, 634, 1109, 417, 1149
120, 436, 680, 1080, 1163
121, 931, 619, 1079, 1164
122, 22, 1109, 681, 1154
123, 423, 1139, 1103, 1142
124, 822, 1098, 797, 1126
125, 350, 1115, 1083, 1235
126, 750, 1081, 591, 1142
127, 648, 633, 762, 1100
128, 430, 1099, 413, 1259
129, 22, 215, 681, 1148
130, 1104, 1147, 652, 1256
131, 423, 1139, 1142, 1257
132, 981, 794, 1096, 1243
133, 325, 1095, 515, 1244
134, 922, 1098, 1072, 1199
135, 611, 592, 1099, 1253
136, 1048, 1096, 899, 1229
137, 483, 683, 1095, 1232
138, 750, 1081, 790, 1154
139, 750, 591, 1081, 1154
140, 34, 4, 1109, 1215
141, 778, 1081, 750, 1142
142, 800, 1085, 950, 1197
143, 450, 1083, 385, 1115
144, 449, 1089, 355, 1195
145, 599, 397, 1142, 1257
146, 187, 931, 101, 1079
147, 887, 1098, 854, 1126
148, 408, 587, 1103, 1259
149, 551, 339, 1092, 1179
150, 540, 1083, 328, 1217
151, 790, 1154, 1081, 1214
152, 1104, 1147, 618, 1164
153, 346, 1093, 452, 1201
154, 328, 519, 349, 1235
155, 416, 1147, 1104, 1256
156, 484, 1083, 686, 1212
157, 719, 1095, 576, 1122
158, 519, 328, 540, 1235
159, 862, 853, 1096, 1123
160, 216, 436, 1080, 1255
161, 385, 1083, 450, 1183
162, 643, 644, 626, 1258
163, 826, 1090, 864, 1125
164, 956, 1091, 1035, 1124
165, 548, 330, 1093, 1127
166, 345, 446, 1086, 1133
167, 525, 1083, 720, 1128
168, 648, 1105, 779, 1181
169, 215, 681, 1148, 1163
170, 548, 1093, 330, 1184
171, 854, 1098, 887, 1173
172, 943, 1011, 1134, 1168
173, 1087, 1134, 1011, 1168
174, 100, 618, 1147, 1164
175, 1035, 1091, 956, 1132
176, 943, 1134, 1087, 1168
177, 361, 1095, 447, 1133
178, 10, 1104, 102, 1191
179, 345, 1086, 446, 1153
180, 1012, 1096, 944, 1134
181, 364, 485, 1144, 1183
182, 328, 349, 350, 1235
183, 645, 1249, 763, 1258
184, 1041, 1085, 877, 1165
185, 634, 1109, 663, 1203
186, 645, 1103, 1249, 1258
187, 696, 1093, 528, 1161
188, 423, 1142, 397, 1257
189, 476, 700, 1120, 1186
190, 762, 779, 648, 1248
191, 649, 417, 634, 1203
192, 655, 623, 670, 1252
193, 416, 652, 1147, 1256
194, 1083, 1128, 567, 1235
195, 955, 1098, 1025, 1132
196, 793, 1123, 861, 1177
197, 971, 1098, 797, 1219
198, 772, 628, 774, 1214
199, 758, 769, 643, 1258
200, 393, 1139, 1081, 1203
201, 342, 515, 325, 1237
202, 953, 981, 794, 1238
203, 1044, 1090, 946, 1124
204, 643, 626, 758, 1258
205, 707, 530, 1129, 1200
206, 823, 890, 1118, 1196
207, 547, 327, 1121, 1189
208, 636, 1081, 1139, 1203
209, 1027, 968, 1116, 1198
210, 359, 1092, 463, 1131
211, 861, 1123, 1087, 1177
212, 975, 950, 819, 1222
213, 798, 871, 1091, 1125
214, 793, 1087, 1123, 1177
215, 519, 540, 567, 1235
216, 769, 643, 1099, 1140
217, 463, 1092, 359, 1152
218, 871, 798, 1091, 1126
219, 525, 720, 1083, 1192
220, 476, 1120, 1089, 1186
221, 950, 800, 819, 1222
222, 1080, 1148, 1109, 1163
223, 1089, 1120, 700, 1186
224, 414, 670, 1099, 1130
225, 117, 1080, 436, 1255
226, 862, 1096, 853, 1150
227, 1017, 883, 1041, 1223
228, 883, 877, 1041, 1223
229, 576, 1095, 719, 1151
230, 686, 460, 710, 1226
231, 460, 686, 484, 1226
232, 804, 884, 864, 1225
233, 452, 338, 475, 1227
234, 346, 338, 452, 1227
235, 413, 1099, 593, 1259
236, 483, 683, 456, 1230
237, 456, 683, 701, 1230
238, 1048, 1020, 870, 1233
239, 1048, 870, 899, 1233
240, 1025, 1098, 955, 1207
241, 703, 1122, 514, 1194
242, 619, 101, 931, 1079
243, 216, 436, 680, 1080
244, 804, 864, 826, 1225
245, 517, 1089, 685, 1162
246, 649, 634, 663, 1203
247, 953, 794, 811, 1238
248, 342, 533, 515, 1237
249, 679, 216, 680, 1080
250, 619, 617, 101, 1079
251, 787, 1138, 1099, 1258
252, 547, 1121, 1089, 1189
253, 1089, 1121, 327, 1189
254, 679, 1080, 680, 1163
255, 619, 617, 1079, 1164
256, 866, 1072, 922, 1221
257, 534, 1122, 1095, 1237
258, 1096, 1123, 812, 1238
259, 707, 1129, 1092, 1200
260, 1092, 1129, 530, 1200
261, 598, 1103, 754, 1142
262, 1085, 1118, 890, 1196
263, 823, 1118, 1085, 1196
264, 412, 1100, 595, 1136
265, 1027, 1116, 1085, 1198
266, 758, 787, 769, 1258
267, 355, 449, 354, 1234
268, 1085, 1116, 968, 1198
269, 652, 668, 1104, 1256
270, 429, 1136, 1099, 1252
271, 354, 449, 478, 1234
272, 754, 1103, 598, 1138
273, 711, 528, 696, 1241
274, 997, 1116, 1085, 1222
275, 636, 1139, 393, 1203
276, 32, 118, 1080, 1170
277, 810, 973, 827, 1239
278, 1113, 1144, 485, 1183
279, 944, 1096, 1012, 1156
280, 1085, 1118, 847, 1222
281, 447, 1095, 361, 1155
282, 1005, 1117, 1090, 1236
283, 216, 117, 436, 1255
284, 1038, 1175, 872, 1199
285, 413, 603, 1099, 1136
286, 973, 957, 827, 1239
287, 414, 401, 429, 1252
288, 722, 488, 1158, 1232
289, 1052, 901, 1160, 1229
290, 908, 1118, 1085, 1223
291, 350, 385, 1083, 1115
292, 592, 770, 753, 1253
293, 645, 1103, 661, 1249
294, 732, 1120, 1089, 1224
295, 912, 1119, 1090, 1225
296, 4, 1149, 1109, 1215
297, 674, 654, 1149, 1255
298, 1060, 1085, 1116, 1223
299, 1095, 1133, 380, 1237
300, 998, 1134, 1096, 1238
301, 703, 1086, 1122, 1194
302, 602, 1081, 591, 1154
303, 1089, 1120, 495, 1234
304, 1090, 1119, 1062, 1236
305, 528, 711, 541, 1241
306, 565, 1089, 1121, 1224
307, 1059, 1124, 1091, 1231
308, 1090, 1117, 843, 1225
309, 570, 1127, 1093, 1241
310, 739, 1128, 1083, 1226
311, 1091, 1124, 991, 1239
312, 373, 1093, 1127, 1227
313, 409, 1103, 635, 1130
314, 514, 1122, 1086, 1194
315, 840, 1125, 1091, 1239
316, 709, 469, 1135, 1210
317, 380, 342, 325, 1237
318, 953, 998, 981, 1238
319, 372, 1121, 1089, 1234
320, 294, 1101, 171, 1176
321, 517, 549, 715, 1224
322, 363, 553, 1167, 1244
323, 114, 213, 1102, 1172
324, 568, 1129, 1092, 1242
325, 685, 517, 715, 1224
326, 590, 770, 592, 1253
327, 185, 1101, 290, 1160
328, 494, 1135, 1093, 1227
329, 1091, 1125, 911, 1231
330, 983, 1176, 831, 1243
331, 294, 171, 1101, 1204
332, 393, 1081, 432, 1203
333, 592, 1099, 753, 1138
334, 393, 421, 432, 1081
335, 524, 1143, 723, 1192
336, 854, 1098, 822, 1126
337, 595, 1100, 412, 1209
338, 778, 1081, 1142, 1249
339, 1052, 1029, 901, 1229
340, 722, 718, 488, 1232
341, 503, 1083, 1115, 1226
342, 117, 435, 436, 1080
343, 187, 929, 931, 1079
344, 502, 1133, 1095, 1230
345, 1096, 1134, 1056, 1233
346, 1093, 1135, 737, 1241
347, 895, 828, 1118, 1225
348, 896, 1046, 1119, 1223
349, 777, 1100, 633, 1140
350, 472, 1120, 687, 1226
351, 611, 1099, 1136, 1253
352, 1014, 894, 1119, 1231
353, 416, 1104, 10, 1256
354, 714, 527, 1128, 1224
355, 602, 1081, 1154, 1202
356, 786, 1140, 1099, 1253
357, 1093, 1135, 469, 1210
358, 832, 886, 1141, 1173
359, 635, 1103, 409, 1139
360, 331, 1127, 538, 1242
361, 866, 922, 904, 1221
362, 542, 1217, 362, 1250
363, 949, 799, 1117, 1222
364, 1099, 1140, 655, 1252
365, 529, 697, 1129, 1241
366, 974, 1117, 796, 1239
367, 364, 1144, 1113, 1183
368, 4, 1109, 417, 1203
369, 351, 1131, 453, 1227
370, 961, 983, 831, 1243
371, 363, 360, 553, 1244
372, 753, 770, 786, 1253
373, 738, 1095, 1122, 1230
374, 918, 1123, 1096, 1233
375, 711, 696, 737, 1241
376, 1097, 1145, 606, 1180
377, 660, 1105, 648, 1181
378, 800, 847, 819, 1222
379, 648, 1105, 660, 1251
380, 1092, 1131, 378, 1242
381, 810, 827, 840, 1239
382, 804, 826, 843, 1225
383, 448, 713, 699, 1193
384, 684, 702, 537, 1200
385, 537, 702, 545, 1200
386, 702, 1194, 545, 1200
387, 448, 1193, 699, 1205
388, 358, 479, 471, 1201
389, 601, 1191, 1097, 1206
390, 954, 1137, 1024, 1207
391, 358, 471, 336, 1201
392, 32, 425, 419, 1149
393, 471, 1195, 336, 1201
394, 350, 1083, 385, 1183
395, 639, 674, 654, 1149
396, 778, 790, 750, 1081
397, 663, 647, 1109, 1148
398, 901, 1029, 878, 1229
399, 464, 488, 718, 1232
400, 541, 570, 528, 1241
401, 1054, 1072, 866, 1221
402, 975, 997, 950, 1222
403, 883, 908, 877, 1223
404, 1041, 1060, 1017, 1223
405, 912, 864, 884, 1225
406, 685, 715, 732, 1224
407, 686, 710, 739, 1226
408, 503, 460, 484, 1226
409, 475, 494, 452, 1227
410, 346, 373, 338, 1227
411, 709, 1135, 1093, 1210
412, 378, 347, 339, 1242
413, 1044, 1062, 1022, 1236
414, 456, 502, 483, 1230
415, 738, 701, 683, 1230
416, 1048, 1056, 1020, 1233
417, 870, 918, 899, 1233
418, 1045, 1059, 1016, 1231
419, 478, 449, 495, 1234
420, 33, 1149, 4, 1215
421, 973, 991, 957, 1239
422, 617, 100, 101, 1079
423, 679, 215, 216, 1080
424, 932, 217, 218, 1079
425, 33, 321, 32, 1080
426, 118, 435, 117, 1080
427, 187, 188, 929, 1079
428, 789, 1145, 1097, 1180
429, 4, 34, 1109, 1202
430, 893, 911, 876, 1231
431, 329, 451, 1115, 1234
432, 644, 1099, 670, 1130
433, 987, 1047, 1116, 1236
434, 1039, 1021, 969, 1198
435, 611, 590, 592, 1253
436, 485, 509, 1113, 1183
437, 522, 568, 551, 1242
438, 534, 576, 1095, 1122
439, 853, 812, 1096, 1123
440, 466, 713, 448, 1193
441, 906, 1038, 872, 1199
442, 798, 1091, 840, 1125
443, 904, 1098, 887, 1126
444, 1080, 1163, 1109, 1215
445, 413, 603, 593, 1099
446, 1023, 863, 1190, 1208
447, 811, 794, 812, 1238
448, 533, 534, 515, 1237
449, 789, 765, 1097, 1216
450, 1023, 1032, 863, 1208
451, 601, 1145, 1097, 1191
452, 1037, 1132, 1098, 1221
453, 688, 1186, 480, 1210
454, 822, 1098, 854, 1173
455, 663, 1109, 634, 1149
456, 688, 458, 480, 1186
457, 969, 1198, 1021, 1218
458, 1039, 969, 959, 1198
459, 587, 609, 599, 1142
460, 818, 972, 951, 1197
461, 393, 421, 1081, 1139
462, 639, 425, 674, 1149
463, 880, 1023, 863, 1190
464, 1079, 1147, 1104, 1164
465, 1082, 1115, 451, 1234
466, 949, 1117, 1084, 1222
467, 550, 1178, 382, 1179
468, 516, 550, 382, 1179
469, 463, 1092, 500, 1131
470, 1097, 1240, 431, 1256
471, 774, 22, 1109, 1148
472, 895, 1118, 1084, 1225
473, 1084, 1118, 828, 1225
474, 517, 565, 549, 1224
475, 1084, 1119, 1046, 1223
476, 896, 1119, 1084, 1223
477, 357, 348, 520, 1184
478, 472, 1082, 1120, 1226
479, 687, 1120, 1082, 1226
480, 535, 1184, 348, 1189
481, 587, 1103, 609, 1142
482, 670, 644, 655, 1099
483, 535, 520, 348, 1184
484, 1014, 1119, 1090, 1231
485, 1090, 1119, 894, 1231
486, 714, 1128, 1082, 1224
487, 1082, 1128, 527, 1224
488, 712, 721, 487, 1212
489, 1084, 1117, 799, 1222
490, 404, 396, 627, 1240
491, 777, 762, 633, 1100
492, 354, 372, 355, 1234
493, 1004, 1084, 987, 1116
494, 785, 1105, 779, 1248
495, 538, 1127, 1088, 1242
496, 967, 1084, 949, 1117
497, 430, 1130, 1099, 1259
498, 351, 1088, 1131, 1227
499, 451, 1082, 492, 1115
500, 789, 1097, 765, 1181
501, 974, 1090, 1117, 1239
502, 910, 871, 1091, 1126
503, 30, 1157, 1102, 1215
504, 796, 1117, 1090, 1239
505, 987, 1116, 1084, 1236
506, 1084, 1116, 1047, 1236
507, 529, 1129, 1088, 1241
508, 331, 1088, 1127, 1242
509, 688, 705, 458, 1186
510, 371, 1082, 341, 1121
511, 754, 1103, 781, 1142
512, 367, 1082, 329, 1115
513, 907, 1087, 861, 1123
514, 835, 1185, 868, 1196
515, 1005, 974, 1090, 1117
516, 1088, 1129, 697, 1241
517, 565, 1089, 547, 1121
518, 329, 1115, 1082, 1234
519, 548, 1093, 570, 1127
520, 450, 503, 1083, 1115
521, 341, 1121, 1082, 1235
522, 396, 627, 1240, 1251
523, 341, 543, 1121, 1235
524, 542, 518, 362, 1217
525, 829, 961, 831, 1243
526, 553, 360, 552, 1244
527, 345, 1086, 370, 1133
528, 853, 812, 839, 1096
529, 576, 559, 534, 1095
530, 808, 835, 868, 1196
531, 491, 1086, 446, 1133
532, 1063, 1047, 1084, 1116
533, 1060, 1085, 1027, 1116
534, 364, 1113, 387, 1183
535, 945, 1211, 805, 1228
536, 676, 678, 118, 1255
537, 989, 1087, 943, 1134
538, 846, 799, 1084, 1117
539, 750, 591, 760, 1142
540, 402, 430, 413, 1259
541, 826, 841, 1090, 1125
542, 1109, 1163, 1154, 1215
543, 453, 1131, 1088, 1227
544, 359, 378, 1092, 1131
545, 125, 1157, 30, 1215
546, 904, 1098, 1126, 1221
547, 909, 1084, 895, 1118
548, 845, 828, 1084, 1118
549, 890, 1085, 908, 1118
550, 847, 1085, 823, 1118
551, 1046, 1084, 1065, 1119
552, 914, 1084, 896, 1119
553, 687, 729, 1082, 1120
554, 493, 472, 1082, 1120
555, 500, 1092, 463, 1152
556, 968, 1085, 997, 1116
557, 721, 1166, 487, 1212
558, 947, 830, 970, 1219
559, 1062, 1090, 1014, 1119
560, 495, 1089, 476, 1120
561, 700, 1089, 732, 1120
562, 912, 894, 1090, 1119
563, 836, 840, 798, 1091
564, 1072, 1098, 1037, 1199
565, 703, 1086, 727, 1122
566, 843, 1090, 796, 1117
567, 575, 1086, 514, 1122
568, 731, 1082, 714, 1128
569, 527, 1082, 563, 1128
570, 566, 1088, 538, 1127
571, 1061, 1090, 1044, 1124
572, 789, 1097, 780, 1180
573, 569, 1088, 529, 1129
574, 1071, 1175, 1038, 1199
575, 793, 1087, 852, 1123
576, 485, 1113, 509, 1144
577, 639, 419, 425, 1149
578, 652, 1104, 668, 1147
579, 709, 737, 1093, 1135
580, 864, 1090, 913, 1125
581, 736, 697, 1088, 1129
582, 331, 1088, 376, 1127
583, 366, 382, 550, 1178
584, 328, 350, 369, 1083
585, 956, 991, 1091, 1124
586, 1059, 1035, 1091, 1124
587, 737, 1093, 696, 1161
588, 561, 514, 575, 1086
589, 446, 491, 507, 1086
590, 945, 963, 805, 1211
591, 921, 861, 907, 1087
592, 989, 1003, 943, 1087
593, 525, 567, 1083, 1128
594, 720, 1083, 739, 1128
595, 373, 1093, 330, 1127
596, 732, 743, 685, 1089
597, 1011, 1087, 1068, 1134
598, 327, 1089, 372, 1121
599, 362, 1217, 387, 1250
600, 345, 383, 370, 1086
601, 1126, 1132, 1098, 1246
602, 663, 1148, 1109, 1149
603, 780, 1097, 789, 1181
604, 730, 1092, 707, 1129
605, 530, 1092, 568, 1129
606, 547, 565, 574, 1089
607, 589, 597, 407, 1209
608, 459, 712, 487, 1212
609, 798, 836, 1091, 1126
610, 738, 1095, 719, 1122
611, 862, 1096, 918, 1123
612, 649, 405, 417, 1203
613, 363, 1167, 386, 1244
614, 992, 956, 1091, 1132
615, 636, 1081, 665, 1139
616, 364, 387, 1113, 1144
617, 1040, 1168, 1002, 1174
618, 379, 351, 1088, 1131
619, 778, 750, 760, 1142
620, 1040, 1002, 1013, 1174
621, 469, 1093, 494, 1135
622, 350, 369, 1083, 1183
623, 355, 372, 374, 1089
624, 826, 841, 843, 1090
625, 643, 655, 1099, 1140
626, 500, 490, 1092, 1152
627, 885, 868, 835, 1185
628, 528, 570, 573, 1093
629, 514, 1086, 561, 1194
630, 945, 805, 813, 1228
631, 1071, 1114, 1175, 1199
632, 1035, 1073, 1091, 1132
633, 1018, 891, 874, 1165
634, 853, 1096, 839, 1150
635, 447, 1095, 502, 1133
636, 361, 380, 1095, 1133
637, 944, 1096, 998, 1134
638, 1012, 1056, 1096, 1134
639, 559, 1095, 576, 1151
640, 842, 852, 793, 1087
641, 1006, 1176, 983, 1243
642, 703, 733, 727, 1086
643, 1041, 1064, 1060, 1085
644, 1027, 1060, 1064, 1085
645, 823, 847, 844, 1085
646, 844, 847, 800, 1085
647, 1068, 1011, 1058, 1087
648, 915, 908, 890, 1085
649, 908, 915, 877, 1085
650, 997, 968, 995, 1085
651, 495, 449, 496, 1089
652, 476, 495, 496, 1089
653, 1061, 1062, 1044, 1090
654, 946, 1090, 993, 1124
655, 950, 997, 995, 1085
656, 700, 743, 732, 1089
657, 913, 864, 912, 1090
658, 547, 1089, 574, 1189
659, 355, 1089, 374, 1195
660, 573, 570, 548, 1093
661, 341, 1082, 371, 1235
662, 1054, 1037, 1072, 1221
663, 726, 1093, 737, 1161
664, 943, 1087, 1003, 1168
665, 955, 990, 1098, 1132
666, 992, 956, 991, 1091
667, 745, 723, 1143, 1192
668, 1059, 1035, 1073, 1091
669, 374, 372, 327, 1089
670, 188, 929, 1079, 1169
671, 435, 1080, 118, 1170
672, 508, 1158, 488, 1232
673, 722, 1158, 744, 1232
674, 1052, 1160, 1074, 1229
675, 901, 924, 1160, 1229
676, 329, 1082, 367, 1234
677, 650, 652, 416, 1256
678, 453, 501, 1088, 1131
679, 739, 740, 686, 1083
680, 525, 567, 571, 1083
681, 450, 503, 505, 1083
682, 740, 739, 720, 1083
683, 484, 505, 503, 1083
684, 540, 571, 567, 1083
685, 759, 600, 1180, 1248
686, 172, 1104, 1145, 1191
687, 923, 872, 1175, 1199
688, 365, 486, 1155, 1157
689, 982, 1156, 1051, 1159
690, 500, 463, 490, 1152
691, 378, 1092, 339, 1179
692, 551, 568, 564, 1092
693, 373, 375, 330, 1093
694, 494, 469, 497, 1093
695, 861, 1087, 921, 1177
696, 838, 797, 822, 1098
697, 830, 1188, 970, 1219
698, 728, 707, 730, 1092
699, 564, 568, 530, 1092
700, 494, 497, 452, 1093
701, 373, 346, 375, 1093
702, 1055, 1072, 1037, 1199
703, 1038, 906, 1015, 1199
704, 1025, 1098, 1037, 1132
705, 1002, 1040, 985, 1168
706, 446, 1086, 507, 1153
707, 987, 1084, 1004, 1236
708, 387, 1217, 1113, 1250
709, 904, 1098, 922, 1199
710, 1006, 983, 961, 1243
711, 363, 386, 360, 1244
712, 916, 1182, 1094, 1185
713, 524, 723, 546, 1192
714, 823, 1085, 844, 1196
715, 588, 760, 591, 1142
716, 447, 504, 502, 1095
717, 381, 361, 380, 1095
718, 719, 738, 741, 1095
719, 918, 862, 919, 1096
720, 944, 1000, 998, 1096
721, 1056, 1070, 1012, 1096
722, 1027, 1085, 1064, 1198
723, 703, 733, 1086, 1194
724, 726, 737, 696, 1161
725, 995, 1085, 968, 1198
726, 844, 1085, 800, 1197
727, 915, 1085, 890, 1196
728, 496, 1089, 449, 1195
729, 125, 1102, 1157, 1215
730, 1055, 1037, 1098, 1199
731, 790, 1214, 1081, 1249
732, 188, 217, 1169, 1213
733, 950, 1085, 995, 1197
734, 932, 1079, 218, 1204
735, 1005, 993, 946, 1090
736, 565, 517, 574, 1089
737, 350, 385, 369, 1183
738, 383, 1086, 345, 1153
739, 1057, 1049, 1066, 1094
740, 1028, 1057, 1066, 1094
741, 967, 949, 1084, 1222
742, 469, 497, 1093, 1210
743, 994, 1174, 1094, 1218
744, 328, 1083, 369, 1217
745, 743, 1089, 700, 1186
746, 627, 638, 404, 1240
747, 856, 832, 1141, 1173
748, 999, 955, 990, 1098
749, 606, 1097, 601, 1145
750, 820, 1177, 920, 1182
751, 294, 1101, 1169, 1204
752, 476, 1089, 496, 1186
753, 743, 685, 1089, 1162
754, 553, 577, 1167, 1244
755, 875, 1182, 916, 1185
756, 911, 1091, 871, 1125
757, 832, 865, 886, 1173
758, 573, 1093, 548, 1184
759, 822, 838, 1098, 1173
760, 914, 1084, 909, 1223
761, 1063, 1084, 1065, 1223
762, 731, 1082, 729, 1224
763, 563, 562, 1082, 1224
764, 842, 1087, 793, 1177
765, 327, 374, 1089, 1189
766, 846, 1084, 845, 1225
767, 909, 1084, 914, 1225
768, 571, 1083, 540, 1217
769, 492, 1082, 493, 1226
770, 729, 1082, 731, 1226
771, 727, 1086, 733, 1230
772, 507, 1086, 491, 1230
773, 1058, 1068, 1087, 1233
774, 359, 378, 368, 1092
775, 846, 845, 1084, 1222
776, 999, 990, 971, 1098
777, 921, 1087, 907, 1233
778, 569, 566, 1088, 1242
779, 1061, 1062, 1090, 1231
780, 912, 913, 1090, 1231
781, 420, 431, 1097, 1240
782, 321, 1080, 33, 1215
783, 1094, 1220, 814, 1228
784, 986, 1005, 946, 1236
785, 954, 1024, 977, 1207
786, 417, 1109, 4, 1149
787, 707, 1092, 728, 1200
788, 564, 1092, 530, 1200
789, 452, 1093, 497, 1201
790, 375, 1093, 346, 1201
791, 493, 1082, 492, 1234
792, 786, 769, 1099, 1140
793, 398, 1206, 589, 1209
794, 839, 1096, 794, 1243
795, 569, 1088, 566, 1241
796, 515, 1095, 559, 1244
797, 904, 888, 887, 1098
798, 343, 506, 326, 1153
799, 812, 794, 839, 1096
800, 559, 515, 534, 1095
801, 506, 1152, 326, 1153
802, 923, 1175, 1114, 1199
803, 887, 1098, 888, 1173
804, 855, 831, 1176, 1243
805, 1005, 1090, 974, 1239
806, 362, 518, 353, 1217
807, 1070, 1096, 1056, 1229
808, 918, 1096, 919, 1229
809, 655, 644, 643, 1099
810, 504, 502, 1095, 1232
811, 741, 1095, 738, 1232
812, 1005, 993, 1090, 1239
813, 1046, 1065, 1084, 1223
814, 914, 896, 1084, 1223
815, 563, 1082, 527, 1224
816, 731, 714, 1082, 1224
817, 895, 1084, 909, 1225
818, 845, 1084, 828, 1225
819, 740, 686, 1083, 1212
820, 505, 1083, 484, 1212
821, 1070, 1056, 1048, 1229
822, 918, 919, 899, 1229
823, 683, 741, 738, 1232
824, 504, 483, 502, 1232
825, 493, 1082, 472, 1226
826, 687, 1082, 729, 1226
827, 1058, 1087, 1011, 1168
828, 1055, 1037, 1025, 1098
829, 217, 1079, 932, 1169
830, 32, 1080, 321, 1170
831, 383, 370, 1086, 1237
832, 1056, 1096, 1048, 1229
833, 918, 899, 1096, 1229
834, 683, 738, 1095, 1232
835, 483, 1095, 502, 1232
836, 778, 790, 1081, 1249
837, 846, 1084, 799, 1222
838, 538, 1088, 566, 1242
839, 679, 215, 1080, 1163
840, 100, 1079, 617, 1164
841, 989, 1003, 1087, 1238
842, 1014, 1090, 1062, 1231
843, 1086, 1193, 733, 1230
844, 912, 1090, 894, 1231
845, 507, 1193, 1086, 1230
846, 359, 1092, 368, 1152
847, 841, 843, 1090, 1239
848, 1063, 1065, 1084, 1236
849, 564, 551, 1092, 1179
850, 1041, 1064, 1085, 1165
851, 489, 506, 343, 1153
852, 528, 1093, 573, 1161
853, 1059, 1091, 1073, 1221
854, 877, 1085, 915, 1165
855, 1052, 1074, 1029, 1229
856, 901, 878, 924, 1229
857, 575, 561, 1086, 1237
858, 1081, 1203, 664, 1214
859, 464, 508, 488, 1232
860, 722, 744, 718, 1232
861, 379, 376, 1088, 1227
862, 1058, 1087, 1190, 1233
863, 824, 830, 947, 1219
864, 921, 1190, 1087, 1233
865, 1059, 1016, 1091, 1221
866, 451, 492, 1082, 1234
867, 737, 709, 1093, 1210
868, 916, 897, 1094, 1208
869, 501, 1088, 498, 1227
870, 529, 1088, 569, 1241
871, 967, 1084, 1004, 1222
872, 664, 1081, 665, 1203
873, 563, 1082, 562, 1235
874, 589, 1206, 610, 1209
875, 736, 1088, 697, 1241
876, 375, 330, 1093, 1184
877, 172, 1104, 1164, 1204
878, 822, 854, 838, 1173
879, 814, 837, 1094, 1228
880, 998, 1096, 1000, 1243
881, 796, 1090, 843, 1239
882, 380, 381, 1095, 1244
883, 734, 1088, 736, 1241
884, 724, 554, 1151, 1172
885, 1063, 1084, 1047, 1236
886, 988, 1094, 994, 1174
887, 392, 431, 1240, 1256
888, 833, 900, 1150, 1171
889, 376, 1088, 331, 1242
890, 409, 426, 1103, 1130
891, 820, 903, 920, 1177
892, 1004, 1084, 967, 1236
893, 591, 1081, 608, 1142
894, 379, 1088, 351, 1227
895, 367, 1082, 371, 1234
896, 814, 1094, 837, 1220
897, 376, 379, 1088, 1242
898, 414, 1099, 430, 1130
899, 905, 1094, 916, 1182
900, 910, 871, 911, 1091
901, 916, 1094, 905, 1208
902, 172, 1104, 171, 1145
903, 1097, 1180, 606, 1206
904, 611, 1099, 603, 1136
905, 981, 1096, 998, 1243
906, 380, 1095, 325, 1244
907, 699, 1193, 735, 1205
908, 982, 980, 1051, 1156
909, 842, 852, 1087, 1238
910, 1028, 1057, 1094, 1208
911, 482, 365, 486, 1155
912, 501, 453, 1088, 1227
913, 779, 1105, 785, 1181
914, 723, 694, 546, 1192
915, 610, 1180, 600, 1248
916, 1066, 1094, 1049, 1218
917, 420, 1097, 431, 1206
918, 795, 820, 920, 1182
919, 1086, 1178, 383, 1237
920, 893, 911, 1091, 1221
921, 960, 1174, 994, 1218
922, 699, 713, 735, 1193
923, 737, 1093, 726, 1210
924, 916, 1094, 897, 1187
925, 585, 600, 761, 1248
926, 664, 665, 1081, 1214
927, 1094, 1182, 837, 1185
928, 999, 1098, 971, 1219
929, 378, 368, 1092, 1179
930, 371, 1082, 367, 1235
931, 561, 1178, 1086, 1237
932, 797, 1098, 838, 1219
933, 635, 1103, 657, 1130
934, 610, 1206, 1105, 1209
935, 1105, 1206, 422, 1209
936, 428, 1100, 412, 1136
937, 517, 574, 1089, 1162
938, 1058, 1190, 1042, 1233
939, 413, 1099, 429, 1136
940, 416, 10, 1104, 1147
941, 1154, 1163, 126, 1215
942, 994, 1220, 1094, 1228
943, 910, 1091, 911, 1221
944, 595, 1100, 605, 1136
945, 386, 1167, 1112, 1244
946, 788, 1100, 777, 1140
947, 682, 733, 1193, 1230
948, 856, 1141, 1114, 1173
949, 1066, 1028, 1094, 1187
950, 571, 525, 1083, 1192
951, 601, 1097, 606, 1206
952, 380, 325, 381, 1244
953, 1057, 1049, 1094, 1174
954, 981, 998, 1000, 1243
955, 1003, 1211, 1087, 1238
956, 740, 1083, 720, 1192
957, 101, 1079, 100, 1147
958, 216, 1080, 215, 1148
959, 661, 1103, 1139, 1249
960, 992, 1091, 991, 1246
961, 1097, 1191, 431, 1206
962, 450, 1083, 505, 1183
963, 32, 33, 1080, 1149
964, 1112, 1167, 577, 1244
965, 752, 1248, 1100, 1253
966, 745, 1143, 1113, 1192
967, 635, 661, 1103, 1139
968, 598, 1103, 612, 1138
969, 1006, 1111, 1176, 1243
970, 815, 837, 1094, 1220
971, 994, 1094, 988, 1228
972, 569, 538, 566, 1242
973, 849, 837, 1182, 1185
974, 832, 806, 865, 1173
975, 840, 1091, 836, 1246
976, 184, 172, 1164, 1171
977, 753, 1099, 787, 1138
978, 784, 1103, 754, 1138
979, 897, 1187, 1094, 1208
980, 960, 988, 994, 1174
981, 1001, 1137, 954, 1207
982, 291, 293, 1159, 1169
983, 188, 1169, 1079, 1213
984, 1024, 1043, 977, 1207
985, 29, 1167, 115, 1170
986, 171, 1164, 1101, 1204
987, 219, 23, 1145, 1204
988, 867, 895, 828, 1118
989, 807, 867, 828, 1118
990, 890, 867, 807, 1118
991, 807, 823, 890, 1118
992, 1014, 894, 873, 1119
993, 1034, 1014, 873, 1119
994, 1034, 896, 1046, 1119
995, 1034, 873, 896, 1119
996, 716, 687, 461, 1120
997, 472, 461, 687, 1120
998, 700, 716, 461, 1120
999, 461, 476, 700, 1120
1000, 586, 606, 1145, 1180
1001, 999, 955, 1098, 1207
1002, 842, 1087, 1211, 1238
1003, 1051, 980, 1050, 1156
1004, 855, 1176, 1111, 1243
1005, 976, 1035, 1026, 1124
1006, 956, 1035, 976, 1124
1007, 1112, 1158, 508, 1232
1008, 744, 1158, 1112, 1232
1009, 340, 365, 482, 1155
1010, 1111, 1160, 924, 1229
1011, 1074, 1160, 1111, 1229
1012, 773, 1146, 632, 1216
1013, 501, 498, 1088, 1245
1014, 759, 761, 600, 1248
1015, 126, 212, 1158, 1163
1016, 1039, 1067, 1021, 1198
1017, 704, 707, 530, 1129
1018, 539, 704, 530, 1129
1019, 218, 1079, 217, 1213
1020, 736, 1088, 734, 1245
1021, 125, 1109, 1154, 1215
1022, 330, 521, 352, 1127
1023, 544, 525, 695, 1128
1024, 525, 720, 695, 1128
1025, 695, 714, 544, 1128
1026, 544, 714, 527, 1128
1027, 921, 882, 1190, 1233
1028, 1055, 1098, 1025, 1207
1029, 1027, 968, 958, 1116
1030, 542, 572, 1217, 1250
1031, 944, 1000, 1096, 1156
1032, 1070, 1012, 1096, 1156
1033, 407, 398, 589, 1209
1034, 730, 728, 1092, 1254
1035, 499, 480, 1186, 1210
1036, 919, 1096, 862, 1150
1037, 4, 417, 405, 1203
1038, 381, 361, 1095, 1155
1039, 504, 1095, 447, 1155
1040, 361, 447, 334, 1133
1041, 465, 334, 447, 1133
1042, 448, 467, 1193, 1205
1043, 719, 1095, 741, 1151
1044, 962, 1012, 944, 1134
1045, 1012, 962, 1030, 1134
1046, 875, 905, 916, 1182
1047, 331, 521, 538, 1127
1048, 352, 521, 331, 1127
1049, 815, 1094, 837, 1185
1050, 529, 697, 539, 1129
1051, 539, 697, 704, 1129
1052, 665, 1081, 636, 1203
1053, 788, 1100, 752, 1248
1054, 1081, 1214, 665, 1249
1055, 548, 521, 330, 1127
1056, 421, 432, 1081, 1257
1057, 498, 1135, 1088, 1245
1058, 763, 629, 756, 1249
1059, 886, 923, 1141, 1173
1060, 914, 909, 896, 1223
1061, 1046, 1063, 1065, 1223
1062, 731, 729, 714, 1224
1063, 563, 527, 562, 1224
1064, 895, 909, 914, 1225
1065, 846, 845, 828, 1225
1066, 682, 727, 733, 1230
1067, 1058, 1042, 1068, 1233
1068, 468, 1193, 507, 1230
1069, 661, 657, 635, 1103
1070, 492, 493, 472, 1226
1071, 687, 729, 731, 1226
1072, 1061, 1014, 1062, 1231
1073, 172, 1101, 171, 1164
1074, 912, 894, 913, 1231
1075, 1023, 1190, 1069, 1208
1076, 1031, 1027, 958, 1116
1077, 1023, 1069, 1032, 1208
1078, 1067, 1021, 1198, 1218
1079, 898, 833, 900, 1150
1080, 724, 554, 698, 1151
1081, 126, 455, 125, 1102
1082, 869, 184, 185, 1101
1083, 691, 212, 213, 1102
1084, 529, 569, 566, 1241
1085, 846, 799, 845, 1222
1086, 451, 493, 492, 1234
1087, 545, 1194, 560, 1200
1088, 735, 1194, 702, 1200
1089, 499, 1195, 471, 1201
1090, 377, 336, 1195, 1201
1091, 414, 429, 430, 1099
1092, 545, 560, 537, 1200
1093, 684, 735, 702, 1200
1094, 499, 471, 479, 1201
1095, 377, 358, 336, 1201
1096, 607, 605, 595, 1100
1097, 428, 427, 412, 1100
1098, 290, 291, 1101, 1169
1099, 114, 115, 1102, 1170
1100, 561, 532, 1178, 1237
1101, 430, 429, 413, 1099
1102, 379, 351, 376, 1227
1103, 172, 803, 171, 1101
1104, 422, 396, 1240, 1251
1105, 188, 1079, 187, 1247
1106, 1106, 1193, 467, 1205
1107, 742, 1161, 557, 1162
1108, 817, 966, 949, 1117
1109, 1088, 1135, 734, 1245
1110, 817, 949, 799, 1117
1111, 423, 409, 426, 1103
1112, 974, 966, 796, 1117
1113, 752, 1100, 788, 1253
1114, 594, 1191, 601, 1206
1115, 841, 796, 843, 1239
1116, 765, 1181, 1097, 1216
1117, 609, 1103, 598, 1142
1118, 735, 1193, 1106, 1205
1119, 787, 786, 769, 1099
1120, 645, 629, 763, 1249
1121, 994, 979, 1220, 1228
1122, 118, 1080, 117, 1255
1123, 668, 1146, 1104, 1216
1124, 587, 612, 609, 1103
1125, 916, 905, 897, 1208
1126, 609, 612, 598, 1103
1127, 501, 498, 453, 1227
1128, 30, 333, 29, 1102
1129, 294, 952, 293, 1101
1130, 1019, 290, 291, 1101
1131, 796, 966, 817, 1117
1132, 428, 427, 1100, 1252
1133, 1071, 1024, 1137, 1207
1134, 753, 786, 787, 1099
1135, 423, 1103, 426, 1259
1136, 612, 1103, 587, 1259
1137, 1105, 1180, 610, 1248
1138, 815, 814, 837, 1220
1139, 402, 413, 593, 1259
1140, 585, 610, 600, 1248
1141, 1035, 956, 1036, 1132
1142, 499, 480, 458, 1186
1143, 734, 736, 697, 1241
1144, 22, 681, 214, 1154
1145, 605, 1100, 607, 1253
1146, 412, 595, 582, 1136
1147, 507, 491, 468, 1230
1148, 882, 921, 907, 1233
1149, 115, 523, 114, 1102
1150, 1063, 1047, 1065, 1236
1151, 572, 1143, 524, 1192
1152, 598, 760, 588, 1142
1153, 598, 754, 760, 1142
1154, 851, 1197, 818, 1220
1155, 376, 331, 379, 1242
1156, 1030, 943, 1011, 1134
1157, 408, 1103, 423, 1259
1158, 784, 781, 754, 1103
1159, 848, 1211, 1110, 1228
1160, 708, 1135, 474, 1245
1161, 490, 500, 1092, 1254
1162, 1059, 1073, 1016, 1221
1163, 409, 1103, 423, 1139
1164, 848, 805, 1211, 1228
1165, 345, 334, 446, 1133
1166, 706, 1186, 688, 1210
1167, 978, 1036, 956, 1132
1168, 422, 396, 404, 1240
1169, 184, 185, 1101, 1164
1170, 213, 1102, 212, 1163
1171, 801, 851, 818, 1220
1172, 394, 412, 582, 1136
1173, 1101, 1164, 172, 1171
1174, 1005, 974, 993, 1239
1175, 904, 888, 1098, 1199
1176, 826, 864, 825, 1125
1177, 465, 446, 334, 1133
1178, 1030, 962, 943, 1134
1179, 892, 825, 864, 1125
1180, 833, 898, 809, 1150
1181, 324, 383, 1178, 1237
1182, 554, 531, 698, 1151
1183, 351, 470, 453, 1131
1184, 781, 1103, 784, 1258
1185, 126, 1158, 1102, 1163
1186, 462, 689, 469, 1135
1187, 751, 1145, 789, 1180
1188, 708, 689, 474, 1135
1189, 474, 689, 462, 1135
1190, 291, 1159, 1101, 1169
1191, 591, 602, 608, 1081
1192, 742, 557, 725, 1162
1193, 955, 1025, 978, 1132
1194, 889, 887, 854, 1126
1195, 945, 964, 1211, 1228
1196, 115, 1167, 1102, 1170
1197, 526, 356, 543, 1121
1198, 863, 881, 1190, 1208
1199, 1110, 1211, 964, 1228
1200, 632, 1146, 668, 1216
1201, 855, 829, 831, 1243
1202, 706, 1107, 1186, 1210
1203, 184, 1101, 869, 1171
1204, 428, 415, 427, 1252
1205, 125, 1154, 126, 1215
1206, 553, 552, 577, 1244
1207, 327, 356, 547, 1121
1208, 455, 1102, 126, 1158
1209, 212, 1102, 691, 1158
1210, 408, 423, 426, 1259
1211, 126, 1102, 125, 1215
1212, 1113, 1217, 572, 1250
1213, 691, 1102, 213, 1172
1214, 869, 1101, 185, 1160
1215, 125, 1102, 455, 1157
1216, 1071, 1137, 1114, 1207
1217, 1025, 1036, 978, 1132
1218, 1109, 1149, 1080, 1215
1219, 951, 972, 996, 1197
1220, 633, 1100, 659, 1140
1221, 448, 467, 466, 1193
1222, 1003, 965, 1211, 1238
1223, 499, 1186, 1107, 1210
1224, 29, 30, 1102, 1170
1225, 294, 1101, 293, 1169
1226, 803, 1101, 172, 1171
1227, 34, 322, 4, 1215
1228, 1026, 1044, 946, 1124
1229, 1001, 1114, 1137, 1207
1230, 356, 526, 547, 1121
1231, 910, 1126, 1091, 1221
1232, 348, 1184, 377, 1189
1233, 803, 171, 1101, 1176
1234, 1079, 1164, 1104, 1204
1235, 1067, 1198, 1108, 1218
1236, 671, 651, 1097, 1216
1237, 1104, 1146, 668, 1147
1238, 474, 1135, 498, 1245
1239, 575, 532, 561, 1237
1240, 514, 703, 556, 1122
1241, 952, 1101, 294, 1176
1242, 535, 536, 1184, 1189
1243, 771, 754, 598, 1138
1244, 560, 1106, 1178, 1179
1245, 627, 660, 1240, 1251
1246, 422, 1206, 398, 1209
1247, 652, 650, 668, 1256
1248, 290, 1101, 1019, 1160
1249, 333, 1102, 30, 1157
1250, 341, 543, 356, 1121
1251, 917, 868, 1185, 1196
1252, 1026, 946, 976, 1124
1253, 596, 605, 607, 1253
1254, 333, 29, 1102, 1167
1255, 1105, 1240, 660, 1251
1256, 291, 1019, 1101, 1159
1257, 293, 1101, 952, 1159
1258, 1080, 1148, 216, 1255
1259, 631, 648, 779, 1181
1260, 378, 339, 368, 1179
1261, 645, 661, 1103, 1258
1262, 662, 659, 633, 1100
1263, 659, 1100, 662, 1252
1264, 842, 1211, 816, 1238
1265, 422, 1240, 1105, 1251
1266, 657, 1103, 661, 1258
1267, 1079, 1147, 101, 1247
1268, 114, 1102, 523, 1172
1269, 172, 171, 1104, 1204
1270, 967, 1004, 949, 1222
1271, 1094, 1174, 1049, 1218
1272, 126, 1163, 1102, 1215
1273, 1028, 1094, 1187, 1208
1274, 115, 523, 1102, 1167
1275, 773, 632, 658, 1216
1276, 1114, 1141, 923, 1173
1277, 708, 734, 1135, 1245
1278, 595, 607, 1100, 1209
1279, 412, 1100, 427, 1209
1280, 384, 473, 385, 1115
1281, 989, 965, 1003, 1238
1282, 473, 384, 451, 1115
1283, 383, 324, 370, 1237
1284, 709, 469, 689, 1135
1285, 344, 382, 1178, 1179
1286, 693, 719, 576, 1122
1287, 862, 879, 853, 1123
1288, 348, 357, 377, 1184
1289, 671, 1097, 1181, 1216
1290, 951, 1197, 996, 1220
1291, 769, 640, 643, 1140
1292, 535, 536, 520, 1184
1293, 781, 1142, 1103, 1249
1294, 737, 726, 709, 1210
1295, 793, 834, 861, 1123
1296, 630, 1097, 651, 1256
1297, 871, 850, 798, 1126
1298, 543, 563, 562, 1235
1299, 385, 473, 450, 1115
1300, 932, 1169, 1079, 1204
1301, 994, 988, 979, 1228
1302, 892, 871, 825, 1125
1303, 671, 1097, 656, 1181
1304, 335, 470, 351, 1131
1305, 1100, 1251, 662, 1252
1306, 863, 881, 880, 1190
1307, 556, 703, 693, 1122
1308, 598, 583, 771, 1138
1309, 1069, 1190, 1110, 1208
1310, 432, 1202, 1081, 1257
1311, 963, 945, 964, 1211
1312, 560, 1194, 1106, 1200
1313, 1106, 1194, 735, 1200
1314, 542, 572, 518, 1217
1315, 646, 665, 1214, 1249
1316, 671, 651, 656, 1097
1317, 499, 1107, 1195, 1201
1318, 377, 1195, 1107, 1201
1319, 842, 816, 852, 1238
1320, 780, 1180, 1097, 1181
1321, 848, 813, 805, 1228
1322, 849, 815, 837, 1185
1323, 329, 451, 384, 1115
1324, 556, 693, 576, 1122
1325, 853, 879, 834, 1123
1326, 572, 1113, 1143, 1192
1327, 854, 850, 889, 1126
1328, 321, 1170, 1080, 1215
1329, 1110, 1190, 881, 1208
1330, 996, 1108, 1198, 1218
1331, 798, 825, 871, 1125
1332, 871, 889, 850, 1126
1333, 463, 470, 335, 1131
1334, 848, 1177, 820, 1182
1335, 640, 769, 757, 1140
1336, 366, 344, 382, 1178
1337, 184, 1164, 1101, 1171
1338, 492, 1115, 1082, 1226
1339, 917, 1185, 1108, 1196
1340, 764, 1214, 790, 1249
1341, 557, 742, 558, 1161
1342, 1102, 1158, 212, 1163
1343, 1107, 1184, 536, 1189
1344, 763, 781, 784, 1258
1345, 1031, 987, 1047, 1116
1346, 359, 463, 335, 1131
1347, 706, 705, 688, 1186
1348, 294, 171, 857, 1176
1349, 879, 861, 834, 1123
1350, 29, 1102, 1167, 1170
1351, 744, 724, 1151, 1172
1352, 924, 1150, 900, 1171
1353, 1101, 1159, 293, 1169
1354, 184, 925, 172, 1171
1355, 114, 579, 213, 1172
1356, 753, 771, 592, 1138
1357, 1108, 1197, 851, 1220
1358, 996, 1197, 1108, 1220
1359, 917, 868, 885, 1185
1360, 386, 365, 1155, 1157
1361, 486, 508, 1155, 1157
1362, 1074, 1051, 1156, 1159
1363, 982, 1006, 1156, 1159
1364, 1109, 1148, 1080, 1149
1365, 636, 642, 393, 1139
1366, 728, 1205, 1092, 1254
1367, 377, 1184, 1107, 1189
1368, 125, 510, 30, 1157
1369, 513, 126, 212, 1158
1370, 291, 293, 1075, 1159
1371, 1076, 185, 290, 1160
1372, 857, 1008, 294, 1176
1373, 29, 388, 115, 1167
1374, 789, 1097, 1145, 1216
1375, 1097, 1206, 420, 1240
1376, 846, 1117, 1084, 1225
1377, 1063, 1116, 1084, 1223
1378, 893, 910, 911, 1221
1379, 490, 1092, 1205, 1254
1380, 432, 1081, 1202, 1203
1381, 727, 1122, 1086, 1230
1382, 907, 1087, 1123, 1233
1383, 645, 661, 629, 1249
1384, 414, 669, 670, 1130
1385, 860, 172, 925, 1171
1386, 749, 213, 579, 1172
1387, 909, 1084, 1118, 1223
1388, 729, 1082, 1120, 1224
1389, 1084, 1119, 914, 1225
1390, 845, 1118, 1084, 1222
1391, 987, 1004, 967, 1236
1392, 171, 219, 1145, 1204
1393, 1065, 1119, 1084, 1236
1394, 1082, 1128, 731, 1226
1395, 920, 1177, 881, 1182
1396, 376, 1127, 1088, 1227
1397, 171, 1145, 1104, 1204
1398, 1090, 1124, 1061, 1231
1399, 493, 1120, 1082, 1234
1400, 406, 650, 416, 1256
1401, 562, 1121, 1082, 1224
1402, 391, 30, 510, 1157
1403, 746, 513, 212, 1158
1404, 1007, 1075, 293, 1159
1405, 185, 1076, 926, 1160
1406, 635, 669, 395, 1130
1407, 388, 578, 115, 1167
1408, 414, 395, 669, 1130
1409, 851, 1108, 1185, 1196
1410, 913, 1125, 1090, 1231
1411, 563, 1128, 1082, 1235
1412, 736, 1129, 1088, 1245
1413, 993, 1124, 1090, 1239
1414, 566, 1088, 1127, 1241
1415, 906, 872, 923, 1199
1416, 1004, 1084, 1116, 1222
1417, 370, 1133, 1086, 1237
1418, 344, 1152, 1106, 1153
1419, 1087, 1134, 989, 1238
1420, 1018, 1067, 1165, 1187
1421, 491, 1086, 1133, 1230
1422, 1104, 1146, 23, 1216
1423, 1068, 1134, 1087, 1233
1424, 395, 409, 635, 1130
1425, 964, 1002, 1168, 1174
1426, 1018, 1033, 1067, 1187
1427, 795, 848, 820, 1182
1428, 1088, 1135, 498, 1227
1429, 431, 1191, 1097, 1256
1430, 967, 1084, 1117, 1236
1431, 1110, 1168, 1069, 1174
1432, 1088, 1129, 569, 1242
1433, 329, 367, 371, 1234
1434, 575, 1086, 1122, 1237
1435, 958, 987, 1031, 1116
1436, 371, 1082, 1121, 1234
1437, 326, 1152, 344, 1153
1438, 778, 764, 790, 1249
1439, 852, 1123, 1087, 1238
1440, 920, 903, 881, 1177
1441, 651, 630, 656, 1097
1442, 1090, 1125, 841, 1239
1443, 379, 1131, 1088, 1242
1444, 992, 1132, 1091, 1246
1445, 1110, 1177, 848, 1182
1446, 188, 1213, 1079, 1247
1447, 1154, 1202, 1081, 1214
1448, 1071, 1038, 1015, 1199
1449, 964, 1002, 985, 1168
1450, 589, 610, 597, 1209
1451, 362, 353, 387, 1217
1452, 344, 1178, 1106, 1179
1453, 734, 1135, 1088, 1241
1454, 720, 152, 525, 695
1455, 484, 460, 130, 686
1456, 153, 714, 544, 695
1457, 716, 687, 132, 461
1458, 687, 472, 132, 461
1459, 152, 544, 525, 695
1460, 544, 527, 714, 153
1461, 686, 460, 130, 710
1462, 867, 253, 828, 895
1463, 1014, 873, 275, 1034
1464, 956, 304, 976, 1035
1465, 254, 807, 890, 867
1466, 700, 716, 133, 461
1467, 304, 1026, 976, 1035
1468, 452, 338, 69, 475
1469, 873, 1014, 275, 894
1470, 704, 162, 530, 707
1471, 883, 1041, 278, 1017
1472, 338, 69, 346, 452
1473, 896, 1034, 1046, 276
1474, 253, 828, 807, 867
1475, 530, 539, 162, 704
1476, 254, 807, 823, 890
1477, 133, 700, 461, 476
1478, 479, 67, 358, 471
1479, 896, 873, 1034, 276
1480, 77, 334, 447, 465
1481, 1041, 883, 278, 877
1482, 334, 361, 77, 447
1483, 483, 456, 683, 145
1484, 870, 286, 1048, 899
1485, 164, 537, 684, 702
1486, 456, 701, 683, 145
1487, 545, 537, 164, 702
1488, 1048, 1020, 286, 870
1489, 317, 944, 962, 1012
1490, 1012, 962, 317, 1030
1491, 330, 521, 47, 352
1492, 521, 330, 47, 548
1493, 950, 819, 232, 975
1494, 864, 804, 251, 884
1495, 336, 358, 67, 471
1496, 819, 950, 232, 800
1497, 597, 111, 589, 407
1498, 1092, 1129, 730, 1254
1499, 631, 660, 648, 1181
1500, 804, 864, 251, 826
1501, 856, 1188, 830, 1219
1502, 771, 583, 592, 1138
1503, 697, 161, 529, 539
1504, 539, 697, 161, 704
1505, 521, 48, 331, 538
1506, 331, 352, 48, 521
1507, 367, 1082, 1115, 1235
1508, 785, 759, 1180, 1248
1509, 671, 1181, 765, 1216
1510, 501, 1088, 1131, 1245
1511, 1091, 1132, 1073, 1221
1512, 824, 856, 830, 1219
1513, 32, 323, 118, 1170
1514, 933, 188, 217, 1169
1515, 218, 1146, 1079, 1213
1516, 917, 874, 891, 1165
1517, 406, 416, 10, 1256
1518, 1103, 1130, 426, 1259
1519, 1108, 1165, 1067, 1187
1520, 485, 477, 509, 1183
1521, 500, 1131, 1092, 1254
1522, 100, 1147, 1079, 1164
1523, 656, 1097, 630, 1240
1524, 917, 874, 1165, 1187
1525, 917, 1165, 1108, 1187
1526, 215, 1148, 1080, 1163
1527, 467, 1152, 506, 1153
1528, 403, 635, 409, 1139
1529, 536, 1161, 1107, 1162
1530, 554, 577, 1151, 1172
1531, 627, 660, 638, 1240
1532, 833, 1150, 855, 1171
1533, 290, 929, 291, 1169
1534, 114, 435, 115, 1170
1535, 664, 665, 636, 1203
1536, 403, 393, 642, 1139
1537, 1091, 1126, 836, 1246
1538, 641, 662, 1251, 1252
1539, 1094, 1185, 815, 1220
1540, 745, 694, 723, 1192
1541, 557, 1161, 536, 1162
1542, 1104, 1145, 23, 1204
1543, 343, 326, 344, 1153
1544, 742, 706, 1161, 1162
1545, 586, 606, 601, 1145
1546, 744, 1151, 1112, 1172
1547, 924, 1111, 1150, 1171
1548, 733, 1193, 1086, 1194
1549, 874, 1018, 280, 891
1550, 1018, 874, 280, 1033
1551, 462, 689, 137, 469
1552, 138, 708, 689, 474
1553, 474, 689, 138, 462
1554, 1099, 1138, 593, 1259
1555, 309, 958, 1027, 968
1556, 888, 1173, 1098, 1199
1557, 33, 1080, 1149, 1215
1558, 1027, 1031, 958, 309
1559, 844, 1196, 1085, 1197
1560, 865, 923, 886, 1173
1561, 219, 792, 171, 1145
1562, 507, 1153, 1086, 1193
1563, 954, 977, 1001, 1207
1564, 995, 1197, 1085, 1198
1565, 904, 922, 888, 1199
1566, 785, 1180, 1105, 1248
1567, 595, 582, 109, 412
1568, 1086, 1178, 561, 1194
1569, 386, 1155, 1112, 1157
1570, 1112, 1155, 508, 1157
1571, 1111, 1156, 1006, 1159
1572, 1074, 1156, 1111, 1159
1573, 394, 109, 582, 412
1574, 489, 467, 506, 1153
1575, 1079, 1169, 217, 1213
1576, 1102, 1170, 30, 1215
1577, 1086, 1153, 383, 1178
1578, 496, 1186, 1089, 1195
1579, 465, 76, 334, 446
1580, 943, 316, 962, 1030
1581, 345, 334, 76, 446
1582, 943, 316, 1030, 1011
1583, 742, 725, 706, 1162
1584, 348, 520, 45, 357
1585, 817, 949, 230, 799
1586, 1089, 1189, 374, 1195
1587, 921, 1177, 1087, 1190
1588, 520, 348, 45, 535
1589, 949, 817, 230, 966
1590, 368, 1152, 1092, 1179
1591, 1064, 1085, 1165, 1198
1592, 915, 1165, 1085, 1196
1593, 1058, 1087, 1168, 1190
1594, 630, 1240, 1097, 1256
1595, 125, 1154, 1109, 1202
1596, 1113, 1144, 387, 1250
1597, 1003, 1168, 1087, 1211
1598, 1092, 1152, 490, 1205
1599, 605, 1136, 1100, 1253
1600, 642, 635, 403, 1139
1601, 1035, 956, 303, 1036
1602, 728, 1200, 1092, 1205
1603, 978, 303, 956, 1036
1604, 773, 23, 1146, 1216
1605, 796, 974, 229, 966
1606, 229, 817, 796, 966
1607, 497, 1201, 1093, 1210
1608, 659, 1140, 1100, 1252
1609, 1081, 1139, 421, 1257
1610, 1093, 1161, 726, 1210
1611, 574, 1089, 1162, 1189
1612, 509, 1144, 1113, 1166
1613, 743, 1162, 1089, 1186
1614, 1100, 1136, 428, 1252
1615, 564, 1179, 1092, 1200
1616, 951, 818, 234, 972
1617, 818, 951, 234, 801
1618, 375, 1184, 1093, 1201
1619, 593, 1099, 592, 1138
1620, 1079, 1146, 218, 1204
1621, 648, 660, 662, 1251
1622, 467, 1152, 1106, 1205
1623, 1112, 1151, 577, 1172
1624, 855, 1150, 1111, 1171
1625, 227, 957, 827, 973
1626, 526, 356, 42, 543
1627, 754, 781, 760, 1142
1628, 790, 766, 1154, 1214
1629, 964, 1168, 1110, 1174
1630, 273, 1045, 1016, 893
1631, 1103, 1138, 784, 1258
1632, 825, 250, 892, 864
1633, 478, 354, 65, 449
1634, 1039, 969, 1021, 311
1635, 689, 709, 137, 469
1636, 273, 876, 1045, 893
1637, 351, 71, 453, 470
1638, 311, 1039, 969, 959
1639, 665, 1139, 1081, 1249
1640, 250, 825, 826, 864
1641, 354, 355, 65, 449
1642, 706, 1161, 1107, 1210
1643, 754, 180, 771, 598
1644, 641, 659, 662, 1252
1645, 863, 283, 1023, 880
1646, 142, 448, 466, 713
1647, 811, 953, 240, 794
1648, 1087, 1177, 842, 1211
1649, 688, 705, 135, 458
1650, 1025, 302, 978, 1036
1651, 533, 55, 342, 515
1652, 848, 1177, 1110, 1211
1653, 404, 93, 627, 396
1654, 763, 203, 756, 629
1655, 1106, 1152, 467, 1153
1656, 1094, 1182, 905, 1208
1657, 964, 1174, 1110, 1228
1658, 1096, 1156, 1000, 1243
1659, 328, 519, 40, 349
1660, 797, 948, 225, 821
1661, 283, 1023, 1032, 863
1662, 480, 688, 135, 458
1663, 519, 328, 40, 540
1664, 948, 797, 225, 971
1665, 448, 142, 699, 713
1666, 978, 955, 302, 1025
1667, 325, 342, 55, 515
1668, 953, 981, 240, 794
1669, 381, 1155, 1095, 1244
1670, 1094, 1174, 988, 1228
1671, 4, 400, 34, 1202
1672, 1067, 1165, 1108, 1198
1673, 524, 546, 572, 1192
1674, 766, 750, 790, 1154
1675, 1096, 1150, 919, 1229
1676, 1106, 1152, 344, 1179
1677, 663, 1203, 1109, 1214
1678, 155, 715, 517, 549
1679, 976, 946, 1026, 305
1680, 741, 1151, 1095, 1232
1681, 339, 50, 551, 522
1682, 1044, 1026, 946, 305
1683, 1070, 1156, 1096, 1229
1684, 155, 715, 685, 517
1685, 341, 371, 367, 1235
1686, 1095, 1155, 504, 1232
1687, 1110, 1182, 848, 1228
1688, 777, 788, 762, 1100
1689, 10, 1104, 1191, 1256
1690, 573, 1161, 1093, 1184
1691, 1107, 1161, 706, 1162
1692, 1044, 1022, 306, 986
1693, 594, 601, 606, 1206
1694, 571, 1192, 1083, 1217
1695, 547, 356, 43, 526
1696, 603, 611, 593, 1099
1697, 904, 887, 889, 1126
1698, 327, 356, 43, 547
1699, 1114, 1188, 856, 1219
1700, 33, 4, 322, 1215
1701, 740, 1083, 1192, 1212
1702, 1057, 1174, 1094, 1208
1703, 1071, 1114, 1137, 1175
1704, 917, 1108, 1165, 1196
1705, 505, 1183, 1083, 1212
1706, 1066, 1187, 1094, 1218
1707, 1099, 1138, 1130, 1258
1708, 356, 341, 42, 543
1709, 973, 827, 227, 810
1710, 1108, 1187, 1067, 1218
1711, 612, 1138, 1103, 1259
1712, 881, 1177, 1110, 1182
1713, 180, 771, 598, 583
1714, 455, 1157, 1102, 1158
1715, 413, 394, 603, 1136
1716, 610, 1180, 1105, 1206
1717, 172, 1164, 171, 1204
1718, 1101, 1160, 869, 1171
1719, 691, 1158, 1102, 1172
1720, 536, 1162, 1107, 1189
1721, 213, 679, 680, 1163
1722, 619, 185, 617, 1164
1723, 924, 898, 900, 1150
1724, 744, 724, 698, 1151
1725, 407, 422, 398, 1209
1726, 557, 558, 536, 1161
1727, 50, 339, 347, 522
1728, 1113, 1166, 745, 1212
1729, 509, 1166, 1113, 1212
1730, 536, 1107, 1161, 1184
1731, 1109, 1202, 1154, 1214
1732, 803, 1101, 1171, 1176
1733, 398, 589, 111, 407
1734, 237, 945, 963, 805
1735, 71, 351, 335, 470
1736, 762, 1100, 788, 1248
1737, 1028, 1187, 897, 1208
1738, 1108, 1185, 917, 1187
1739, 916, 1185, 1094, 1187
1740, 1115, 1128, 1083, 1235
1741, 994, 1218, 1094, 1220
1742, 982, 1006, 980, 1156
1743, 1074, 1051, 1050, 1156
1744, 769, 201, 758, 643
1745, 22, 1109, 1154, 1214
1746, 482, 486, 508, 1155
1747, 386, 365, 340, 1155
1748, 1101, 1159, 1019, 1160
1749, 999, 1207, 1098, 1219
1750, 528, 711, 159, 541
1751, 643, 201, 758, 626
1752, 1102, 1157, 333, 1167
1753, 763, 203, 629, 645
1754, 93, 627, 638, 404
1755, 1083, 1183, 369, 1217
1756, 952, 1159, 1101, 1176
1757, 288, 901, 1052, 1029
1758, 487, 712, 128, 721
1759, 718, 147, 722, 488
1760, 482, 79, 486, 365
1761, 319, 980, 1051, 982
1762, 788, 1100, 1140, 1253
1763, 657, 1130, 1103, 1258
1764, 306, 946, 1044, 986
1765, 422, 1206, 1105, 1240
1766, 1102, 1167, 523, 1172
1767, 1106, 1153, 467, 1193
1768, 23, 1146, 1104, 1204
1769, 785, 761, 759, 1248
1770, 773, 658, 768, 1216
1771, 849, 1182, 875, 1185
1772, 632, 668, 658, 1216
1773, 964, 1110, 1168, 1211
1774, 427, 1209, 1100, 1251
1775, 179, 753, 771, 592
1776, 403, 87, 409, 635
1777, 711, 159, 696, 528
1778, 645, 657, 661, 1258
1779, 72, 335, 463, 470
1780, 344, 1153, 1106, 1178
1781, 410, 431, 1191, 1206
1782, 593, 611, 592, 1099
1783, 945, 237, 813, 805
1784, 1001, 1188, 1114, 1219
1785, 837, 1182, 1094, 1228
1786, 590, 178, 592, 770
1787, 178, 753, 592, 770
1788, 839, 1150, 1096, 1243
1789, 1107, 1201, 499, 1210
1790, 1106, 1200, 735, 1205
1791, 1024, 1071, 1043, 1207
1792, 832, 856, 806, 1173
1793, 1095, 1151, 559, 1244
1794, 607, 1100, 1209, 1248
1795, 923, 1141, 1114, 1175
1796, 706, 1107, 1162, 1186
1797, 1106, 1193, 735, 1194
1798, 838, 1098, 1173, 1219
1799, 1106, 1179, 560, 1200
1800, 1114, 1141, 856, 1188
1801, 712, 487, 128, 459
1802, 901, 288, 878, 1029
1803, 488, 718, 147, 464
1804, 980, 1051, 1050, 319
1805, 79, 482, 340, 365
1806, 560, 1178, 1106, 1194
1807, 973, 992, 991, 1246
1808, 1113, 1143, 745, 1166
1809, 780, 789, 765, 1181
1810, 1055, 1199, 1098, 1207
1811, 72, 335, 359, 463
1812, 630, 392, 1240, 1256
1813, 762, 788, 752, 1248
1814, 87, 403, 642, 635
1815, 1136, 1140, 1099, 1252
1816, 556, 514, 166, 703
1817, 256, 808, 835, 868
1818, 377, 1189, 1107, 1195
1819, 851, 1108, 1196, 1197
1820, 499, 1107, 1186, 1195
1821, 769, 200, 640, 757
1822, 166, 693, 556, 703
1823, 422, 1105, 1209, 1251
1824, 294, 1169, 932, 1204
1825, 1069, 1168, 1110, 1190
1826, 960, 1049, 1174, 1218
1827, 771, 179, 592, 583
1828, 769, 200, 643, 640
1829, 668, 1216, 1104, 1256
1830, 1110, 1174, 1069, 1208
1831, 1108, 1197, 996, 1198
1832, 337, 364, 387, 1183
1833, 954, 300, 977, 1024
1834, 242, 831, 961, 983
1835, 363, 57, 553, 360
1836, 764, 646, 1214, 1249
1837, 1112, 1155, 386, 1244
1838, 1006, 1156, 1111, 1243
1839, 610, 1209, 1105, 1248
1840, 723, 524, 546, 150
1841, 694, 723, 546, 150
1842, 924, 1150, 1111, 1229
1843, 1112, 1151, 744, 1232
1844, 663, 667, 1148, 1149
1845, 760, 181, 598, 588
1846, 1107, 1184, 377, 1201
1847, 631, 779, 755, 1181
1848, 1111, 1150, 855, 1243
1849, 508, 1155, 1112, 1232
1850, 1111, 1156, 1074, 1229
1851, 910, 889, 871, 1126
1852, 577, 1151, 1112, 1244
1853, 256, 835, 885, 868
1854, 1002, 314, 985, 1040
1855, 382, 52, 366, 550
1856, 402, 593, 604, 1259
1857, 386, 1157, 1112, 1167
1858, 1040, 1002, 314, 1013
1859, 52, 382, 516, 550
1860, 760, 181, 754, 598
1861, 879, 262, 853, 834
1862, 556, 576, 693, 167
1863, 1112, 1157, 508, 1158
1864, 670, 90, 414, 401
1865, 1074, 1159, 1111, 1160
1866, 924, 1160, 1111, 1171
1867, 1006, 1111, 1159, 1176
1868, 1112, 1158, 744, 1172
1869, 262, 862, 879, 853
1870, 719, 693, 576, 167
1871, 384, 63, 473, 451
1872, 1137, 1141, 936, 1175
1873, 23, 1145, 1104, 1216
1874, 473, 385, 62, 384
1875, 577, 1167, 1112, 1172
1876, 751, 586, 1145, 1180
1877, 572, 1143, 1113, 1250
1878, 855, 1171, 1111, 1176
1879, 261, 861, 793, 834
1880, 881, 1182, 1110, 1208
1881, 4, 1202, 1109, 1203
1882, 385, 473, 62, 450
1883, 1099, 1140, 1136, 1253
1884, 353, 362, 38, 518
1885, 947, 223, 830, 824
1886, 961, 829, 831, 242
1887, 57, 552, 553, 360
1888, 420, 392, 431, 1240
1889, 1108, 1218, 996, 1220
1890, 1043, 977, 300, 1024
1891, 223, 970, 947, 830
1892, 518, 362, 38, 542
1893, 63, 384, 329, 451
1894, 22, 1154, 766, 1214
1895, 664, 646, 665, 1214
1896, 261, 879, 861, 834
1897, 789, 780, 751, 1180
1898, 90, 670, 623, 401
1899, 437, 118, 323, 1170
1900, 188, 933, 930, 1169
1901, 935, 1141, 1137, 1188
1902, 172, 1145, 601, 1191
1903, 585, 600, 175, 761
1904, 60, 364, 337, 485
1905, 1097, 1216, 651, 1256
1906, 851, 1185, 1108, 1220
1907, 343, 489, 74, 506
1908, 1116, 1118, 1085, 1222
1909, 944, 1012, 318, 1156
1910, 326, 343, 74, 506
1911, 361, 78, 447, 1155
1912, 477, 60, 337, 485
1913, 608, 1142, 1081, 1257
1914, 669, 89, 414, 670
1915, 904, 1126, 910, 1221
1916, 1001, 1137, 1114, 1188
1917, 1122, 1133, 1095, 1237
1918, 1096, 1134, 1123, 1238
1919, 832, 806, 245, 865
1920, 1105, 1181, 660, 1240
1921, 865, 245, 832, 886
1922, 89, 414, 395, 669
1923, 602, 1202, 584, 1257
1924, 1085, 1118, 1116, 1223
1925, 308, 1031, 958, 987
1926, 1090, 1119, 1117, 1225
1927, 1117, 1119, 1090, 1236
1928, 1083, 1128, 1115, 1226
1929, 798, 871, 248, 850
1930, 1120, 1121, 1089, 1224
1931, 640, 777, 633, 1140
1932, 1047, 1031, 308, 987
1933, 1089, 1121, 1120, 1234
1934, 809, 263, 853, 1150
1935, 736, 730, 1129, 1245
1936, 441, 1143, 439, 1166
1937, 168, 531, 576, 1151
1938, 1124, 1125, 1091, 1231
1939, 853, 263, 862, 1150
1940, 833, 809, 855, 1150
1941, 554, 577, 531, 1151
1942, 168, 576, 719, 1151
1943, 1091, 1125, 1124, 1239
1944, 1098, 1132, 1126, 1221
1945, 1079, 1146, 1104, 1147
1946, 1127, 1135, 1093, 1241
1947, 1110, 1177, 881, 1190
1948, 1093, 1135, 1127, 1227
1949, 728, 717, 1205, 1254
1950, 1129, 1245, 730, 1254
1951, 736, 690, 730, 1245
1952, 889, 248, 871, 850
1953, 509, 1113, 1183, 1212
1954, 752, 596, 1248, 1253
1955, 582, 603, 394, 1136
1956, 779, 785, 755, 1181
1957, 1143, 1144, 439, 1166
1958, 384, 385, 350, 1115
1959, 854, 822, 850, 1126
1960, 937, 1141, 935, 1188
1961, 387, 1183, 1113, 1217
1962, 785, 1105, 1180, 1181
1963, 204, 764, 756, 1249
1964, 745, 1192, 1113, 1212
1965, 1129, 1131, 1092, 1242
1966, 856, 1173, 1114, 1219
1967, 450, 473, 503, 1115
1968, 473, 451, 492, 1115
1969, 774, 206, 647, 628
1970, 656, 1181, 1097, 1240
1971, 1202, 1203, 1081, 1214
1972, 992, 990, 1132, 1246
1973, 938, 1137, 936, 1175
1974, 798, 840, 825, 1125
1975, 501, 474, 498, 1245
1976, 708, 736, 734, 1245
1977, 944, 318, 980, 1156
1978, 1050, 318, 1012, 1156
1979, 730, 717, 728, 1254
1980, 482, 447, 78, 1155
1981, 361, 340, 78, 1155
1982, 979, 814, 1220, 1228
1983, 690, 730, 1245, 1254
1984, 667, 1148, 1149, 1255
1985, 175, 600, 759, 761
1986, 437, 435, 118, 1170
1987, 188, 930, 929, 1169
1988, 882, 1042, 1190, 1233
1989, 693, 738, 719, 1122
1990, 879, 862, 918, 1123
1991, 643, 640, 655, 1140
1992, 1095, 1133, 1122, 1230
1993, 1123, 1134, 1096, 1233
1994, 359, 335, 378, 1131
1995, 591, 608, 588, 1142
1996, 263, 898, 862, 1150
1997, 698, 168, 719, 1151
1998, 620, 1213, 188, 1247
1999, 920, 820, 259, 903
2000, 409, 395, 426, 1130
2001, 1130, 1138, 1099, 1259
2002, 781, 763, 756, 1249
2003, 433, 34, 400, 1202
2004, 548, 570, 521, 1127
2005, 371, 341, 356, 1121
2006, 526, 565, 547, 1121
2007, 846, 817, 799, 1117
2008, 263, 809, 898, 1150
2009, 1060, 1027, 1031, 1116
2010, 1063, 1031, 1047, 1116
2011, 634, 649, 84, 417
2012, 594, 410, 1191, 1206
2013, 698, 531, 168, 1151
2014, 400, 1202, 4, 1203
2015, 817, 843, 796, 1117
2016, 877, 279, 1041, 1165
2017, 463, 500, 470, 1131
2018, 1071, 1114, 1199, 1207
2019, 909, 895, 867, 1118
2020, 845, 807, 828, 1118
2021, 890, 908, 867, 1118
2022, 847, 823, 807, 1118
2023, 1034, 1046, 1065, 1119
2024, 1034, 1062, 1014, 1119
2025, 914, 896, 873, 1119
2026, 493, 461, 472, 1120
2027, 687, 716, 729, 1120
2028, 461, 495, 476, 1120
2029, 716, 700, 732, 1120
2030, 912, 873, 894, 1119
2031, 955, 978, 990, 1132
2032, 958, 968, 997, 1116
2033, 465, 447, 502, 1133
2034, 361, 334, 380, 1133
2035, 962, 944, 998, 1134
2036, 1012, 1030, 1056, 1134
2037, 956, 976, 991, 1124
2038, 1059, 1026, 1035, 1124
2039, 704, 730, 707, 1129
2040, 530, 568, 539, 1129
2041, 373, 330, 352, 1127
2042, 521, 566, 538, 1127
2043, 525, 544, 567, 1128
2044, 720, 739, 695, 1128
2045, 695, 731, 714, 1128
2046, 544, 527, 563, 1128
2047, 1026, 1061, 1044, 1124
2048, 709, 689, 737, 1135
2049, 786, 757, 769, 1140
2050, 778, 1142, 760, 1249
2051, 892, 864, 913, 1125
2052, 569, 529, 539, 1129
2053, 667, 1149, 654, 1255
2054, 468, 682, 1193, 1230
2055, 562, 526, 543, 1121
2056, 636, 665, 642, 1139
2057, 352, 331, 376, 1127
2058, 693, 703, 727, 1122
2059, 967, 949, 966, 1117
2060, 879, 907, 861, 1123
2061, 259, 795, 820, 920
2062, 736, 704, 697, 1129
2063, 642, 393, 86, 636
2064, 1164, 1169, 1101, 1204
2065, 206, 774, 772, 628
2066, 1005, 966, 974, 1117
2067, 485, 509, 454, 1144
2068, 840, 836, 810, 1246
2069, 204, 756, 629, 1249
2070, 532, 324, 1178, 1237
2071, 172, 171, 601, 1145
2072, 462, 469, 494, 1135
2073, 86, 403, 393, 642
2074, 454, 1144, 509, 1166
2075, 474, 462, 498, 1135
2076, 345, 370, 334, 1133
2077, 992, 948, 990, 1246
2078, 614, 602, 591, 1154
2079, 923, 1114, 1173, 1199
2080, 1113, 1192, 572, 1217
2081, 992, 978, 956, 1132
2082, 767, 219, 23, 1145
2083, 1001, 1114, 1207, 1219
2084, 664, 1203, 663, 1214
2085, 393, 403, 421, 1139
2086, 23, 218, 1146, 1204
2087, 1030, 1011, 1068, 1134
2088, 465, 491, 446, 1133
2089, 989, 943, 962, 1134
2090, 826, 825, 841, 1125
2091, 669, 644, 670, 1130
2092, 395, 414, 430, 1130
2093, 457, 1245, 1131, 1254
2094, 666, 668, 1146, 1147
2095, 345, 446, 75, 1153
2096, 501, 1131, 457, 1245
2097, 760, 182, 588, 591
2098, 413, 429, 394, 1136
2099, 500, 457, 1131, 1254
2100, 428, 412, 394, 1136
2101, 897, 1028, 281, 1187
2102, 501, 500, 457, 1131
2103, 1035, 1036, 1073, 1132
2104, 379, 335, 351, 1131
2105, 387, 1144, 332, 1250
2106, 595, 605, 582, 1136
2107, 760, 1142, 781, 1249
2108, 946, 993, 976, 1124
2109, 356, 327, 372, 1121
2110, 525, 151, 720, 1192
2111, 750, 614, 591, 1154
2112, 125, 602, 1154, 1202
2113, 534, 556, 576, 1122
2114, 853, 834, 812, 1123
2115, 965, 816, 1211, 1238
2116, 1104, 1146, 1079, 1204
2117, 490, 1205, 481, 1254
2118, 773, 768, 23, 1216
2119, 595, 412, 110, 1209
2120, 405, 84, 649, 417
2121, 413, 107, 402, 593
2122, 785, 779, 762, 1248
2123, 269, 906, 1038, 872
2124, 936, 1137, 935, 1141
2125, 176, 752, 596, 1248
2126, 176, 596, 585, 1248
2127, 1050, 980, 318, 1156
2128, 1025, 955, 301, 1207
2129, 911, 871, 892, 1125
2130, 340, 482, 78, 1155
2131, 118, 117, 676, 1255
2132, 503, 1115, 492, 1226
2133, 906, 1038, 1015, 269
2134, 620, 188, 187, 1247
2135, 650, 96, 416, 652
2136, 556, 575, 514, 1122
2137, 834, 793, 852, 1123
2138, 771, 784, 754, 1138
2139, 708, 734, 689, 1135
2140, 904, 889, 910, 1126
2141, 1054, 271, 866, 1072
2142, 1102, 1158, 1112, 1172
2143, 1111, 1171, 1101, 1176
2144, 1102, 1157, 1112, 1158
2145, 1112, 1167, 1102, 1172
2146, 1111, 1160, 1101, 1171
2147, 1112, 1157, 1102, 1167
2148, 1101, 1159, 1111, 1176
2149, 1111, 1159, 1101, 1160
2150, 958, 1004, 987, 1116
2151, 922, 866, 271, 1072
2152, 548, 330, 46, 1184
2153, 453, 470, 501, 1131
2154, 943, 315, 1011, 1168
2155, 1147, 1213, 666, 1247
2156, 661, 1139, 665, 1249
2157, 952, 294, 1008, 1176
2158, 771, 753, 787, 1138
2159, 640, 757, 777, 1140
2160, 22, 766, 772, 1214
2161, 247, 889, 854, 850
2162, 1033, 281, 1028, 1187
2163, 792, 615, 171, 1145
2164, 560, 1179, 564, 1200
2165, 75, 446, 489, 1153
2166, 1041, 279, 1018, 1165
2167, 877, 891, 279, 1165
2168, 1109, 1203, 1202, 1214
2169, 1036, 1025, 1037, 1132
2170, 184, 869, 925, 1171
2171, 691, 213, 749, 1172
2172, 418, 101, 1147, 1247
2173, 156, 517, 685, 1162
2174, 561, 1178, 560, 1194
2175, 887, 247, 889, 854
2176, 333, 388, 29, 1167
2177, 671, 765, 195, 1216
2178, 497, 499, 1201, 1210
2179, 1069, 1174, 1057, 1208
2180, 735, 1200, 728, 1205
2181, 420, 1206, 422, 1240
2182, 567, 1128, 563, 1235
2183, 602, 584, 608, 1257
2184, 343, 345, 75, 1153
2185, 1058, 1168, 1069, 1190
2186, 803, 857, 171, 1176
2187, 125, 455, 510, 1157
2188, 391, 333, 30, 1157
2189, 735, 1193, 733, 1194
2190, 746, 212, 691, 1158
2191, 513, 455, 126, 1158
2192, 1007, 293, 952, 1159
2193, 1076, 290, 1019, 1160
2194, 926, 869, 185, 1160
2195, 291, 1075, 1019, 1159
2196, 134, 700, 476, 1186
2197, 776, 216, 1148, 1255
2198, 418, 101, 100, 1147
2199, 860, 803, 172, 1171
2200, 114, 523, 579, 1172
2201, 61, 385, 450, 1183
2202, 725, 156, 685, 1162
2203, 738, 1122, 727, 1230
2204, 907, 1123, 918, 1233
2205, 725, 742, 157, 557
2206, 34, 125, 322, 1215
2207, 216, 215, 776, 1148
2208, 861, 260, 793, 1177
2209, 294, 932, 934, 1204
2210, 484, 686, 129, 1212
2211, 607, 1209, 610, 1248
2212, 367, 329, 384, 1115
2213, 115, 578, 523, 1167
2214, 377, 374, 1189, 1195
2215, 490, 481, 500, 1254
2216, 163, 530, 707, 1200
2217, 68, 346, 452, 1201
2218, 32, 419, 33, 1149
2219, 800, 950, 233, 1197
2220, 667, 639, 654, 1149
2221, 499, 1186, 496, 1195
2222, 823, 255, 890, 1196
2223, 406, 96, 416, 650
2224, 10, 102, 399, 1191
2225, 583, 598, 612, 1138
2226, 1027, 310, 968, 1198
2227, 851, 1196, 844, 1197
2228, 681, 126, 16, 214
2229, 327, 547, 44, 1189
2230, 324, 53, 532, 1178
2231, 633, 648, 762, 198
2232, 449, 355, 66, 1195
2233, 995, 996, 1197, 1198
2234, 525, 546, 151, 1192
2235, 971, 797, 224, 1219
2236, 1087, 1177, 1168, 1190
2237, 182, 760, 750, 591
2238, 165, 703, 514, 1194
2239, 882, 1042, 284, 1190
2240, 424, 187, 101, 1247
2241, 151, 694, 720, 1192
2242, 370, 380, 1133, 1237
2243, 934, 219, 171, 1204
2244, 998, 989, 1134, 1238
2245, 557, 742, 157, 558
2246, 375, 377, 1184, 1201
2247, 848, 842, 1177, 1211
2248, 846, 843, 1117, 1225
2249, 328, 39, 540, 1217
2250, 1168, 1177, 1110, 1190
2251, 1060, 1116, 1063, 1223
2252, 661, 665, 629, 1249
2253, 1110, 1182, 1174, 1208
2254, 847, 1118, 845, 1222
2255, 450, 477, 61, 1183
2256, 1152, 1179, 1106, 1200
2257, 1153, 1178, 1086, 1194
2258, 434, 399, 102, 1191
2259, 1089, 1186, 1162, 1195
2260, 1162, 1189, 1089, 1195
2261, 1086, 1193, 1153, 1194
2262, 1152, 1200, 1106, 1205
2263, 960, 1049, 313, 1174
2264, 1097, 1181, 1180, 1240
2265, 1087, 1168, 1177, 1211
2266, 1025, 301, 1043, 1207
2267, 887, 246, 854, 1173
2268, 1106, 1178, 1153, 1194
2269, 1092, 1179, 1152, 1200
2270, 61, 337, 385, 1183
2271, 1162, 1186, 1107, 1195
2272, 1107, 1189, 1162, 1195
2273, 1153, 1193, 1106, 1194
2274, 595, 110, 597, 1209
2275, 407, 110, 412, 1209
2276, 1092, 1200, 1152, 1205
2277, 1174, 1182, 1094, 1208
2278, 909, 1118, 908, 1223
2279, 729, 1120, 732, 1224
2280, 914, 1119, 912, 1225
2281, 943, 985, 315, 1168
2282, 1064, 1165, 1067, 1198
2283, 897, 281, 874, 1187
2284, 977, 301, 955, 1207
2285, 344, 1152, 368, 1179
2286, 731, 1128, 739, 1226
2287, 1061, 1124, 1059, 1231
2288, 373, 1127, 376, 1227
2289, 663, 634, 667, 1149
2290, 635, 657, 669, 1130
2291, 1174, 1182, 1110, 1228
2292, 565, 1121, 562, 1224
2293, 569, 1129, 568, 1242
2294, 1097, 1180, 1206, 1240
2295, 426, 1130, 430, 1259
2296, 1110, 1177, 1168, 1211
2297, 495, 1120, 493, 1234
2298, 1161, 1201, 1107, 1210
2299, 745, 1143, 692, 1166
2300, 1161, 1184, 1107, 1201
2301, 1071, 1137, 1053, 1175
2302, 491, 1133, 502, 1230
2303, 1056, 1134, 1068, 1233
2304, 357, 46, 330, 1184
2305, 468, 682, 143, 1193
2306, 566, 1127, 570, 1241
2307, 1093, 1201, 1161, 1210
2308, 993, 991, 1124, 1239
2309, 1093, 1184, 1161, 1201
2310, 1040, 1011, 315, 1168
2311, 367, 1115, 350, 1235
2312, 428, 1136, 429, 1252
2313, 1094, 1182, 1174, 1228
2314, 1065, 1062, 1119, 1236
2315, 494, 498, 1135, 1227
2316, 666, 1147, 1146, 1213
2317, 917, 1165, 915, 1196
2318, 798, 850, 836, 1126
2319, 216, 13, 117, 1255
2320, 548, 46, 520, 1184
2321, 917, 1185, 916, 1187
2322, 238, 965, 816, 1211
2323, 379, 378, 1131, 1242
2324, 467, 490, 1152, 1205
2325, 439, 1143, 438, 1144
2326, 840, 841, 1125, 1239
2327, 911, 1125, 913, 1231
2328, 856, 1141, 802, 1188
2329, 313, 1049, 1013, 1174
2330, 536, 1161, 573, 1184
2331, 1004, 1116, 997, 1222
2332, 903, 260, 861, 1177
2333, 343, 75, 489, 1153
2334, 641, 1251, 415, 1252
2335, 806, 854, 246, 1173
2336, 1067, 1187, 1066, 1218
2337, 774, 215, 22, 1148
2338, 73, 463, 359, 1152
2339, 789, 1145, 767, 1216
2340, 1085, 1196, 1165, 1197
2341, 767, 792, 219, 1145
2342, 726, 1161, 706, 1210
2343, 1085, 1197, 1165, 1198
2344, 371, 1121, 372, 1234
2345, 967, 1117, 1005, 1236
2346, 837, 848, 1182, 1228
2347, 773, 632, 194, 658
2348, 787, 784, 1138, 1258
2349, 905, 1182, 881, 1208
2350, 439, 441, 438, 1143
2351, 994, 996, 1218, 1220
2352, 73, 506, 463, 1152
2353, 333, 1157, 386, 1167
2354, 887, 865, 246, 1173
2355, 696, 158, 742, 1161
2356, 737, 1135, 734, 1241
2357, 1165, 1196, 1108, 1197
2358, 1006, 1159, 952, 1176
2359, 1165, 1197, 1108, 1198
2360, 869, 1160, 924, 1171
2361, 744, 1158, 691, 1172
2362, 195, 658, 671, 1216
2363, 1019, 1159, 1074, 1160
2364, 508, 1157, 455, 1158
2365, 574, 1162, 536, 1189
2366, 964, 988, 1174, 1228
2367, 416, 100, 10, 1147
2368, 1018, 279, 891, 1165
2369, 663, 667, 647, 1148
2370, 935, 936, 938, 1137
2371, 621, 217, 188, 1213
2372, 257, 849, 875, 1185
2373, 134, 705, 700, 1186
2374, 765, 768, 195, 1216
2375, 551, 51, 339, 1179
2376, 603, 107, 413, 593
2377, 604, 402, 107, 593
2378, 134, 476, 458, 1186
2379, 523, 1167, 577, 1172
2380, 359, 326, 73, 1152
2381, 635, 642, 661, 1139
2382, 937, 936, 935, 1141
2383, 61, 477, 337, 1183
2384, 438, 1144, 1143, 1250
2385, 312, 1049, 960, 1218
2386, 158, 558, 742, 1161
2387, 258, 875, 849, 1182
2388, 803, 1171, 855, 1176
2389, 899, 287, 1048, 1229
2390, 146, 683, 483, 1232
2391, 588, 609, 598, 1142
2392, 392, 630, 95, 1256
2393, 224, 797, 824, 1219
2394, 34, 125, 2, 322
2395, 422, 1209, 427, 1251
2396, 628, 664, 663, 1214
2397, 156, 557, 517, 1162
2398, 897, 282, 1028, 1208
2399, 367, 350, 349, 1235
2400, 793, 260, 820, 1177
2401, 630, 392, 94, 1240
2402, 324, 366, 53, 1178
2403, 1079, 1169, 1164, 1204
2404, 459, 484, 129, 1212
2405, 712, 129, 686, 1212
2406, 934, 17, 171, 219
2407, 326, 506, 73, 1152
2408, 348, 327, 44, 1189
2409, 212, 126, 681, 1163
2410, 702, 703, 165, 1194
2411, 550, 532, 53, 1178
2412, 449, 66, 471, 1195
2413, 614, 750, 791, 1154
2414, 767, 1145, 23, 1216
2415, 328, 353, 39, 1217
2416, 325, 515, 56, 1244
2417, 241, 794, 981, 1243
2418, 806, 246, 865, 1173
2419, 530, 163, 537, 1200
2420, 163, 707, 684, 1200
2421, 68, 452, 479, 1201
2422, 68, 358, 346, 1201
2423, 972, 233, 950, 1197
2424, 800, 233, 818, 1197
2425, 432, 1202, 400, 1203
2426, 979, 814, 235, 1220
2427, 1033, 874, 281, 1187
2428, 823, 808, 255, 1196
2429, 411, 1202, 432, 1257
2430, 535, 44, 547, 1189
2431, 752, 176, 761, 1248
2432, 1023, 284, 1042, 1190
2433, 607, 610, 585, 1248
2434, 882, 284, 880, 1190
2435, 198, 762, 633, 777
2436, 1027, 1039, 310, 1198
2437, 868, 890, 255, 1196
2438, 551, 516, 51, 1179
2439, 606, 1180, 610, 1206
2440, 1080, 1149, 1148, 1255
2441, 1185, 1187, 1108, 1220
2442, 919, 1150, 924, 1229
2443, 336, 66, 355, 1195
2444, 959, 968, 310, 1198
2445, 744, 1151, 741, 1232
2446, 1187, 1218, 1108, 1220
2447, 666, 652, 668, 1147
2448, 519, 567, 563, 1235
2449, 258, 849, 795, 1182
2450, 409, 423, 403, 1139
2451, 165, 514, 545, 1194
2452, 773, 194, 768, 658
2453, 30, 1170, 321, 1215
2454, 1028, 282, 1032, 1208
2455, 151, 546, 694, 1192
2456, 1094, 1187, 1185, 1220
2457, 745, 723, 692, 1143
2458, 1094, 1218, 1187, 1220
2459, 431, 406, 399, 1191
2460, 835, 849, 257, 1185
2461, 960, 313, 1002, 1174
2462, 224, 947, 971, 1219
2463, 785, 1180, 780, 1181
2464, 585, 761, 176, 1248
2465, 424, 622, 187, 1247
2466, 934, 23, 219, 1204
2467, 431, 406, 1191, 1256
2468, 257, 875, 885, 1185
2469, 410, 420, 431, 1206
2470, 481, 141, 717, 1205
2471, 725, 557, 156, 1162
2472, 33, 417, 4, 1149
2473, 393, 85, 636, 1203
2474, 540, 39, 518, 1217
2475, 238, 963, 965, 1211
2476, 713, 143, 682, 1193
2477, 9, 101, 424, 187
2478, 692, 1143, 441, 1166
2479, 655, 1140, 659, 1252
2480, 1040, 315, 985, 1168
2481, 637, 193, 775, 1146
2482, 401, 428, 429, 1252
2483, 709, 136, 469, 1210
2484, 468, 143, 466, 1193
2485, 509, 1183, 505, 1212
2486, 640, 633, 659, 1140
2487, 979, 236, 814, 1228
2488, 1021, 1049, 312, 1218
2489, 788, 1140, 786, 1253
2490, 1000, 1156, 1006, 1243
2491, 815, 1185, 851, 1220
2492, 1180, 1105, 1206, 1240
2493, 656, 660, 1181, 1240
2494, 386, 1155, 381, 1244
2495, 357, 520, 46, 1184
2496, 802, 856, 832, 1141
2497, 920, 875, 258, 1182
2498, 1070, 1074, 1156, 1229
2499, 504, 1155, 508, 1232
2500, 1046, 896, 277, 1223
2501, 527, 714, 154, 1224
2502, 828, 895, 252, 1225
2503, 472, 687, 131, 1226
2504, 294, 934, 171, 1204
2505, 1072, 270, 922, 1199
2506, 110, 407, 597, 1209
2507, 1014, 274, 894, 1231
2508, 1180, 1181, 1105, 1240
2509, 362, 387, 332, 1250
2510, 977, 1043, 301, 1207
2511, 351, 453, 70, 1227
2512, 141, 699, 717, 1205
2513, 216, 783, 13, 1255
2514, 611, 1136, 605, 1253
2515, 13, 677, 117, 1255
2516, 538, 49, 331, 1242
2517, 10, 1191, 406, 1256
2518, 697, 529, 160, 1241
2519, 313, 1013, 1002, 1174
2520, 383, 1153, 344, 1178
2521, 92, 415, 641, 1251
2522, 682, 468, 144, 1230
2523, 434, 613, 410, 1191
2524, 882, 285, 1042, 1233
2525, 787, 758, 784, 1258
2526, 937, 802, 1141, 1188
2527, 136, 480, 469, 1210
2528, 740, 1192, 745, 1212
2529, 923, 902, 1141, 1175
2530, 638, 630, 94, 1240
2531, 921, 881, 1177, 1190
2532, 814, 801, 235, 1220
2533, 370, 342, 380, 1237
2534, 998, 953, 989, 1238
2535, 586, 751, 174, 1180
2536, 364, 332, 387, 1144
2537, 796, 228, 974, 1239
2538, 625, 1148, 667, 1255
2539, 238, 816, 805, 1211
2540, 473, 492, 503, 1115
2541, 467, 1153, 507, 1193
2542, 1183, 1192, 1083, 1212
2543, 637, 632, 193, 1146
2544, 653, 666, 1213, 1247
2545, 575, 1122, 534, 1237
2546, 1083, 1192, 1183, 1217
2547, 820, 260, 903, 1177
2548, 812, 1123, 852, 1238
2549, 706, 1162, 743, 1186
2550, 799, 949, 231, 1222
2551, 747, 441, 442, 1166
2552, 1037, 1073, 1132, 1221
2553, 198, 648, 762, 779
2554, 705, 134, 458, 1186
2555, 1105, 1248, 1209, 1251
2556, 1173, 1199, 1114, 1207
2557, 236, 813, 814, 1228
2558, 671, 196, 765, 1181
2559, 1098, 1199, 1173, 1207
2560, 51, 382, 339, 1179
2561, 1072, 1015, 270, 1199
2562, 125, 602, 126, 1154
2563, 1146, 1147, 1079, 1213
2564, 34, 2, 125, 433
2565, 1173, 1207, 1114, 1219
2566, 942, 984, 1009, 1188
2567, 1098, 1207, 1173, 1219
2568, 964, 1168, 1003, 1211
2569, 1114, 1141, 1137, 1175
2570, 322, 321, 33, 1215
2571, 920, 258, 795, 1182
2572, 405, 400, 4, 1203
2573, 838, 1173, 856, 1219
2574, 835, 257, 885, 1185
2575, 819, 847, 845, 1222
2576, 747, 692, 441, 1166
2577, 792, 171, 17, 219
2578, 369, 1183, 387, 1217
2579, 984, 1137, 1001, 1188
2580, 878, 287, 899, 1229
2581, 287, 1029, 1048, 1229
2582, 146, 718, 683, 1232
2583, 483, 464, 146, 1232
2584, 765, 196, 755, 1181
2585, 395, 430, 426, 1130
2586, 56, 515, 552, 1244
2587, 829, 794, 241, 1243
2588, 291, 930, 293, 1169
2589, 115, 437, 29, 1170
2590, 30, 125, 2, 510
2591, 294, 171, 17, 857
2592, 937, 942, 858, 1188
2593, 712, 459, 129, 1212
2594, 855, 1150, 839, 1243
2595, 951, 979, 235, 1220
2596, 364, 485, 390, 1144
2597, 165, 545, 702, 1194
2598, 559, 1151, 577, 1244
2599, 336, 471, 66, 1195
2600, 550, 53, 366, 1178
2601, 348, 44, 535, 1189
2602, 522, 569, 568, 1242
2603, 987, 307, 1047, 1236
2604, 174, 600, 586, 1180
2605, 537, 163, 684, 1200
2606, 358, 68, 479, 1201
2607, 1017, 1060, 1063, 1223
2608, 909, 908, 883, 1223
2609, 565, 562, 549, 1224
2610, 729, 732, 715, 1224
2611, 960, 969, 312, 1218
2612, 884, 914, 912, 1225
2613, 460, 503, 492, 1226
2614, 710, 731, 739, 1226
2615, 282, 897, 863, 1208
2616, 880, 284, 1023, 1190
2617, 972, 818, 233, 1197
2618, 768, 658, 195, 1216
2619, 373, 376, 338, 1227
2620, 494, 475, 498, 1227
2621, 738, 727, 701, 1230
2622, 491, 502, 456, 1230
2623, 1020, 1056, 1068, 1233
2624, 907, 918, 870, 1233
2625, 1045, 1061, 1059, 1231
2626, 846, 804, 843, 1225
2627, 1113, 1192, 1183, 1212
2628, 583, 593, 592, 1138
2629, 1183, 1192, 1113, 1217
2630, 64, 451, 329, 1234
2631, 391, 30, 2, 510
2632, 17, 294, 857, 1008
2633, 566, 570, 541, 1241
2634, 478, 495, 493, 1234
2635, 326, 368, 344, 1152
2636, 959, 310, 1039, 1198
2637, 868, 255, 808, 1196
2638, 324, 532, 54, 1237
2639, 993, 957, 991, 1239
2640, 688, 726, 706, 1210
2641, 937, 858, 802, 1188
2642, 934, 932, 218, 1204
2643, 467, 448, 490, 1205
2644, 906, 922, 270, 1199
2645, 516, 564, 560, 1179
2646, 816, 965, 239, 1238
2647, 224, 824, 947, 1219
2648, 1209, 1248, 1100, 1251
2649, 51, 516, 382, 1179
2650, 360, 325, 56, 1244
2651, 961, 241, 981, 1243
2652, 282, 863, 1032, 1208
2653, 212, 126, 16, 681
2654, 603, 413, 108, 394
2655, 778, 760, 781, 1249
2656, 1065, 1022, 1062, 1236
2657, 822, 821, 836, 1126
2658, 876, 911, 913, 1231
2659, 1071, 1199, 1055, 1207
2660, 1079, 1213, 1147, 1247
2661, 572, 1192, 571, 1217
2662, 322, 125, 30, 1215
2663, 392, 404, 94, 1240
2664, 594, 410, 613, 1191
2665, 353, 518, 39, 1217
2666, 1001, 1207, 999, 1219
2667, 713, 466, 143, 1193
2668, 440, 1144, 438, 1250
2669, 964, 945, 988, 1228
2670, 649, 636, 85, 1203
2671, 631, 196, 671, 1181
2672, 392, 95, 406, 1256
2673, 561, 550, 560, 1178
2674, 92, 396, 415, 1251
2675, 1004, 997, 975, 1222
2676, 646, 629, 665, 1249
2677, 693, 727, 738, 1122
2678, 907, 879, 918, 1123
2679, 555, 1143, 572, 1250
2680, 1137, 1141, 1114, 1188
2681, 497, 480, 499, 1210
2682, 863, 905, 881, 1208
2683, 141, 481, 448, 1205
2684, 699, 735, 728, 1205
2685, 582, 611, 603, 1136
2686, 10, 399, 406, 1191
2687, 624, 1147, 666, 1247
2688, 622, 9, 424, 187
2689, 836, 1126, 821, 1246
2690, 1013, 1057, 1069, 1174
2691, 1097, 1191, 1145, 1216
2692, 893, 1016, 272, 1221
2693, 434, 102, 11, 172
2694, 136, 709, 688, 1210
2695, 141, 448, 699, 1205
2696, 630, 650, 95, 1256
2697, 12, 114, 579, 213
2698, 126, 16, 513, 212
2699, 184, 925, 11, 172
2700, 1076, 185, 18, 290
2701, 293, 27, 291, 1075
2702, 29, 1, 115, 388
2703, 236, 979, 945, 1228
2704, 663, 664, 649, 1203
2705, 1040, 1069, 1058, 1168
2706, 840, 827, 841, 1239
2707, 713, 733, 735, 1193
2708, 136, 688, 480, 1210
2709, 791, 750, 766, 1154
2710, 420, 398, 422, 1206
2711, 193, 773, 775, 1146
2712, 187, 9, 101, 931
2713, 32, 3, 118, 323
2714, 32, 118, 3, 678
2715, 188, 621, 19, 217
2716, 188, 19, 933, 217
2717, 216, 117, 13, 436
2718, 963, 238, 805, 1211
2719, 432, 400, 405, 1203
2720, 1017, 1046, 277, 1223
2721, 277, 896, 883, 1223
2722, 714, 715, 154, 1224
2723, 154, 549, 527, 1224
2724, 783, 677, 13, 1255
2725, 884, 252, 895, 1225
2726, 792, 751, 615, 1145
2727, 682, 144, 701, 1230
2728, 1042, 285, 1020, 1233
2729, 460, 472, 131, 1226
2730, 710, 131, 687, 1226
2731, 804, 828, 252, 1225
2732, 70, 338, 351, 1227
2733, 755, 196, 631, 1181
2734, 513, 16, 746, 212
2735, 1075, 293, 27, 1007
2736, 388, 1, 115, 578
2737, 185, 1076, 18, 926
2738, 579, 749, 12, 213
2739, 925, 860, 11, 172
2740, 1045, 274, 1014, 1231
2741, 969, 1021, 312, 1218
2742, 475, 70, 453, 1227
2743, 538, 522, 49, 1242
2744, 1032, 1069, 1057, 1208
2745, 876, 894, 274, 1231
2746, 906, 270, 1015, 1199
2747, 611, 605, 590, 1253
2748, 64, 478, 451, 1234
2749, 541, 160, 529, 1241
2750, 235, 801, 951, 1220
2751, 1058, 1069, 1023, 1190
2752, 1097, 1191, 1216, 1256
2753, 456, 144, 468, 1230
2754, 882, 870, 285, 1233
2755, 799, 231, 819, 1222
2756, 307, 1022, 1047, 1236
2757, 348, 377, 374, 1189
2758, 1021, 1067, 1066, 1218
2759, 782, 217, 621, 1213
2760, 1145, 1191, 1104, 1216
2761, 287, 878, 1029, 1229
2762, 146, 464, 718, 1232
2763, 1064, 1067, 1039, 1198
2764, 100, 617, 618, 1164
2765, 679, 681, 215, 1163
2766, 957, 974, 228, 1239
2767, 759, 174, 751, 1180
2768, 499, 458, 496, 1186
2769, 702, 735, 733, 1194
2770, 545, 561, 560, 1194
2771, 846, 843, 817, 1117
2772, 499, 496, 471, 1195
2773, 582, 603, 108, 394
2774, 1071, 1053, 1038, 1175
2775, 218, 775, 1146, 1213
2776, 377, 336, 374, 1195
2777, 735, 684, 728, 1200
2778, 537, 560, 564, 1200
2779, 711, 737, 734, 1241
2780, 479, 497, 499, 1201
2781, 375, 358, 377, 1201
2782, 371, 372, 354, 1234
2783, 923, 1173, 888, 1199
2784, 996, 972, 995, 1197
2785, 1063, 1060, 1031, 1116
2786, 777, 640, 633, 199
2787, 30, 2, 125, 322
2788, 934, 171, 17, 294
2789, 422, 427, 396, 1251
2790, 975, 231, 949, 1222
2791, 485, 511, 390, 1144
2792, 933, 217, 932, 1169
2793, 323, 32, 321, 1170
2794, 992, 990, 978, 1132
2795, 848, 805, 842, 1211
2796, 917, 915, 868, 1196
2797, 193, 632, 773, 1146
2798, 711, 697, 160, 1241
2799, 393, 405, 85, 1203
2800, 375, 377, 357, 1184
2801, 995, 959, 996, 1198
2802, 49, 347, 331, 1242
2803, 218, 217, 775, 1213
2804, 808, 844, 851, 1196
2805, 23, 934, 218, 1204
2806, 908, 909, 867, 1118
2807, 807, 845, 847, 1118
2808, 1104, 1216, 1191, 1256
2809, 1034, 1065, 1062, 1119
2810, 495, 461, 493, 1120
2811, 716, 732, 729, 1120
2812, 914, 873, 912, 1119
2813, 938, 1078, 940, 1137
2814, 1059, 1061, 1026, 1124
2815, 976, 993, 991, 1124
2816, 651, 1216, 668, 1256
2817, 236, 945, 813, 1228
2818, 570, 566, 521, 1127
2819, 563, 567, 544, 1128
2820, 739, 731, 695, 1128
2821, 730, 704, 736, 1129
2822, 539, 568, 569, 1129
2823, 827, 228, 796, 1239
2824, 376, 373, 352, 1127
2825, 562, 565, 526, 1121
2826, 717, 481, 1205, 1254
2827, 851, 844, 818, 1197
2828, 654, 625, 667, 1255
2829, 335, 379, 378, 1131
2830, 379, 347, 378, 1242
2831, 620, 672, 621, 1213
2832, 788, 786, 770, 1253
2833, 465, 502, 491, 1133
2834, 334, 370, 380, 1133
2835, 402, 426, 430, 1259
2836, 1056, 1030, 1068, 1134
2837, 998, 989, 962, 1134
2838, 967, 1005, 986, 1236
2839, 94, 404, 638, 1240
2840, 533, 54, 532, 1237
2841, 498, 462, 494, 1135
2842, 752, 177, 596, 1253
2843, 360, 56, 552, 1244
2844, 961, 829, 241, 1243
2845, 932, 294, 293, 1169
2846, 29, 321, 30, 1170
2847, 913, 911, 892, 1125
2848, 1016, 1054, 272, 1221
2849, 1163, 1170, 1102, 1215
2850, 1131, 1245, 1129, 1254
2851, 213, 212, 679, 1163
2852, 184, 617, 185, 1164
2853, 790, 772, 766, 1214
2854, 589, 606, 610, 1206
2855, 408, 402, 106, 1259
2856, 965, 953, 239, 1238
2857, 543, 341, 41, 1235
2858, 816, 239, 811, 1238
2859, 662, 660, 627, 1251
2860, 1064, 1018, 1067, 1165
2861, 575, 534, 533, 1237
2862, 811, 812, 852, 1238
2863, 641, 627, 92, 1251
2864, 363, 333, 386, 1167
2865, 54, 342, 324, 1237
2866, 1001, 984, 954, 1137
2867, 574, 536, 535, 1189
2868, 961, 1000, 1006, 1243
2869, 360, 386, 381, 1244
2870, 1006, 952, 983, 1176
2871, 277, 883, 1017, 1223
2872, 715, 549, 154, 1224
2873, 710, 460, 131, 1226
2874, 884, 804, 252, 1225
2875, 456, 701, 144, 1230
2876, 70, 475, 338, 1227
2877, 1020, 285, 870, 1233
2878, 869, 924, 900, 1171
2879, 917, 891, 915, 1165
2880, 724, 744, 691, 1172
2881, 333, 365, 386, 1157
2882, 455, 508, 486, 1157
2883, 488, 508, 455, 1158
2884, 691, 744, 722, 1158
2885, 952, 1006, 982, 1159
2886, 1019, 1051, 1074, 1159
2887, 1019, 1074, 1052, 1160
2888, 869, 901, 924, 1160
2889, 64, 329, 354, 1234
2890, 1070, 1029, 1074, 1229
2891, 878, 919, 924, 1229
2892, 464, 504, 508, 1232
2893, 718, 744, 741, 1232
2894, 1005, 967, 966, 1117
2895, 174, 759, 600, 1180
2896, 1045, 876, 274, 1231
2897, 641, 415, 91, 1252
2898, 1112, 1155, 1151, 1232
2899, 666, 668, 632, 1146
2900, 1150, 1156, 1111, 1229
2901, 214, 16, 791, 1154
2902, 1096, 1156, 1150, 1229
2903, 394, 429, 428, 1136
2904, 987, 986, 307, 1236
2905, 1151, 1155, 1095, 1232
2906, 1004, 958, 997, 1116
2907, 994, 951, 996, 1220
2908, 1092, 1131, 1129, 1254
2909, 536, 573, 520, 1184
2910, 404, 420, 422, 1240
2911, 371, 356, 372, 1121
2912, 751, 767, 789, 1145
2913, 916, 917, 885, 1185
2914, 1151, 1155, 1112, 1244
2915, 1111, 1156, 1150, 1243
2916, 874, 917, 916, 1187
2917, 1096, 1150, 1156, 1243
2918, 653, 672, 620, 1213
2919, 115, 1, 29, 437
2920, 291, 930, 27, 293
2921, 619, 18, 185, 290
2922, 680, 114, 12, 213
2923, 1095, 1155, 1151, 1244
2924, 512, 442, 439, 1166
2925, 1103, 1142, 1139, 1249
2926, 1129, 1131, 1088, 1245
2927, 975, 819, 231, 1222
2928, 1078, 954, 1010, 1137
2929, 788, 777, 757, 1140
2930, 933, 293, 930, 1169
2931, 323, 29, 437, 1170
2932, 689, 734, 737, 1135
2933, 1066, 1067, 1033, 1187
2934, 1080, 1170, 1163, 1215
2935, 837, 813, 848, 1228
2936, 841, 825, 840, 1125
2937, 751, 586, 615, 1145
2938, 440, 332, 1144, 1250
2939, 1053, 1071, 1024, 1137
2940, 543, 41, 519, 1235
2941, 594, 589, 112, 1206
2942, 787, 784, 771, 1138
2943, 789, 768, 765, 1216
2944, 597, 610, 607, 1209
2945, 422, 407, 427, 1209
2946, 764, 646, 205, 1214
2947, 829, 855, 839, 1243
2948, 199, 777, 640, 757
2949, 552, 559, 577, 1244
2950, 848, 842, 820, 1177
2951, 405, 649, 85, 1203
2952, 454, 512, 439, 1166
2953, 748, 441, 692, 1143
2954, 789, 767, 768, 1216
2955, 904, 910, 866, 1221
2956, 937, 802, 859, 1141
2957, 855, 803, 833, 1171
2958, 554, 523, 577, 1172
2959, 64, 354, 478, 1234
2960, 541, 711, 160, 1241
2961, 558, 573, 536, 1161
2962, 423, 421, 403, 1139
2963, 347, 49, 522, 1242
2964, 402, 604, 106, 1259
2965, 112, 410, 594, 1206
2966, 954, 1078, 1024, 1137
2967, 627, 396, 92, 1251
2968, 443, 441, 748, 1143
2969, 937, 859, 939, 1141
2970, 866, 893, 272, 1221
2971, 1143, 1144, 1113, 1250
2972, 953, 811, 239, 1238
2973, 957, 228, 827, 1239
2974, 54, 533, 342, 1237
2975, 624, 666, 653, 1247
2976, 938, 1053, 1078, 1137
2977, 440, 389, 332, 1250
2978, 596, 177, 590, 1253
2979, 923, 872, 902, 1175
2980, 994, 996, 969, 1218
2981, 577, 523, 553, 1167
2982, 940, 1010, 984, 1137
2983, 594, 613, 601, 1191
2984, 938, 941, 1077, 1175
2985, 898, 924, 919, 1150
2986, 831, 803, 855, 1176
2987, 741, 744, 698, 1151
2988, 1113, 1144, 1143, 1166
2989, 440, 439, 438, 1144
2990, 477, 505, 509, 1183
2991, 740, 745, 712, 1212
2992, 509, 505, 459, 1212
2993, 353, 369, 387, 1217
2994, 572, 555, 524, 1143
2995, 620, 653, 1213, 1247
2996, 440, 444, 389, 1250
2997, 406, 95, 650, 1256
2998, 902, 886, 923, 1141
2999, 344, 383, 343, 1153
3000, 637, 666, 1146, 1213
3001, 838, 856, 824, 1219
3002, 454, 439, 1144, 1166
3003, 938, 1053, 1137, 1175
3004, 500, 501, 470, 1131
3005, 648, 631, 779, 197
3006, 349, 519, 41, 1235
3007, 307, 986, 1022, 1236
3008, 466, 467, 507, 1193
3009, 406, 431, 392, 1256
3010, 581, 555, 443, 1143
3011, 415, 401, 91, 1252
3012, 939, 927, 902, 1141
3013, 640, 659, 655, 1140
3014, 801, 815, 851, 1220
3015, 610, 606, 600, 1180
3016, 612, 593, 1138, 1259
3017, 623, 655, 659, 1252
3018, 723, 524, 748, 1143
3019, 921, 880, 881, 1190
3020, 1081, 1142, 1139, 1257
3021, 1036, 1037, 1073, 1132
3022, 656, 638, 660, 1240
3023, 1126, 1132, 1091, 1221
3024, 837, 848, 795, 1182
3025, 775, 637, 1146, 1213
3026, 964, 1003, 963, 1211
3027, 706, 743, 705, 1186
3028, 1091, 1132, 1126, 1246
3029, 421, 411, 432, 1257
3030, 785, 780, 755, 1181
3031, 740, 694, 745, 1192
3032, 341, 349, 41, 1235
3033, 202, 645, 763, 1258
3034, 788, 757, 786, 1140
3035, 941, 902, 928, 1175
3036, 582, 605, 611, 1136
3037, 1115, 1128, 1082, 1226
3038, 642, 665, 661, 1139
3039, 859, 832, 886, 1141
3040, 574, 557, 536, 1162
3041, 866, 272, 1054, 1221
3042, 646, 628, 205, 1214
3043, 487, 721, 747, 1166
3044, 585, 596, 607, 1248
3045, 1074, 1050, 1070, 1156
3046, 1006, 1000, 980, 1156
3047, 1082, 1128, 1115, 1235
3048, 518, 572, 571, 1217
3049, 853, 839, 809, 1150
3050, 770, 177, 752, 1253
3051, 386, 340, 381, 1155
3052, 508, 504, 482, 1155
3053, 531, 559, 576, 1151
3054, 454, 509, 487, 1166
3055, 721, 745, 692, 1166
3056, 620, 621, 188, 1213
3057, 433, 411, 616, 1202
3058, 382, 344, 368, 1179
3059, 1001, 999, 947, 1219
3060, 770, 590, 177, 1253
3061, 441, 439, 442, 1166
3062, 637, 653, 666, 1213
3063, 942, 935, 984, 1188
3064, 920, 881, 905, 1182
3065, 927, 859, 886, 1141
3066, 1053, 938, 1077, 1175
3067, 589, 398, 112, 1206
3068, 919, 862, 898, 1150
3069, 719, 741, 698, 1151
3070, 748, 524, 581, 1143
3071, 872, 928, 1077, 268
3072, 467, 490, 506, 1152
3073, 444, 555, 580, 1250
3074, 758, 202, 763, 1258
3075, 188, 19, 930, 933
3076, 217, 621, 19, 782
3077, 619, 101, 9, 931
3078, 678, 3, 32, 425
3079, 437, 118, 3, 323
3080, 13, 680, 216, 436
3081, 1122, 1133, 1086, 1230
3082, 1087, 1134, 1123, 1233
3083, 390, 440, 332, 1144
3084, 445, 440, 390, 1144
3085, 773, 23, 218, 1146
3086, 726, 742, 706, 1161
3087, 964, 988, 1002, 1174
3088, 1086, 1133, 1122, 1237
3089, 1123, 1134, 1087, 1238
3090, 928, 872, 1077, 1175
3091, 631, 779, 197, 755
3092, 365, 510, 486, 1157
3093, 722, 488, 746, 1158
3094, 1051, 1007, 982, 1159
3095, 926, 1052, 901, 1160
3096, 639, 634, 83, 1149
3097, 944, 980, 1000, 1156
3098, 1070, 1050, 1012, 1156
3099, 941, 902, 267, 928
3100, 504, 447, 482, 1155
3101, 381, 340, 361, 1155
3102, 1117, 1119, 1084, 1225
3103, 511, 439, 445, 1144
3104, 350, 367, 384, 1115
3105, 1084, 1118, 1116, 1222
3106, 1116, 1118, 1084, 1223
3107, 937, 935, 942, 1188
3108, 207, 647, 625, 1148
3109, 418, 1147, 624, 1247
3110, 780, 785, 759, 1180
3111, 792, 767, 751, 1145
3112, 624, 97, 652, 1147
3113, 1055, 1071, 1015, 1199
3114, 776, 1148, 625, 1255
3115, 1037, 1054, 1073, 1221
3116, 205, 628, 772, 1214
3117, 399, 434, 410, 1191
3118, 758, 626, 202, 1258
3119, 172, 601, 613, 1191
3120, 1084, 1119, 1117, 1236
3121, 1082, 1121, 1120, 1224
3122, 999, 1001, 977, 1207
3123, 830, 856, 802, 1188
3124, 398, 410, 112, 1206
3125, 1090, 1125, 1124, 1231
3126, 624, 418, 97, 1147
3127, 1120, 1121, 1082, 1234
3128, 454, 439, 511, 1144
3129, 1078, 954, 299, 1010
3130, 207, 625, 776, 1148
3131, 935, 1137, 984, 1188
3132, 835, 851, 815, 1185
3133, 970, 984, 1001, 1188
3134, 623, 641, 91, 1252
3135, 1124, 1125, 1090, 1239
3136, 1127, 1135, 1088, 1227
3137, 1088, 1131, 1129, 1242
3138, 764, 205, 772, 1214
3139, 1, 29, 437, 323
3140, 290, 619, 18, 931
3141, 933, 27, 930, 293
3142, 680, 12, 114, 436
3143, 833, 860, 900, 1171
3144, 579, 554, 724, 1172
3145, 365, 80, 486, 510
3146, 1051, 1007, 320, 982
3147, 746, 722, 148, 488
3148, 289, 901, 926, 1052
3149, 721, 127, 487, 747
3150, 83, 419, 639, 1149
3151, 634, 417, 83, 1149
3152, 1088, 1135, 1127, 1241
3153, 821, 948, 226, 1246
3154, 534, 575, 556, 1122
3155, 812, 834, 852, 1123
3156, 768, 767, 23, 1216
3157, 388, 363, 553, 1167
3158, 207, 774, 647, 1148
3159, 831, 983, 857, 1176
3160, 418, 624, 424, 1247
3161, 806, 856, 838, 1173
3162, 411, 584, 1202, 1257
3163, 571, 572, 546, 1192
3164, 91, 401, 623, 1252
3165, 942, 1009, 858, 1188
3166, 474, 139, 708, 1245
3167, 776, 625, 783, 1255
3168, 954, 1078, 299, 1024
3169, 424, 99, 9, 622
3170, 211, 13, 783, 677
3171, 631, 656, 660, 1181
3172, 555, 572, 542, 1250
3173, 1071, 1055, 1043, 1207
3174, 872, 1077, 1038, 268
3175, 170, 724, 579, 554
3176, 900, 265, 860, 833
3177, 59, 390, 364, 485
3178, 1130, 1138, 1103, 1258
3179, 343, 383, 345, 1153
3180, 970, 858, 1009, 1188
3181, 830, 858, 970, 1188
3182, 916, 897, 874, 1187
3183, 416, 652, 97, 1147
3184, 337, 387, 369, 1183
3185, 973, 810, 226, 1246
3186, 298, 942, 984, 1009
3187, 940, 1010, 297, 984
3188, 399, 410, 431, 1191
3189, 1103, 1138, 1130, 1259
3190, 676, 677, 673, 1255
3191, 983, 857, 243, 831
3192, 1077, 872, 1038, 1175
3193, 888, 923, 865, 1173
3194, 388, 58, 553, 363
3195, 902, 927, 939, 266
3196, 580, 444, 124, 555
3197, 555, 123, 581, 443
3198, 938, 295, 1077, 941
3199, 645, 202, 626, 1258
3200, 620, 622, 675, 1247
3201, 948, 973, 226, 1246
3202, 743, 725, 685, 1162
3203, 1078, 940, 296, 938
3204, 855, 809, 839, 1150
3205, 531, 577, 559, 1151
3206, 385, 337, 369, 1183
3207, 747, 512, 487, 1166
3208, 743, 706, 725, 1162
3209, 489, 446, 507, 1153
3210, 690, 457, 140, 1254
3211, 139, 457, 690, 1245
3212, 207, 776, 774, 1148
3213, 1041, 1018, 1064, 1165
3214, 877, 915, 891, 1165
3215, 881, 903, 921, 1177
3216, 854, 806, 838, 1173
3217, 1100, 1140, 1136, 1252
3218, 214, 126, 16, 1154
3219, 657, 644, 669, 1130
3220, 416, 97, 418, 1147
3221, 417, 419, 83, 1149
3222, 366, 383, 344, 1178
3223, 411, 584, 616, 1202
3224, 676, 673, 654, 1255
3225, 675, 424, 624, 1247
3226, 1139, 1142, 1081, 1249
3227, 583, 612, 593, 1138
3228, 1066, 1033, 1028, 1187
3229, 1136, 1140, 1100, 1253
3230, 528, 573, 558, 1161
3231, 616, 125, 2, 433
3232, 507, 467, 489, 1153
3233, 792, 17, 171, 615
3234, 620, 675, 653, 1247
3235, 783, 625, 673, 1255
3236, 964, 985, 1003, 1168
3237, 477, 450, 505, 1183
3238, 291, 929, 930, 1169
3239, 115, 435, 437, 1170
3240, 359, 368, 326, 1152
3241, 391, 510, 365, 1157
3242, 1057, 1013, 1049, 1174
3243, 513, 746, 488, 1158
3244, 651, 658, 668, 1216
3245, 1051, 1075, 1007, 1159
3246, 1052, 926, 1076, 1160
3247, 393, 432, 405, 1203
3248, 860, 925, 900, 1171
3249, 579, 724, 749, 1172
3250, 512, 747, 442, 1166
3251, 1008, 857, 983, 1176
3252, 1058, 1011, 1040, 1168
3253, 149, 723, 524, 748
3254, 875, 916, 885, 1185
3255, 740, 720, 694, 1192
3256, 797, 838, 824, 1219
3257, 571, 546, 525, 1192
3258, 621, 620, 190, 672
3259, 678, 676, 210, 674
3260, 865, 887, 888, 1173
3261, 861, 921, 903, 1177
3262, 985, 943, 1003, 1168
3263, 849, 837, 795, 1182
3264, 1043, 1055, 1025, 1207
3265, 671, 658, 651, 1216
3266, 139, 690, 708, 1245
3267, 209, 677, 673, 676
3268, 189, 622, 675, 620
3269, 517, 557, 574, 1162
3270, 328, 369, 353, 1217
3271, 520, 573, 548, 1184
3272, 481, 717, 140, 1254
3273, 322, 30, 321, 1215
3274, 375, 357, 330, 1184
3275, 690, 140, 717, 1254
3276, 389, 542, 362, 1250
3277, 1053, 938, 295, 1077
3278, 1007, 1051, 320, 1075
3279, 365, 391, 80, 510
3280, 857, 983, 243, 1008
3281, 513, 746, 148, 488
3282, 724, 749, 170, 579
3283, 926, 1076, 289, 1052
3284, 925, 265, 860, 900
3285, 390, 59, 511, 485
3286, 127, 487, 747, 512
3287, 999, 977, 955, 1207
3288, 821, 226, 810, 1246
3289, 938, 296, 1078, 1053
3290, 553, 578, 388, 1167
3291, 923, 888, 906, 1199
3292, 485, 454, 511, 1144
3293, 595, 597, 607, 1209
3294, 407, 412, 427, 1209
3295, 542, 389, 580, 1250
3296, 759, 751, 780, 1180
3297, 524, 149, 748, 581
3298, 222, 858, 970, 830
3299, 362, 389, 37, 542
3300, 580, 37, 389, 542
3301, 858, 970, 1009, 222
3302, 832, 859, 886, 244
3303, 613, 434, 11, 172
3304, 564, 516, 551, 1179
3305, 614, 791, 16, 1154
3306, 836, 850, 822, 1126
3307, 1078, 1010, 940, 1137
3308, 935, 940, 984, 1137
3309, 927, 886, 859, 244
3310, 561, 532, 550, 1178
3311, 438, 443, 555, 1143
3312, 842, 793, 820, 1177
3313, 139, 474, 457, 1245
3314, 512, 120, 439, 442
3315, 511, 119, 445, 439
3316, 366, 324, 383, 1178
3317, 476, 496, 458, 1186
3318, 650, 651, 668, 1256
3319, 490, 463, 506, 1152
3320, 673, 209, 676, 654
3321, 676, 654, 210, 674
3322, 675, 189, 620, 653
3323, 620, 653, 190, 672
3324, 388, 553, 58, 578
3325, 705, 743, 700, 1186
3326, 547, 574, 535, 1189
3327, 726, 696, 742, 1161
3328, 755, 780, 765, 1181
3329, 880, 921, 882, 1190
3330, 327, 348, 374, 1189
3331, 336, 355, 374, 1195
3332, 1015, 1072, 1055, 1199
3333, 936, 939, 902, 1141
3334, 439, 454, 120, 512
3335, 119, 511, 454, 439
3336, 1058, 1023, 1042, 1190
3337, 972, 950, 995, 1197
3338, 505, 484, 459, 1212
3339, 740, 712, 686, 1212
3340, 703, 702, 733, 1194
3341, 1028, 1032, 1057, 1208
3342, 514, 561, 545, 1194
3343, 471, 496, 449, 1195
3344, 951, 994, 979, 1220
3345, 684, 707, 728, 1200
3346, 564, 530, 537, 1200
3347, 452, 497, 479, 1201
3348, 358, 375, 346, 1201
3349, 844, 800, 818, 1197
3350, 778, 756, 764, 1249
3351, 511, 445, 390, 1144
3352, 868, 915, 890, 1196
3353, 457, 690, 1245, 1254
3354, 1027, 1064, 1039, 1198
3355, 808, 823, 844, 1196
3356, 959, 995, 968, 1198
3357, 849, 835, 815, 1185
3358, 814, 813, 837, 1228
3359, 939, 859, 927, 1141
3360, 1003, 965, 963, 1211
3361, 468, 466, 507, 1193
3362, 599, 1142, 608, 1257
3363, 792, 751, 173, 615
3364, 616, 602, 125, 1202
3365, 713, 682, 733, 1193
3366, 994, 969, 960, 1218
3367, 947, 999, 971, 1219
3368, 581, 443, 748, 1143
3369, 444, 438, 555, 1250
3370, 443, 122, 748, 441
3371, 440, 35, 389, 444
3372, 1021, 1066, 1049, 1218
3373, 680, 13, 116, 436
3374, 933, 19, 930, 292
3375, 933, 930, 27, 292
3376, 191, 19, 621, 782
3377, 437, 31, 1, 323
3378, 437, 3, 31, 323
3379, 186, 18, 619, 931
3380, 81, 3, 678, 425
3381, 186, 619, 9, 931
3382, 116, 12, 680, 436
3383, 441, 121, 747, 442
3384, 36, 390, 445, 440
3385, 601, 615, 586, 1145
3386, 614, 791, 750, 183
3387, 599, 609, 608, 1142
3388, 699, 728, 717, 1205
3389, 122, 692, 748, 441
3390, 518, 571, 540, 1217
3391, 121, 747, 692, 441
3392, 775, 782, 637, 1213
3393, 332, 35, 389, 440
3394, 942, 858, 220, 937
3395, 859, 221, 937, 939
3396, 552, 515, 559, 1244
3397, 390, 36, 332, 440
3398, 839, 794, 829, 1243
3399, 469, 480, 497, 1210
3400, 858, 220, 937, 802
3401, 221, 937, 802, 859
3402, 638, 656, 630, 1240
3403, 411, 616, 103, 433
3404, 410, 434, 113, 613
3405, 457, 481, 140, 1254
3406, 411, 400, 432, 1202
3407, 960, 1002, 988, 1174
3408, 814, 815, 801, 1220
3409, 484, 130, 129, 686
3410, 133, 134, 700, 476
3411, 878, 288, 287, 1029
3412, 459, 129, 128, 712
3413, 152, 525, 151, 720
3414, 152, 153, 544, 695
3415, 303, 304, 956, 1035
3416, 131, 130, 460, 710
3417, 132, 131, 472, 687
3418, 154, 714, 527, 153
3419, 255, 254, 823, 890
3420, 708, 138, 139, 474
3421, 1026, 976, 305, 304
3422, 109, 110, 595, 412
3423, 715, 155, 154, 549
3424, 162, 539, 161, 704
3425, 716, 132, 133, 461
3426, 1046, 277, 896, 276
3427, 165, 545, 164, 702
3428, 276, 873, 1034, 275
3429, 358, 68, 67, 479
3430, 807, 254, 253, 867
3431, 280, 1018, 279, 891
3432, 597, 110, 111, 407
3433, 253, 252, 828, 895
3434, 894, 1014, 275, 274
3435, 877, 278, 1041, 279
3436, 338, 70, 69, 475
3437, 69, 68, 346, 452
3438, 310, 309, 1027, 968
3439, 334, 77, 76, 465
3440, 277, 1017, 883, 278
3441, 316, 317, 962, 1030
3442, 456, 701, 145, 144
3443, 162, 163, 530, 707
3444, 285, 286, 1020, 870
3445, 361, 78, 77, 447
3446, 944, 317, 318, 1012
3447, 164, 684, 537, 163
3448, 145, 683, 483, 146
3449, 718, 146, 147, 464
3450, 78, 79, 482, 340
3451, 899, 286, 1048, 287
3452, 318, 980, 1050, 319
3453, 352, 47, 48, 521
3454, 67, 66, 336, 471
3455, 251, 804, 252, 884
3456, 800, 232, 233, 950
3457, 920, 905, 875, 1182
3458, 438, 1143, 555, 1250
3459, 331, 48, 49, 538
3460, 71, 70, 351, 453
3461, 311, 310, 1039, 959
3462, 274, 876, 1045, 273
3463, 697, 161, 160, 529
3464, 842, 805, 816, 1211
3465, 191, 621, 20, 672
3466, 678, 7, 81, 674
3467, 897, 905, 863, 1208
3468, 621, 191, 782, 672
3469, 674, 81, 678, 425
3470, 674, 7, 81, 425
3471, 782, 191, 20, 672
3472, 902, 941, 936, 1175
3473, 418, 98, 424, 624
3474, 776, 208, 783, 625
3475, 902, 936, 1141, 1175
3476, 778, 781, 756, 1249
3477, 419, 82, 639, 425
3478, 192, 637, 775, 782
3479, 671, 656, 631, 1181
3480, 282, 283, 1032, 863
3481, 142, 141, 448, 699
3482, 136, 688, 135, 480
3483, 328, 39, 40, 540
3484, 301, 302, 955, 1025
3485, 325, 55, 56, 515
3486, 224, 971, 225, 797
3487, 241, 240, 981, 794
3488, 922, 906, 888, 1199
3489, 986, 987, 967, 1236
3490, 140, 139, 457, 690
3491, 281, 874, 1033, 280
3492, 137, 138, 689, 462
3493, 1048, 1029, 1070, 1229
3494, 878, 899, 919, 1229
3495, 481, 490, 448, 1205
3496, 741, 683, 718, 1232
3497, 464, 483, 504, 1232
3498, 637, 782, 672, 1213
3499, 308, 958, 1031, 309
3500, 339, 382, 368, 1179
3501, 93, 92, 627, 396
3502, 204, 756, 203, 629
3503, 330, 46, 47, 548
3504, 231, 232, 819, 975
3505, 818, 233, 234, 972
3506, 1042, 882, 284, 285
3507, 144, 468, 682, 143
3508, 709, 726, 688, 1210
3509, 355, 66, 65, 449
3510, 251, 250, 826, 864
3511, 43, 44, 327, 547
3512, 796, 974, 228, 229
3513, 582, 108, 109, 394
3514, 104, 397, 599, 1257
3515, 408, 106, 105, 587
3516, 201, 202, 758, 626
3517, 151, 694, 546, 150
3518, 53, 54, 324, 532
3519, 943, 315, 316, 1011
3520, 165, 166, 514, 703
3521, 773, 218, 775, 1146
3522, 1073, 1054, 1016, 1221
3523, 808, 256, 255, 868
3524, 988, 945, 979, 1228
3525, 329, 371, 354, 1234
3526, 948, 226, 225, 821
3527, 349, 40, 41, 519
3528, 433, 400, 411, 1202
3529, 770, 590, 178, 177
3530, 381, 325, 360, 1244
3531, 961, 981, 1000, 1243
3532, 769, 200, 201, 643
3533, 754, 181, 180, 598
3534, 206, 772, 205, 628
3535, 1004, 975, 949, 1222
3536, 675, 424, 98, 624
3537, 418, 424, 101, 1247
3538, 404, 392, 420, 1240
3539, 673, 783, 208, 625
3540, 674, 639, 82, 425
3541, 468, 491, 456, 1230
3542, 882, 907, 870, 1233
3543, 612, 604, 593, 1259
3544, 123, 555, 438, 443
3545, 555, 444, 124, 438
3546, 782, 192, 637, 672
3547, 357, 45, 46, 520
3548, 799, 231, 949, 230
3549, 713, 466, 142, 143
3550, 240, 239, 953, 811
3551, 880, 283, 1023, 284
3552, 134, 135, 705, 458
3553, 978, 302, 303, 1036
3554, 54, 55, 342, 533
3555, 772, 790, 764, 1214
3556, 569, 522, 538, 1242
3557, 85, 84, 649, 405
3558, 993, 974, 957, 1239
3559, 1046, 1017, 1063, 1223
3560, 883, 896, 909, 1223
3561, 714, 729, 715, 1224
3562, 527, 549, 562, 1224
3563, 895, 914, 884, 1225
3564, 701, 727, 682, 1230
3565, 460, 492, 472, 1226
3566, 687, 731, 710, 1226
3567, 828, 804, 846, 1225
3568, 1020, 1068, 1042, 1233
3569, 351, 338, 376, 1227
3570, 1061, 1045, 1014, 1231
3571, 415, 396, 427, 1251
3572, 965, 239, 238, 816
3573, 305, 946, 1044, 306
3574, 44, 45, 348, 535
3575, 966, 229, 817, 230
3576, 453, 498, 475, 1227
3577, 298, 984, 942, 935
3578, 984, 297, 940, 935
3579, 799, 819, 845, 1222
3580, 894, 876, 913, 1231
3581, 902, 936, 941, 267
3582, 529, 566, 541, 1241
3583, 451, 478, 493, 1234
3584, 356, 42, 43, 526
3585, 228, 957, 827, 227
3586, 345, 76, 75, 446
3587, 785, 762, 761, 1248
3588, 902, 939, 936, 266
3589, 261, 793, 861, 260
3590, 8, 99, 424, 622
3591, 211, 783, 21, 677
3592, 104, 599, 584, 1257
3593, 1065, 1047, 1022, 1236
3594, 641, 92, 91, 415
3595, 811, 852, 816, 1238
3596, 989, 953, 965, 1238
3597, 796, 841, 827, 1239
3598, 237, 963, 238, 805
3599, 111, 112, 589, 398
3600, 632, 637, 666, 1146
3601, 734, 697, 711, 1241
3602, 801, 235, 951, 234
3603, 533, 532, 575, 1237
3604, 711, 160, 159, 541
3605, 65, 64, 354, 478
3606, 49, 50, 347, 522
3607, 892, 250, 825, 249
3608, 969, 312, 1021, 311
3609, 440, 438, 444, 1250
3610, 324, 342, 370, 1237
3611, 242, 961, 829, 241
3612, 38, 39, 353, 518
3613, 223, 947, 224, 824
3614, 552, 57, 56, 360
3615, 104, 584, 411, 1257
3616, 379, 331, 347, 1242
3617, 367, 349, 341, 1235
3618, 752, 176, 596, 177
3619, 171, 615, 601, 1145
3620, 928, 1077, 941, 1175
3621, 776, 783, 216, 1255
3622, 893, 866, 910, 1221
3623, 973, 227, 226, 810
3624, 41, 42, 341, 543
3625, 664, 636, 649, 1203
3626, 156, 155, 685, 517
3627, 519, 563, 543, 1235
3628, 586, 600, 606, 1180
3629, 762, 752, 761, 1248
3630, 1028, 897, 281, 282
3631, 481, 141, 140, 717
3632, 136, 137, 709, 469
3633, 641, 662, 627, 1251
3634, 364, 390, 332, 1144
3635, 335, 72, 71, 470
3636, 753, 179, 178, 592
3637, 751, 586, 173, 615
3638, 420, 410, 398, 1206
3639, 403, 86, 87, 642
3640, 389, 444, 580, 1250
3641, 723, 748, 692, 1143
3642, 614, 16, 126, 1154
3643, 183, 750, 614, 591
3644, 272, 273, 1016, 893
3645, 95, 96, 406, 650
3646, 397, 104, 411, 1257
3647, 859, 802, 832, 1141
3648, 411, 103, 616, 584
3649, 237, 236, 945, 813
3650, 113, 594, 410, 613
3651, 771, 180, 179, 583
3652, 408, 426, 402, 1259
3653, 782, 621, 672, 1213
3654, 203, 763, 202, 645
3655, 415, 428, 401, 1252
3656, 650, 630, 651, 1256
3657, 590, 605, 596, 1253
3658, 954, 984, 1010, 1137
3659, 393, 85, 86, 636
3660, 764, 204, 205, 646
3661, 329, 64, 63, 451
3662, 960, 312, 313, 1049
3663, 339, 50, 51, 551
3664, 640, 200, 199, 757
3665, 970, 1009, 984, 1188
3666, 175, 176, 585, 761
3667, 307, 1047, 308, 987
3668, 397, 105, 104, 599
3669, 236, 235, 979, 814
3670, 443, 438, 441, 1143
3671, 774, 776, 215, 1148
3672, 300, 301, 977, 1043
3673, 94, 93, 638, 404
3674, 1024, 1078, 1053, 1137
3675, 214, 766, 22, 1154
3676, 626, 657, 645, 1258
3677, 307, 306, 1022, 986
3678, 604, 612, 587, 1259
3679, 616, 584, 602, 1202
3680, 416, 418, 100, 1147
3681, 937, 939, 936, 1141
3682, 417, 33, 419, 1149
3683, 630, 95, 94, 392
3684, 938, 940, 935, 1137
3685, 927, 886, 902, 1141
3686, 409, 87, 88, 635
3687, 91, 90, 623, 401
3688, 879, 261, 262, 834
3689, 366, 52, 53, 550
3690, 314, 315, 985, 1040
3691, 167, 693, 556, 166
3692, 249, 798, 871, 248
3693, 752, 788, 770, 1253
3694, 181, 760, 182, 588
3695, 810, 836, 821, 1246
3696, 120, 119, 454, 439
3697, 159, 158, 696, 528
3698, 382, 51, 52, 516
3699, 313, 314, 1002, 1013
3700, 853, 262, 862, 263
3701, 576, 719, 167, 168
3702, 555, 581, 524, 1143
3703, 784, 758, 763, 1258
3704, 61, 60, 337, 477
3705, 169, 168, 698, 531
3706, 264, 263, 809, 898
3707, 938, 936, 941, 1175
3708, 609, 588, 608, 1142
3709, 445, 390, 6, 511
3710, 512, 747, 14, 442
3711, 623, 659, 641, 1252
3712, 122, 121, 692, 441
3713, 992, 973, 948, 1246
3714, 332, 36, 35, 440
3715, 594, 606, 589, 1206
3716, 220, 937, 802, 221
3717, 620, 187, 622, 1247
3718, 326, 74, 73, 506
3719, 424, 675, 622, 1247
3720, 5, 389, 444, 580
3721, 15, 748, 581, 443
3722, 858, 942, 24, 1009
3723, 939, 859, 25, 927
3724, 628, 646, 664, 1214
3725, 940, 1078, 28, 1010
3726, 209, 676, 654, 210
3727, 189, 620, 653, 190
3728, 26, 1077, 941, 928
3729, 389, 362, 332, 1250
3730, 673, 677, 783, 1255
3731, 117, 677, 676, 1255
3732, 487, 512, 454, 1166
3733, 747, 721, 692, 1166
3734, 901, 289, 288, 1052
3735, 148, 722, 147, 488
3736, 320, 319, 1051, 982
3737, 79, 80, 486, 365
3738, 487, 128, 127, 721
3739, 730, 690, 717, 1254
3740, 489, 74, 75, 343
3741, 246, 245, 806, 865
3742, 195, 768, 194, 658
3743, 724, 170, 169, 554
3744, 60, 59, 364, 485
3745, 265, 900, 264, 833
3746, 1077, 1038, 1053, 1175
3747, 708, 690, 736, 1245
3748, 385, 62, 61, 450
3749, 755, 197, 631, 196
3750, 759, 174, 600, 175
3751, 830, 802, 858, 1188
3752, 150, 723, 524, 149
3753, 384, 63, 62, 473
3754, 89, 90, 414, 670
3755, 359, 73, 72, 463
3756, 885, 257, 835, 256
3757, 652, 666, 624, 1147
3758, 388, 333, 363, 1167
3759, 634, 84, 83, 417
3760, 457, 500, 481, 1254
3761, 983, 242, 831, 243
3762, 58, 57, 553, 363
3763, 1008, 983, 952, 1176
3764, 925, 869, 900, 1171
3765, 691, 749, 724, 1172
3766, 486, 510, 455, 1157
3767, 333, 391, 365, 1157
3768, 722, 746, 691, 1158
3769, 488, 455, 513, 1158
3770, 1007, 952, 982, 1159
3771, 1075, 1051, 1019, 1159
3772, 869, 926, 901, 1160
3773, 1052, 1076, 1019, 1160
3774, 647, 667, 625, 1148
3775, 474, 501, 457, 1245
3776, 886, 245, 832, 244
3777, 887, 247, 854, 246
3778, 902, 872, 928, 1175
3779, 667, 634, 639, 1149
3780, 675, 8, 424, 622
3781, 783, 673, 21, 677
3782, 1053, 938, 296, 295
3783, 773, 194, 632, 193
3784, 774, 206, 207, 647
3785, 88, 89, 395, 669
3786, 421, 397, 411, 1257
3787, 555, 124, 123, 438
3788, 903, 820, 259, 260
3789, 833, 803, 860, 1171
3790, 579, 523, 554, 1172
3791, 362, 37, 38, 542
3792, 223, 222, 970, 830
3793, 553, 523, 578, 1167
3794, 803, 831, 857, 1176
3795, 872, 1038, 269, 268
3796, 791, 766, 214, 1154
3797, 954, 299, 300, 1024
3798, 297, 984, 298, 935
3799, 673, 625, 654, 1255
3800, 440, 445, 439, 1144
3801, 936, 902, 266, 267
3802, 212, 681, 679, 1163
3803, 618, 617, 184, 1164
3804, 933, 932, 293, 1169
3805, 323, 321, 29, 1170
3806, 866, 272, 271, 1054
3807, 126, 602, 614, 1154
3808, 259, 258, 795, 920
3809, 875, 258, 849, 257
3810, 675, 624, 653, 1247
3811, 418, 97, 98, 624
3812, 776, 207, 208, 625
3813, 2, 80, 391, 510
3814, 1008, 857, 17, 243
3815, 14, 127, 747, 512
3816, 390, 59, 6, 511
3817, 775, 193, 637, 192
3818, 637, 672, 653, 1213
3819, 1015, 906, 269, 270
3820, 639, 83, 82, 419
3821, 158, 157, 742, 558
3822, 96, 97, 416, 652
3823, 190, 20, 621, 672
3824, 678, 210, 7, 674
3825, 725, 157, 156, 557
3826, 217, 782, 775, 1213
3827, 174, 586, 173, 751
3828, 889, 247, 248, 850
3829, 542, 580, 555, 1250
3830, 271, 922, 1072, 270
3831, 289, 18, 1076, 926
3832, 320, 1075, 27, 1007
3833, 170, 749, 12, 579
3834, 746, 148, 16, 513
3835, 265, 860, 11, 925
3836, 388, 58, 1, 578
3837, 196, 671, 765, 195
3838, 750, 183, 182, 591
3839, 748, 149, 15, 581
3840, 1009, 24, 858, 222
3841, 389, 5, 37, 580
3842, 927, 859, 25, 244
3843, 104, 103, 411, 584
3844, 6, 119, 445, 511
3845, 389, 35, 5, 444
3846, 512, 14, 120, 442
3847, 748, 15, 122, 443
3848, 859, 25, 221, 939
3849, 6, 36, 390, 445
3850, 24, 942, 858, 220
3851, 747, 121, 14, 442
3852, 1077, 295, 26, 941
3853, 28, 1078, 940, 296
3854, 402, 107, 106, 604
3855, 108, 107, 413, 603
3856, 112, 113, 594, 410
3857, 1010, 28, 940, 297
3858, 599, 608, 584, 1257
3859, 1010, 1078, 28, 299
3860, 633, 198, 777, 199
3861, 927, 25, 939, 266
3862, 298, 24, 942, 1009
3863, 444, 124, 5, 580
3864, 123, 15, 581, 443
3865, 267, 26, 941, 928
3866, 677, 673, 21, 209
3867, 622, 675, 8, 189
3868, 424, 98, 8, 675
3869, 783, 21, 673, 208
3870, 26, 1077, 928, 268
3871, 792, 173, 17, 615
3872, 779, 198, 648, 197
3873, 616, 2, 103, 433
3874, 82, 7, 674, 425
3875, 782, 20, 192, 672
3876, 791, 614, 16, 183
3877, 11, 113, 434, 613
3878, 1255, 425, 1080, 1149
3879, 1255, 1080, 425, 678
3880, 1214, 647, 663, 628
3881, 1214, 663, 647, 1109
3882, 1246, 840, 1239, 810
3883, 1246, 1239, 840, 1091
3884, 618, 1147, 10, 100
3885, 10, 1147, 618, 1104
3886, 991, 1246, 1239, 973
3887, 1239, 1246, 991, 1091
3888, 1214, 22, 774, 772
3889, 1214, 774, 22, 1109
3890, 1179, 550, 560, 516
3891, 1179, 560, 550, 1178
3892, 970, 1219, 1001, 947
3893, 1001, 1219, 970, 1188
3894, 1196, 835, 851, 808
3895, 1196, 851, 835, 1185
3896, 562, 1235, 1121, 543
3897, 1121, 1235, 562, 1082
3898, 818, 1220, 951, 801
3899, 951, 1220, 818, 1197
3900, 1044, 986, 1236, 1022
3901, 1236, 986, 1044, 946
3902, 397, 587, 105, 599
3903, 105, 587, 397, 408
3904, 1187, 1018, 874, 1165
3905, 1187, 874, 1018, 1033
3906, 969, 1198, 996, 959
3907, 969, 996, 1198, 1218
3908, 1252, 427, 1251, 415
3909, 1252, 1251, 427, 1100
3910, 607, 1253, 1248, 596
3911, 1248, 1253, 607, 1100
3912, 337, 485, 1183, 477
3913, 1183, 485, 337, 364
3914, 698, 554, 169, 531
3915, 169, 554, 698, 724
3916, 833, 898, 264, 809
3917, 833, 264, 898, 900
3918, 1258, 781, 1249, 763
3919, 1258, 1249, 781, 1103
3920, 1212, 721, 745, 712
3921, 1212, 745, 721, 1166
3922, 487, 1212, 509, 459
3923, 509, 1212, 487, 1166
3924, 1174, 1040, 1069, 1013
3925, 1174, 1069, 1040, 1168
3926, 893, 1045, 1231, 876
3927, 893, 1231, 1045, 1016
3928, 681, 1154, 126, 214
3929, 681, 126, 1154, 1163
3930, 1257, 423, 421, 397
3931, 1257, 421, 423, 1139
3932, 635, 395, 88, 409
3933, 635, 88, 395, 669
3934, 184, 1164, 11, 618
3935, 184, 11, 1164, 172
3936, 102, 11, 1164, 618
3937, 102, 1164, 11, 172
3938, 522, 339, 1242, 551
3939, 522, 1242, 339, 347
3940, 670, 401, 1252, 623
3941, 1252, 401, 670, 414
3942, 676, 674, 1255, 654
3943, 1255, 674, 676, 678
3944, 434, 172, 1191, 102
3945, 1191, 172, 434, 613
3946, 433, 125, 1202, 616
3947, 433, 1202, 125, 34
3948, 871, 825, 249, 892
3949, 871, 249, 825, 798
3950, 1249, 204, 646, 629
3951, 1249, 646, 204, 764
3952, 1257, 602, 1081, 608
3953, 1257, 1081, 602, 1202
3954, 1161, 158, 528, 696
3955, 1161, 528, 158, 558
3956, 1258, 644, 657, 1130
3957, 1258, 657, 644, 626
3958, 106, 1259, 587, 408
3959, 587, 1259, 106, 604

*NSET, NSET=CONSTRAINT_1
5, 6, 14, 15, 35, 36, 119, 120, 121, 122, 123, 124, 438, 439, 440, 441
442, 443, 444, 445

*NSET, NSET=CONSTRAINT_2
24, 25, 26, 28, 220, 221, 266, 267, 295, 296, 297, 298, 935, 936, 937, 938
939, 940, 941, 942

*NSET, NSET=DLOAD_1
1, 3, 5, 12, 13, 15, 31, 37, 38, 39, 40, 41, 42, 43, 44, 45
46, 47, 48, 49, 50, 51, 52, 53, 54, 55, 56, 57, 58, 114, 115, 116
117, 118, 123, 124, 149, 150, 151, 152, 153, 154, 155, 156, 157, 158, 159, 160
161, 162, 163, 164, 165, 166, 167, 168, 169, 170, 435, 436, 437, 514, 515, 516
517, 518, 519, 520, 521, 522, 523, 524, 525, 526, 527, 528, 529, 530, 531, 532
533, 534, 535, 536, 537, 538, 539, 540, 541, 542, 543, 544, 545, 546, 547, 548
549, 550, 551, 552, 553, 554, 555, 556, 557, 558, 559, 560, 561, 562, 563, 564
565, 566, 567, 568, 569, 570, 571, 572, 573, 574, 575, 576, 577, 578, 579, 580
581

*MATERIAL, NAME=STRUCTURAL_STEEL
*ELASTIC
200000.000000, 0.300000

*SOLID SECTION, ELSET=ALL_ELEMENTS, MATERIAL=STRUCTURAL_STEEL

*BOUNDARY
CONSTRAINT_1, 1, 3

*BOUNDARY
CONSTRAINT_2, 1, 3

*STEP, NLGEOM=NO
*STATIC
0.1, 1.0

*CLOAD
DLOAD_1, 1, 8000.000000

*NODE FILE
U, RF
*EL FILE
S, E

*END STEP
