*HEADING
Simply supported beam with left pin (all DOF fixed) and right roller (x free, y+z fixed). Midspan point load. Tests asymmetric end-support topology.

*NODE, NSET=ALL_NODES
1, 0.000000, 0.000000, 0.000000
2, 0.000000, 0.000000, 20.000000
3, 120.000000, 0.000000, 20.000000
4, 120.000000, 0.000000, 0.000000
5, 120.000000, 20.000000, 20.000000
6, 120.000000, 20.000000, 0.000000
7, 0.000000, 20.000000, 20.000000
8, 0.000000, 20.000000, 0.000000
9, 0.000000, 0.000000, 3.333333
10, 0.000000, 0.000000, 6.666667
11, 0.000000, 0.000000, 10.000000
12, 0.000000, 0.000000, 13.333333
13, 0.000000, 0.000000, 16.666666
14, 3.750000, 0.000000, 20.000000
15, 7.500000, 0.000000, 20.000000
16, 11.250000, 0.000000, 20.000000
17, 15.000000, 0.000000, 20.000000
18, 18.750000, 0.000000, 20.000000
19, 22.500000, 0.000000, 20.000000
20, 26.250000, 0.000000, 20.000000
21, 30.000000, 0.000000, 20.000000
22, 33.750000, 0.000000, 20.000000
23, 37.500000, 0.000000, 20.000000
24, 41.250000, 0.000000, 20.000000
25, 45.000000, 0.000000, 20.000000
26, 48.750000, 0.000000, 20.000000
27, 52.500000, 0.000000, 20.000000
28, 56.250000, 0.000000, 20.000000
29, 60.000000, 0.000000, 20.000000
30, 63.750000, 0.000000, 20.000000
31, 67.500000, 0.000000, 20.000000
32, 71.250000, 0.000000, 20.000000
33, 75.000000, 0.000000, 20.000000
34, 78.750000, 0.000000, 20.000000
35, 82.500000, 0.000000, 20.000000
36, 86.250000, 0.000000, 20.000000
37, 90.000000, 0.000000, 20.000000
38, 93.750000, 0.000000, 20.000000
39, 97.500000, 0.000000, 20.000000
40, 101.250000, 0.000000, 20.000000
41, 105.000000, 0.000000, 20.000000
42, 108.750000, 0.000000, 20.000000
43, 112.500000, 0.000000, 20.000000
44, 116.250000, 0.000000, 20.000000
45, 120.000000, 0.000000, 3.333333
46, 120.000000, 0.000000, 6.666667
47, 120.000000, 0.000000, 10.000000
48, 120.000000, 0.000000, 13.333333
49, 120.000000, 0.000000, 16.666666
50, 3.750000, 0.000000, 0.000000
51, 7.500000, 0.000000, 0.000000
52, 11.250000, 0.000000, 0.000000
53, 15.000000, 0.000000, 0.000000
54, 18.750000, 0.000000, 0.000000
55, 22.500000, 0.000000, 0.000000
56, 26.250000, 0.000000, 0.000000
57, 30.000000, 0.000000, 0.000000
58, 33.750000, 0.000000, 0.000000
59, 37.500000, 0.000000, 0.000000
60, 41.250000, 0.000000, 0.000000
61, 45.000000, 0.000000, 0.000000
62, 48.750000, 0.000000, 0.000000
63, 52.500000, 0.000000, 0.000000
64, 56.250000, 0.000000, 0.000000
65, 60.000000, 0.000000, 0.000000
66, 63.750000, 0.000000, 0.000000
67, 67.500000, 0.000000, 0.000000
68, 71.250000, 0.000000, 0.000000
69, 75.000000, 0.000000, 0.000000
70, 78.750000, 0.000000, 0.000000
71, 82.500000, 0.000000, 0.000000
72, 86.250000, 0.000000, 0.000000
73, 90.000000, 0.000000, 0.000000
74, 93.750000, 0.000000, 0.000000
75, 97.500000, 0.000000, 0.000000
76, 101.250000, 0.000000, 0.000000
77, 105.000000, 0.000000, 0.000000
78, 108.750000, 0.000000, 0.000000
79, 112.500000, 0.000000, 0.000000
80, 116.250000, 0.000000, 0.000000
81, 120.000000, 3.333333, 20.000000
82, 120.000000, 6.666667, 20.000000
83, 120.000000, 10.000000, 20.000000
84, 120.000000, 13.333333, 20.000000
85, 120.000000, 16.666666, 20.000000
86, 120.000000, 20.000000, 3.333333
87, 120.000000, 20.000000, 6.666667
88, 120.000000, 20.000000, 10.000000
89, 120.000000, 20.000000, 13.333333
90, 120.000000, 20.000000, 16.666666
91, 120.000000, 3.333333, 0.000000
92, 120.000000, 6.666667, 0.000000
93, 120.000000, 10.000000, 0.000000
94, 120.000000, 13.333333, 0.000000
95, 120.000000, 16.666666, 0.000000
96, 116.250000, 20.000000, 20.000000
97, 112.500000, 20.000000, 20.000000
98, 108.750000, 20.000000, 20.000000
99, 105.000000, 20.000000, 20.000000
100, 101.250000, 20.000000, 20.000000
101, 97.500000, 20.000000, 20.000000
102, 93.750000, 20.000000, 20.000000
103, 90.000000, 20.000000, 20.000000
104, 86.250000, 20.000000, 20.000000
105, 82.500000, 20.000000, 20.000000
106, 78.750000, 20.000000, 20.000000
107, 75.000000, 20.000000, 20.000000
108, 71.250000, 20.000000, 20.000000
109, 67.500000, 20.000000, 20.000000
110, 63.750000, 20.000000, 20.000000
111, 60.000000, 20.000000, 20.000000
112, 56.250000, 20.000000, 20.000000
113, 52.500000, 20.000000, 20.000000
114, 48.750000, 20.000000, 20.000000
115, 45.000000, 20.000000, 20.000000
116, 41.250000, 20.000000, 20.000000
117, 37.500000, 20.000000, 20.000000
118, 33.750000, 20.000000, 20.000000
119, 30.000000, 20.000000, 20.000000
120, 26.250000, 20.000000, 20.000000
121, 22.500000, 20.000000, 20.000000
122, 18.750000, 20.000000, 20.000000
123, 15.000000, 20.000000, 20.000000
124, 11.250000, 20.000000, 20.000000
125, 7.500000, 20.000000, 20.000000
126, 3.750000, 20.000000, 20.000000
127, 0.000000, 20.000000, 3.333333
128, 0.000000, 20.000000, 6.666667
129, 0.000000, 20.000000, 10.000000
130, 0.000000, 20.000000, 13.333333
131, 0.000000, 20.000000, 16.666666
132, 116.250000, 20.000000, 0.000000
133, 112.500000, 20.000000, 0.000000
134, 108.750000, 20.000000, 0.000000
135, 105.000000, 20.000000, 0.000000
136, 101.250000, 20.000000, 0.000000
137, 97.500000, 20.000000, 0.000000
138, 93.750000, 20.000000, 0.000000
139, 90.000000, 20.000000, 0.000000
140, 86.250000, 20.000000, 0.000000
141, 82.500000, 20.000000, 0.000000
142, 78.750000, 20.000000, 0.000000
143, 75.000000, 20.000000, 0.000000
144, 71.250000, 20.000000, 0.000000
145, 67.500000, 20.000000, 0.000000
146, 63.750000, 20.000000, 0.000000
147, 60.000000, 20.000000, 0.000000
148, 56.250000, 20.000000, 0.000000
149, 52.500000, 20.000000, 0.000000
150, 48.750000, 20.000000, 0.000000
151, 45.000000, 20.000000, 0.000000
152, 41.250000, 20.000000, 0.000000
153, 37.500000, 20.000000, 0.000000
154, 33.750000, 20.000000, 0.000000
155, 30.000000, 20.000000, 0.000000
156, 26.250000, 20.000000, 0.000000
157, 22.500000, 20.000000, 0.000000
158, 18.750000, 20.000000, 0.000000
159, 15.000000, 20.000000, 0.000000
160, 11.250000, 20.000000, 0.000000
161, 7.500000, 20.000000, 0.000000
162, 3.750000, 20.000000, 0.000000
163, 0.000000, 16.666666, 20.000000
164, 0.000000, 13.333333, 20.000000
165, 0.000000, 10.000000, 20.000000
166, 0.000000, 6.666667, 20.000000
167, 0.000000, 3.333333, 20.000000
168, 0.000000, 16.666666, 0.000000
169, 0.000000, 13.333333, 0.000000
170, 0.000000, 10.000000, 0.000000
171, 0.000000, 6.666667, 0.000000
172, 0.000000, 3.333333, 0.000000
173, 39.395653, 0.000000, 3.561143
174, 50.676678, 0.000000, 16.787573
175, 28.149014, 0.000000, 3.748018
176, 16.893183, 0.000000, 16.890947
177, 61.933468, 0.000000, 16.813885
178, 73.138481, 0.000000, 3.400212
179, 99.391724, 0.000000, 3.284061
180, 84.469971, 0.000000, 16.652330
181, 106.875000, 0.000000, 16.752405
182, 91.902168, 0.000000, 3.332199
183, 10.073789, 0.000000, 2.614718
184, 117.113251, 0.000000, 8.333333
185, 2.876705, 0.000000, 11.714955
186, 54.398121, 0.000000, 3.581693
187, 35.674644, 0.000000, 16.883747
188, 43.183220, 0.000000, 16.801771
189, 46.894550, 0.000000, 3.631586
190, 20.649754, 0.000000, 3.646133
191, 24.401541, 0.000000, 16.866137
192, 76.875000, 0.000000, 16.752405
193, 69.433334, 0.000000, 16.767557
194, 80.640831, 0.000000, 3.363207
195, 65.642151, 0.000000, 3.439694
196, 95.682510, 0.000000, 16.618744
197, 106.897896, 0.000000, 3.240247
198, 9.541156, 0.000000, 16.949678
199, 114.232239, 0.000000, 16.551811
200, 2.886751, 0.000000, 5.000000
201, 114.529518, 0.000000, 3.374932
202, 110.661469, 0.000000, 3.247574
203, 108.796471, 0.000000, 6.464834
204, 105.056564, 0.000000, 6.500302
205, 106.968636, 0.000000, 9.782761
206, 103.234009, 0.000000, 9.854610
207, 110.627525, 0.000000, 9.700236
208, 108.806778, 0.000000, 13.210317
209, 112.473251, 0.000000, 13.139127
210, 101.312218, 0.000000, 6.554287
211, 99.491409, 0.000000, 9.840277
212, 101.402771, 0.000000, 13.132757
213, 97.669060, 0.000000, 13.098791
214, 95.747643, 0.000000, 9.882470
215, 93.877632, 0.000000, 13.187116
216, 91.991875, 0.000000, 9.942308
217, 90.159744, 0.000000, 13.209689
218, 88.246735, 0.000000, 9.992743
219, 86.399773, 0.000000, 13.299501
220, 84.496475, 0.000000, 10.067413
221, 86.322922, 0.000000, 6.726061
222, 82.574089, 0.000000, 6.775267
223, 80.750107, 0.000000, 10.111760
224, 78.820137, 0.000000, 6.828678
225, 77.000107, 0.000000, 10.148605
226, 75.069221, 0.000000, 6.868333
227, 73.250229, 0.000000, 10.198250
228, 71.319229, 0.000000, 6.917939
229, 69.500389, 0.000000, 10.242323
230, 67.570007, 0.000000, 6.958578
231, 65.750816, 0.000000, 10.293331
232, 63.827271, 0.000000, 7.016516
233, 62.002232, 0.000000, 10.339016
234, 60.081264, 0.000000, 7.120489
235, 58.253403, 0.000000, 10.400848
236, 56.329189, 0.000000, 7.118840
237, 54.503391, 0.000000, 10.438562
238, 56.344479, 0.000000, 13.605980
239, 52.573704, 0.000000, 7.161237
240, 50.754002, 0.000000, 10.521707
241, 48.822433, 0.000000, 7.208920
242, 47.004311, 0.000000, 10.575433
243, 45.072411, 0.000000, 7.259285
244, 43.254658, 0.000000, 10.628040
245, 41.322784, 0.000000, 7.283152
246, 39.505848, 0.000000, 10.711504
247, 37.586021, 0.000000, 7.344543
248, 35.709824, 0.000000, 10.667719
249, 33.832817, 0.000000, 7.466372
250, 31.952610, 0.000000, 10.766399
251, 30.072380, 0.000000, 7.446677
252, 28.245220, 0.000000, 10.780130
253, 30.050943, 0.000000, 13.840817
254, 26.322309, 0.000000, 7.480947
255, 24.507483, 0.000000, 10.932837
256, 22.574602, 0.000000, 7.513574
257, 20.757891, 0.000000, 10.988171
258, 18.848772, 0.000000, 7.574396
259, 16.990946, 0.000000, 10.928424
260, 15.105256, 0.000000, 7.814529
261, 13.217724, 0.000000, 10.961745
262, 11.393435, 0.000000, 8.082061
263, 9.085334, 0.000000, 11.256242
264, 7.863725, 0.000000, 8.061005
265, 12.702479, 0.000000, 5.140627
266, 99.520943, 0.000000, 16.464685
267, 31.917707, 0.000000, 3.809738
268, 24.407614, 0.000000, 3.731445
269, 78.905090, 0.000000, 13.391983
270, 93.819298, 0.000000, 6.642578
271, 16.311609, 0.000000, 3.733405
272, 43.155899, 0.000000, 3.622528
273, 58.162521, 0.000000, 3.614846
274, 50.656467, 0.000000, 3.597239
275, 88.212334, 0.000000, 16.589302
276, 71.359726, 0.000000, 13.482957
277, 35.663700, 0.000000, 3.696966
278, 112.300552, 0.000000, 6.540868
279, 84.403954, 0.000000, 3.396141
280, 110.606209, 0.000000, 16.608944
281, 115.905228, 0.000000, 13.348527
282, 13.150042, 0.000000, 16.973637
283, 5.659259, 0.000000, 16.772184
284, 69.403313, 0.000000, 3.452737
285, 105.128143, 0.000000, 13.354923
286, 76.903107, 0.000000, 3.410072
287, 61.910534, 0.000000, 3.531924
288, 63.860153, 0.000000, 13.550208
289, 82.627022, 0.000000, 13.387660
290, 90.069649, 0.000000, 6.646293
291, 95.655899, 0.000000, 3.311541
292, 103.151398, 0.000000, 3.263149
293, 80.657066, 0.000000, 16.724339
294, 20.690718, 0.000000, 16.898174
295, 46.951538, 0.000000, 16.806789
296, 39.451195, 0.000000, 16.840956
297, 97.569695, 0.000000, 6.585869
298, 88.158119, 0.000000, 3.350116
299, 75.142334, 0.000000, 13.435853
300, 73.151390, 0.000000, 16.765522
301, 54.428474, 0.000000, 16.814085
302, 2.836357, 0.000000, 8.274734
303, 67.588234, 0.000000, 13.530847
304, 65.662521, 0.000000, 16.797546
305, 103.202019, 0.000000, 16.671146
306, 91.947037, 0.000000, 16.600809
307, 5.975195, 0.000000, 3.131356
308, 60.086456, 0.000000, 13.602510
309, 58.173813, 0.000000, 16.806076
310, 2.814270, 0.000000, 14.914758
311, 5.763905, 0.000000, 13.178241
312, 52.639282, 0.000000, 13.608370
313, 117.378532, 0.000000, 5.116343
314, 48.909595, 0.000000, 13.623659
315, 28.203865, 0.000000, 16.909342
316, 45.147453, 0.000000, 13.661956
317, 114.429070, 0.000000, 9.820994
318, 41.404560, 0.000000, 13.687093
319, 37.566380, 0.000000, 13.779691
320, 33.841732, 0.000000, 13.817936
321, 31.920198, 0.000000, 16.908640
322, 26.424700, 0.000000, 13.779860
323, 22.674625, 0.000000, 13.802404
324, 11.410342, 0.000000, 14.046147
325, 18.856627, 0.000000, 13.891739
326, 15.086477, 0.000000, 13.948773
327, 5.654592, 0.000000, 10.131948
328, 5.699810, 0.000000, 6.386469
329, 117.179718, 0.000000, 16.199177
330, 117.489510, 0.000000, 10.967237
331, 2.488361, 0.000000, 2.356698
332, 117.631607, 0.000000, 2.364922
333, 2.444706, 0.000000, 17.670721
334, 8.499410, 0.000000, 14.144047
335, 9.114212, 0.000000, 5.677708
336, 115.150185, 0.000000, 6.637294
337, 13.083982, 0.000000, 2.200721
338, 118.274849, 0.000000, 18.333334
339, 120.000000, 3.365274, 8.383682
340, 120.000000, 16.825987, 8.451363
341, 120.000000, 8.360577, 17.128977
342, 120.000000, 8.369781, 3.016853
343, 120.000000, 16.981009, 14.693914
344, 120.000000, 14.752516, 3.026162
345, 120.000000, 2.859508, 15.110103
346, 120.000000, 11.643964, 17.131599
347, 120.000000, 10.000757, 14.232177
348, 120.000000, 6.169216, 13.955729
349, 120.000000, 8.333333, 11.339746
350, 120.000000, 11.666793, 11.340693
351, 120.000000, 10.000021, 8.512011
352, 120.000000, 6.666667, 8.452994
353, 120.000000, 13.272223, 8.513344
354, 120.000000, 11.608484, 5.451642
355, 120.000000, 14.974406, 11.482080
356, 120.000000, 2.995687, 11.964609
357, 120.000000, 2.817450, 4.958407
358, 120.000000, 13.350578, 14.348014
359, 120.000000, 4.947182, 2.739496
360, 120.000000, 5.026402, 17.268206
361, 120.000000, 17.251249, 5.021430
362, 120.000000, 14.897985, 17.265673
363, 120.000000, 11.612823, 2.298931
364, 120.000000, 8.436316, 6.265627
365, 120.000000, 14.742092, 6.092788
366, 120.000000, 5.767112, 5.636177
367, 120.000000, 17.767090, 11.666667
368, 120.000000, 5.560841, 10.956533
369, 120.000000, 2.440169, 2.440169
370, 120.000000, 17.559830, 17.559830
371, 120.000000, 17.559830, 2.440169
372, 120.000000, 2.440169, 17.559830
373, 80.604813, 20.000000, 16.311251
374, 69.315445, 20.000000, 3.213745
375, 103.723717, 20.000000, 17.147308
376, 91.815460, 20.000000, 3.158007
377, 58.105427, 20.000000, 16.458805
378, 46.875000, 20.000000, 3.247595
379, 20.607891, 20.000000, 16.715549
380, 35.611481, 20.000000, 16.651579
381, 13.069578, 20.000000, 3.394009
382, 28.083057, 20.000000, 3.352411
383, 110.591537, 20.000000, 3.041516
384, 116.743584, 20.000000, 11.737334
385, 2.886751, 20.000000, 11.666667
386, 76.815453, 20.000000, 3.195153
387, 73.105019, 20.000000, 16.359962
388, 84.315453, 20.000000, 3.176574
389, 65.605225, 20.000000, 16.409134
390, 88.104607, 20.000000, 16.262964
391, 99.343979, 20.000000, 3.044048
392, 61.815441, 20.000000, 3.232347
393, 95.607071, 20.000000, 16.351976
394, 43.111313, 20.000000, 16.614847
395, 50.611164, 20.000000, 16.578558
396, 39.332779, 20.000000, 3.334205
397, 54.315247, 20.000000, 3.225926
398, 20.566273, 20.000000, 3.464398
399, 13.102106, 20.000000, 16.759752
400, 28.111769, 20.000000, 16.692154
401, 110.658798, 20.000000, 17.031708
402, 5.768130, 20.000000, 3.448629
403, 117.256470, 20.000000, 5.029488
404, 5.470479, 20.000000, 16.625069
405, 9.338528, 20.000000, 16.752426
406, 11.203630, 20.000000, 13.535416
407, 14.942912, 20.000000, 13.499938
408, 13.031103, 20.000000, 10.217524
409, 16.764456, 20.000000, 10.145119
410, 9.372919, 20.000000, 10.300149
411, 11.184064, 20.000000, 6.814021
412, 7.526299, 20.000000, 6.864114
413, 18.686716, 20.000000, 13.445418
414, 20.506285, 20.000000, 10.159228
415, 18.645254, 20.000000, 6.781988
416, 22.354733, 20.000000, 6.867289
417, 24.255308, 20.000000, 10.108679
418, 26.074463, 20.000000, 6.842456
419, 27.999065, 20.000000, 10.065886
420, 29.823217, 20.000000, 6.785154
421, 31.747347, 20.000000, 10.011578
422, 33.648464, 20.000000, 6.726598
423, 35.509422, 20.000000, 9.968610
424, 33.680939, 20.000000, 13.273477
425, 37.432076, 20.000000, 13.218518
426, 39.250328, 20.000000, 9.923232
427, 41.180569, 20.000000, 13.176763
428, 42.997948, 20.000000, 9.850184
429, 44.929775, 20.000000, 13.121848
430, 46.747242, 20.000000, 9.798725
431, 48.679356, 20.000000, 13.079162
432, 50.496765, 20.000000, 9.745212
433, 52.429062, 20.000000, 13.027779
434, 54.246498, 20.000000, 9.699509
435, 56.177872, 20.000000, 12.972729
436, 57.994347, 20.000000, 9.622191
437, 59.927170, 20.000000, 12.915715
438, 61.743870, 20.000000, 9.567056
439, 63.676796, 20.000000, 12.869835
440, 65.493477, 20.000000, 9.513367
441, 67.426529, 20.000000, 12.818653
442, 69.243095, 20.000000, 9.459511
443, 71.176239, 20.000000, 12.774041
444, 72.992714, 20.000000, 9.405934
445, 74.925987, 20.000000, 12.723425
446, 76.742332, 20.000000, 9.352109
447, 78.675705, 20.000000, 12.678989
448, 80.491081, 20.000000, 9.266047
449, 82.425308, 20.000000, 12.623296
450, 84.240654, 20.000000, 9.209317
451, 86.174988, 20.000000, 12.577601
452, 87.990227, 20.000000, 9.152587
453, 89.924721, 20.000000, 12.526873
454, 91.739799, 20.000000, 9.095858
455, 93.674873, 20.000000, 12.504889
456, 95.489365, 20.000000, 9.039127
457, 97.418381, 20.000000, 12.425806
458, 99.303284, 20.000000, 9.116556
459, 101.168678, 20.000000, 12.027116
460, 103.056351, 20.000000, 8.962836
461, 104.904816, 20.000000, 11.887721
462, 106.719406, 20.000000, 8.926619
463, 104.968590, 20.000000, 5.987118
464, 108.601791, 20.000000, 11.831996
465, 110.441833, 20.000000, 8.935356
466, 112.535278, 20.000000, 11.706734
467, 114.073059, 20.000000, 8.848670
468, 114.467087, 20.000000, 14.958728
469, 106.877518, 20.000000, 14.988876
470, 99.655830, 20.000000, 15.745298
471, 91.843544, 20.000000, 16.274450
472, 84.343285, 20.000000, 16.295853
473, 26.181585, 20.000000, 13.367418
474, 76.843590, 20.000000, 16.345604
475, 44.821037, 20.000000, 6.557770
476, 69.343834, 20.000000, 16.393631
477, 61.844101, 20.000000, 16.442247
478, 7.699592, 20.000000, 13.459249
479, 54.345589, 20.000000, 16.506311
480, 9.383012, 20.000000, 3.420129
481, 4.094787, 20.000000, 6.652349
482, 14.926076, 20.000000, 6.798009
483, 52.387688, 20.000000, 6.480249
484, 46.846935, 20.000000, 16.565735
485, 39.347572, 20.000000, 16.610285
486, 16.826197, 20.000000, 3.406401
487, 24.324825, 20.000000, 3.441013
488, 31.846056, 20.000000, 16.656384
489, 29.927794, 20.000000, 13.344482
490, 24.354460, 20.000000, 16.675121
491, 41.141823, 20.000000, 6.615171
492, 16.848270, 20.000000, 16.736776
493, 31.836874, 20.000000, 3.360872
494, 35.582378, 20.000000, 3.427643
495, 80.545609, 20.000000, 3.165285
496, 73.045601, 20.000000, 3.190065
497, 65.545593, 20.000000, 3.214862
498, 58.045555, 20.000000, 3.235500
499, 95.550369, 20.000000, 3.099873
500, 88.045609, 20.000000, 3.140521
501, 22.432041, 20.000000, 13.411902
502, 43.096992, 20.000000, 3.261944
503, 48.603188, 20.000000, 6.530107
504, 50.571854, 20.000000, 3.247313
505, 56.103863, 20.000000, 6.472517
506, 114.513863, 20.000000, 3.258138
507, 37.410866, 20.000000, 6.665910
508, 59.862568, 20.000000, 6.437770
509, 63.592850, 20.000000, 6.420917
510, 2.621471, 20.000000, 14.883657
511, 67.349716, 20.000000, 6.386887
512, 71.086090, 20.000000, 6.367968
513, 117.203888, 20.000000, 8.225060
514, 5.570924, 20.000000, 10.179714
515, 74.849022, 20.000000, 6.328362
516, 106.794060, 20.000000, 3.007643
517, 78.591812, 20.000000, 6.303241
518, 82.360390, 20.000000, 6.249904
519, 86.112503, 20.000000, 6.215824
520, 89.879166, 20.000000, 6.162550
521, 93.632591, 20.000000, 6.123349
522, 112.191040, 20.000000, 6.105896
523, 101.153412, 20.000000, 6.034216
524, 97.386230, 20.000000, 6.107190
525, 108.617744, 20.000000, 6.000691
526, 103.085007, 20.000000, 3.012171
527, 117.747208, 20.000000, 14.870965
528, 2.820297, 20.000000, 3.801977
529, 2.510493, 20.000000, 9.033079
530, 114.280251, 20.000000, 17.929840
531, 117.604065, 20.000000, 2.324192
532, 117.420921, 20.000000, 17.592541
533, 2.368390, 20.000000, 17.635078
534, 110.487030, 20.000000, 14.037882
535, 4.849844, 20.000000, 13.362871
536, 106.875000, 20.000000, 18.025469
537, 115.011345, 20.000000, 6.405207
538, 103.137871, 20.000000, 14.181781
539, 0.000000, 11.616318, 3.365274
540, 0.000000, 11.548637, 16.825987
541, 0.000000, 2.871022, 8.360577
542, 0.000000, 16.983147, 8.369781
543, 0.000000, 5.306086, 16.981009
544, 0.000000, 16.973839, 14.752516
545, 0.000000, 4.889897, 2.859508
546, 0.000000, 2.868401, 11.643964
547, 0.000000, 5.767823, 10.000757
548, 0.000000, 6.044271, 6.169216
549, 0.000000, 8.660254, 8.333333
550, 0.000000, 8.659307, 11.666793
551, 0.000000, 11.487989, 10.000021
552, 0.000000, 11.547006, 6.666667
553, 0.000000, 11.486656, 13.272223
554, 0.000000, 14.548358, 11.608484
555, 0.000000, 8.517920, 14.974406
556, 0.000000, 5.651986, 13.350578
557, 0.000000, 8.035391, 2.995687
558, 0.000000, 15.041594, 2.817450
559, 0.000000, 14.978571, 17.251249
560, 0.000000, 17.260504, 4.947182
561, 0.000000, 2.731794, 5.026402
562, 0.000000, 2.734327, 14.897985
563, 0.000000, 17.701069, 11.612823
564, 0.000000, 13.734373, 8.436316
565, 0.000000, 13.907212, 14.742092
566, 0.000000, 14.363823, 5.767112
567, 0.000000, 8.333333, 17.767090
568, 0.000000, 9.043467, 5.560841
569, 0.000000, 17.559830, 2.440169
570, 0.000000, 2.440169, 17.559830
571, 0.000000, 2.440169, 2.440169
572, 0.000000, 17.559830, 17.559830
573, 80.588654, 16.757971, 0.000000
574, 39.375000, 3.247595, 0.000000
575, 69.349243, 16.694117, 0.000000
576, 50.625000, 3.247595, 0.000000
577, 13.121843, 3.240169, 0.000000
578, 103.091957, 16.771706, 0.000000
579, 24.365107, 3.255699, 0.000000
580, 91.849014, 16.724205, 0.000000
581, 61.855194, 3.372013, 0.000000
582, 31.850250, 16.608324, 0.000000
583, 110.518799, 3.523822, 0.000000
584, 2.641420, 11.696941, 0.000000
585, 117.214752, 11.710038, 0.000000
586, 76.861496, 3.376232, 0.000000
587, 54.345596, 16.650736, 0.000000
588, 43.099560, 16.662685, 0.000000
589, 99.357079, 3.427922, 0.000000
590, 88.107597, 3.399984, 0.000000
591, 16.862978, 16.570749, 0.000000
592, 61.856674, 16.669039, 0.000000
593, 69.359940, 3.398368, 0.000000
594, 31.854382, 3.277938, 0.000000
595, 24.350824, 16.539749, 0.000000
596, 9.382832, 16.454596, 0.000000
597, 110.592667, 16.776167, 0.000000
598, 5.799161, 3.313877, 0.000000
599, 117.202354, 5.039951, 0.000000
600, 9.403501, 3.241521, 0.000000
601, 11.250564, 6.462258, 0.000000
602, 14.980256, 6.477940, 0.000000
603, 13.104863, 9.688593, 0.000000
604, 16.825651, 9.717010, 0.000000
605, 9.392624, 9.630333, 0.000000
606, 18.707069, 6.500065, 0.000000
607, 20.554354, 9.744434, 0.000000
608, 11.255203, 12.953730, 0.000000
609, 7.711480, 13.018089, 0.000000
610, 5.489080, 16.514029, 0.000000
611, 18.702892, 13.047029, 0.000000
612, 22.401037, 12.996688, 0.000000
613, 24.296169, 9.769361, 0.000000
614, 26.184832, 13.088510, 0.000000
615, 28.048960, 9.803947, 0.000000
616, 29.893866, 13.052135, 0.000000
617, 31.791298, 9.819299, 0.000000
618, 33.669250, 13.123070, 0.000000
619, 35.544827, 9.851854, 0.000000
620, 37.406483, 13.108408, 0.000000
621, 39.293266, 9.854742, 0.000000
622, 41.162807, 13.173912, 0.000000
623, 43.043976, 9.883399, 0.000000
624, 44.923248, 13.201598, 0.000000
625, 46.795822, 9.901753, 0.000000
626, 48.657810, 13.181288, 0.000000
627, 50.543491, 9.918707, 0.000000
628, 44.948318, 6.587303, 0.000000
629, 52.392235, 13.208383, 0.000000
630, 54.290268, 9.968964, 0.000000
631, 56.180862, 13.242237, 0.000000
632, 58.039551, 9.999755, 0.000000
633, 56.189976, 6.731214, 0.000000
634, 39.327641, 16.542452, 0.000000
635, 59.940979, 6.728642, 0.000000
636, 61.790207, 10.008284, 0.000000
637, 63.697922, 6.749981, 0.000000
638, 65.541336, 10.041848, 0.000000
639, 67.450027, 6.772166, 0.000000
640, 69.291817, 10.068423, 0.000000
641, 71.200432, 6.796843, 0.000000
642, 73.041901, 10.094248, 0.000000
643, 74.950737, 6.810212, 0.000000
644, 76.791710, 10.147379, 0.000000
645, 74.923317, 13.426800, 0.000000
646, 78.695419, 6.845790, 0.000000
647, 80.540726, 10.179447, 0.000000
648, 82.439804, 6.906078, 0.000000
649, 84.288925, 10.181229, 0.000000
650, 86.190948, 6.880918, 0.000000
651, 88.039688, 10.183690, 0.000000
652, 86.185074, 13.425257, 0.000000
653, 89.941933, 6.906021, 0.000000
654, 91.789948, 10.201441, 0.000000
655, 93.688194, 6.969734, 0.000000
656, 95.539062, 10.248861, 0.000000
657, 97.440491, 6.944897, 0.000000
658, 99.288513, 10.267495, 0.000000
659, 97.435020, 13.517746, 0.000000
660, 101.187134, 6.979510, 0.000000
661, 103.033836, 10.282799, 0.000000
662, 104.915825, 7.047857, 0.000000
663, 106.754326, 10.305822, 0.000000
664, 108.621521, 7.019767, 0.000000
665, 110.446167, 10.335269, 0.000000
666, 112.103279, 6.817283, 0.000000
667, 106.814880, 3.572546, 0.000000
668, 67.391876, 13.312085, 0.000000
669, 50.574440, 16.570925, 0.000000
670, 13.116559, 16.484268, 0.000000
671, 108.679749, 13.552437, 0.000000
672, 7.563665, 6.427268, 0.000000
673, 4.071150, 6.427348, 0.000000
674, 95.595711, 3.513747, 0.000000
675, 37.448151, 6.569193, 0.000000
676, 84.346909, 3.475307, 0.000000
677, 58.097878, 3.386636, 0.000000
678, 29.944052, 6.554333, 0.000000
679, 114.514381, 16.624060, 0.000000
680, 112.211655, 13.480248, 0.000000
681, 20.603302, 16.468861, 0.000000
682, 5.552013, 9.938513, 0.000000
683, 28.098782, 16.499992, 0.000000
684, 73.103767, 3.396943, 0.000000
685, 58.098293, 16.570719, 0.000000
686, 65.602180, 3.382088, 0.000000
687, 103.087486, 3.504639, 0.000000
688, 101.189156, 13.524140, 0.000000
689, 14.978024, 13.076897, 0.000000
690, 26.196941, 6.532897, 0.000000
691, 33.701286, 6.553369, 0.000000
692, 28.101748, 3.270144, 0.000000
693, 52.442692, 6.680015, 0.000000
694, 63.682938, 13.307664, 0.000000
695, 71.158333, 13.357448, 0.000000
696, 65.611679, 16.637436, 0.000000
697, 82.436462, 13.477010, 0.000000
698, 84.347275, 16.714344, 0.000000
699, 78.677711, 13.495273, 0.000000
700, 88.097572, 16.685522, 0.000000
701, 73.116577, 16.742765, 0.000000
702, 46.875000, 3.247595, 0.000000
703, 43.106083, 3.269032, 0.000000
704, 48.692661, 6.550169, 0.000000
705, 35.604801, 3.274683, 0.000000
706, 41.198387, 6.558017, 0.000000
707, 20.618385, 3.249345, 0.000000
708, 22.448452, 6.516386, 0.000000
709, 16.870600, 3.240267, 0.000000
710, 91.847237, 3.464914, 0.000000
711, 80.598938, 3.433901, 0.000000
712, 106.837502, 16.767996, 0.000000
713, 104.931091, 13.534150, 0.000000
714, 54.350983, 3.382921, 0.000000
715, 93.658508, 13.472589, 0.000000
716, 95.603279, 16.762945, 0.000000
717, 99.344902, 16.762756, 0.000000
718, 35.583939, 16.563709, 0.000000
719, 117.218033, 8.388062, 0.000000
720, 76.842712, 16.737135, 0.000000
721, 46.834175, 16.602749, 0.000000
722, 59.941422, 13.299616, 0.000000
723, 89.936638, 13.448784, 0.000000
724, 114.180084, 10.106584, 0.000000
725, 114.291641, 3.303545, 0.000000
726, 117.391518, 14.888036, 0.000000
727, 2.588507, 14.889413, 0.000000
728, 2.819886, 3.775041, 0.000000
729, 2.452917, 8.945894, 0.000000
730, 114.999077, 6.731085, 0.000000
731, 4.796500, 13.211397, 0.000000
732, 117.511635, 2.356698, 0.000000
733, 117.631180, 17.635752, 0.000000
734, 2.365517, 17.614021, 0.000000
735, 115.106285, 13.348517, 0.000000
736, 80.588654, 16.757971, 20.000000
737, 39.375000, 3.247595, 20.000000
738, 69.349243, 16.694117, 20.000000
739, 50.625000, 3.247595, 20.000000
740, 13.121843, 3.240169, 20.000000
741, 103.091957, 16.771706, 20.000000
742, 24.365107, 3.255699, 20.000000
743, 91.849014, 16.724205, 20.000000
744, 61.855194, 3.372013, 20.000000
745, 31.850250, 16.608324, 20.000000
746, 110.518799, 3.523822, 20.000000
747, 2.641420, 11.696941, 20.000000
748, 117.214752, 11.710038, 20.000000
749, 76.861496, 3.376232, 20.000000
750, 54.345596, 16.650736, 20.000000
751, 43.099560, 16.662685, 20.000000
752, 99.357079, 3.427922, 20.000000
753, 88.107597, 3.399984, 20.000000
754, 16.862978, 16.570749, 20.000000
755, 61.856674, 16.669039, 20.000000
756, 69.359940, 3.398368, 20.000000
757, 31.854382, 3.277938, 20.000000
758, 24.350824, 16.539749, 20.000000
759, 9.382832, 16.454596, 20.000000
760, 110.592667, 16.776167, 20.000000
761, 5.799161, 3.313877, 20.000000
762, 117.202354, 5.039951, 20.000000
763, 9.403501, 3.241521, 20.000000
764, 11.250564, 6.462258, 20.000000
765, 14.980256, 6.477940, 20.000000
766, 13.104863, 9.688593, 20.000000
767, 16.825651, 9.717010, 20.000000
768, 9.392624, 9.630333, 20.000000
769, 18.707069, 6.500065, 20.000000
770, 20.554354, 9.744434, 20.000000
771, 11.255203, 12.953730, 20.000000
772, 7.711480, 13.018089, 20.000000
773, 5.489080, 16.514029, 20.000000
774, 18.702892, 13.047029, 20.000000
775, 22.401037, 12.996688, 20.000000
776, 24.296169, 9.769361, 20.000000
777, 26.184832, 13.088510, 20.000000
778, 28.048960, 9.803947, 20.000000
779, 29.893866, 13.052135, 20.000000
780, 31.791298, 9.819299, 20.000000
781, 33.669250, 13.123070, 20.000000
782, 35.544827, 9.851854, 20.000000
783, 37.406483, 13.108408, 20.000000
784, 39.293266, 9.854742, 20.000000
785, 41.162807, 13.173912, 20.000000
786, 43.043976, 9.883399, 20.000000
787, 44.923248, 13.201598, 20.000000
788, 46.795822, 9.901753, 20.000000
789, 48.657810, 13.181288, 20.000000
790, 50.543491, 9.918707, 20.000000
791, 44.948318, 6.587303, 20.000000
792, 52.392235, 13.208383, 20.000000
793, 54.290268, 9.968964, 20.000000
794, 56.180862, 13.242237, 20.000000
795, 58.039551, 9.999755, 20.000000
796, 56.189976, 6.731214, 20.000000
797, 39.327641, 16.542452, 20.000000
798, 59.940979, 6.728642, 20.000000
799, 61.790207, 10.008284, 20.000000
800, 63.697922, 6.749981, 20.000000
801, 65.541336, 10.041848, 20.000000
802, 67.450027, 6.772166, 20.000000
803, 69.291817, 10.068423, 20.000000
804, 71.200432, 6.796843, 20.000000
805, 73.041901, 10.094248, 20.000000
806, 74.950737, 6.810212, 20.000000
807, 76.791710, 10.147379, 20.000000
808, 74.923317, 13.426800, 20.000000
809, 78.695419, 6.845790, 20.000000
810, 80.540726, 10.179447, 20.000000
811, 82.439804, 6.906078, 20.000000
812, 84.288925, 10.181229, 20.000000
813, 86.190948, 6.880918, 20.000000
814, 88.039688, 10.183690, 20.000000
815, 86.185074, 13.425257, 20.000000
816, 89.941933, 6.906021, 20.000000
817, 91.789948, 10.201441, 20.000000
818, 93.688194, 6.969734, 20.000000
819, 95.539062, 10.248861, 20.000000
820, 97.440491, 6.944897, 20.000000
821, 99.288513, 10.267495, 20.000000
822, 97.435020, 13.517746, 20.000000
823, 101.187134, 6.979510, 20.000000
824, 103.033836, 10.282799, 20.000000
825, 104.915825, 7.047857, 20.000000
826, 106.754326, 10.305822, 20.000000
827, 108.621521, 7.019767, 20.000000
828, 110.446167, 10.335269, 20.000000
829, 112.103279, 6.817283, 20.000000
830, 106.814880, 3.572546, 20.000000
831, 67.391876, 13.312085, 20.000000
832, 50.574440, 16.570925, 20.000000
833, 13.116559, 16.484268, 20.000000
834, 108.679749, 13.552437, 20.000000
835, 7.563665, 6.427268, 20.000000
836, 4.071150, 6.427348, 20.000000
837, 95.595711, 3.513747, 20.000000
838, 37.448151, 6.569193, 20.000000
839, 84.346909, 3.475307, 20.000000
840, 58.097878, 3.386636, 20.000000
841, 29.944052, 6.554333, 20.000000
842, 114.514381, 16.624060, 20.000000
843, 112.211655, 13.480248, 20.000000
844, 20.603302, 16.468861, 20.000000
845, 5.552013, 9.938513, 20.000000
846, 28.098782, 16.499992, 20.000000
847, 73.103767, 3.396943, 20.000000
848, 58.098293, 16.570719, 20.000000
849, 65.602180, 3.382088, 20.000000
850, 103.087486, 3.504639, 20.000000
851, 101.189156, 13.524140, 20.000000
852, 14.978024, 13.076897, 20.000000
853, 26.196941, 6.532897, 20.000000
854, 33.701286, 6.553369, 20.000000
855, 28.101748, 3.270144, 20.000000
856, 52.442692, 6.680015, 20.000000
857, 63.682938, 13.307664, 20.000000
858, 71.158333, 13.357448, 20.000000
859, 65.611679, 16.637436, 20.000000
860, 82.436462, 13.477010, 20.000000
861, 84.347275, 16.714344, 20.000000
862, 78.677711, 13.495273, 20.000000
863, 88.097572, 16.685522, 20.000000
864, 73.116577, 16.742765, 20.000000
865, 46.875000, 3.247595, 20.000000
866, 43.106083, 3.269032, 20.000000
867, 48.692661, 6.550169, 20.000000
868, 35.604801, 3.274683, 20.000000
869, 41.198387, 6.558017, 20.000000
870, 20.618385, 3.249345, 20.000000
871, 22.448452, 6.516386, 20.000000
872, 16.870600, 3.240267, 20.000000
873, 91.847237, 3.464914, 20.000000
874, 80.598938, 3.433901, 20.000000
875, 106.837502, 16.767996, 20.000000
876, 104.931091, 13.534150, 20.000000
877, 54.350983, 3.382921, 20.000000
878, 93.658508, 13.472589, 20.000000
879, 95.603279, 16.762945, 20.000000
880, 99.344902, 16.762756, 20.000000
881, 35.583939, 16.563709, 20.000000
882, 117.218033, 8.388062, 20.000000
883, 76.842712, 16.737135, 20.000000
884, 46.834175, 16.602749, 20.000000
885, 59.941422, 13.299616, 20.000000
886, 89.936638, 13.448784, 20.000000
887, 114.180084, 10.106584, 20.000000
888, 114.291641, 3.303545, 20.000000
889, 117.391518, 14.888036, 20.000000
890, 2.588507, 14.889413, 20.000000
891, 2.819886, 3.775041, 20.000000
892, 2.452917, 8.945894, 20.000000
893, 114.999077, 6.731085, 20.000000
894, 4.796500, 13.211397, 20.000000
895, 117.511635, 2.356698, 20.000000
896, 117.631180, 17.635752, 20.000000
897, 2.365517, 17.614021, 20.000000
898, 115.106285, 13.348517, 20.000000
899, 110.601288, 10.000325, 10.417236
900, 29.872644, 10.007374, 10.000000
901, 9.483421, 9.582764, 10.000325
902, 97.414879, 10.038402, 10.000000
903, 56.127266, 10.019685, 9.992636
904, 67.416824, 10.019706, 10.013486
905, 86.371002, 9.965623, 10.000000
906, 44.874947, 10.012981, 9.995781
907, 19.530403, 9.993365, 10.000000
908, 76.892082, 9.481381, 9.481541
909, 37.375168, 7.871919, 12.042719
910, 104.101616, 12.609421, 7.488973
911, 103.783661, 7.276968, 12.657371
912, 35.833595, 12.931826, 7.079009
913, 113.677696, 13.740291, 6.228910
914, 61.777771, 13.107857, 6.900523
915, 50.503815, 6.933449, 13.111661
916, 61.766338, 6.924050, 13.097118
917, 91.872093, 13.165364, 6.860734
918, 50.498386, 13.128641, 6.895688
919, 24.705999, 6.695763, 13.229423
920, 91.913620, 6.864617, 13.141170
921, 6.258519, 13.865298, 13.890029
922, 14.633360, 6.696594, 13.265921
923, 24.306286, 13.473557, 13.345279
924, 24.321573, 6.779447, 6.485341
925, 81.615150, 13.337747, 6.664771
926, 81.274323, 12.814497, 13.384861
927, 14.368377, 13.175364, 6.819514
928, 72.551300, 13.268789, 13.255826
929, 91.796951, 13.558372, 13.556427
930, 14.331318, 6.524971, 6.621553
931, 24.167395, 13.515054, 6.608344
932, 72.170784, 6.612405, 13.214138
933, 90.954575, 6.587919, 6.569000
934, 72.356461, 13.440301, 6.576049
935, 61.811535, 13.602336, 13.577874
936, 50.573559, 6.445222, 6.429776
937, 61.821209, 6.429274, 6.419635
938, 106.450706, 6.473649, 6.647792
939, 6.021980, 12.909429, 6.072892
940, 114.003349, 6.053826, 7.096660
941, 13.796736, 13.299023, 13.451589
942, 51.616608, 13.446764, 13.407000
943, 101.747574, 13.405845, 13.510694
944, 34.261387, 13.472907, 13.419077
945, 34.208645, 6.657315, 6.487779
946, 81.644386, 6.374753, 12.633681
947, 71.798943, 6.501084, 6.703409
948, 40.744751, 13.539989, 13.539031
949, 40.715549, 6.433858, 6.491628
950, 81.806244, 7.000616, 6.317140
951, 113.792099, 6.013635, 13.950974
952, 113.841751, 13.916628, 13.960742
953, 31.909157, 5.884804, 14.125787
954, 6.158422, 6.146147, 13.959518
955, 100.261772, 6.117298, 6.094006
956, 42.822872, 5.954176, 14.114198
957, 41.900757, 13.855541, 6.128462
958, 107.770416, 13.991487, 14.012534
959, 6.188187, 6.161270, 6.030253
960, 98.575478, 14.153123, 5.828679
961, 56.135590, 5.812491, 14.223886
962, 56.140488, 14.202413, 5.943168
963, 98.191132, 5.847735, 14.180148
964, 30.187071, 14.173033, 5.805459
965, 56.196575, 6.350214, 5.663040
966, 46.205189, 14.673837, 14.657517
967, 66.988777, 14.504033, 5.444360
968, 66.911781, 5.422678, 14.620459
969, 86.793877, 14.616313, 5.332807
970, 108.908348, 11.186059, 5.216109
971, 67.252754, 14.648784, 14.539232
972, 86.750000, 5.398482, 14.653174
973, 86.407127, 14.754431, 14.553926
974, 19.044300, 14.605497, 14.687251
975, 77.072334, 8.399199, 14.832574
976, 19.675110, 5.308223, 14.777531
977, 77.041878, 14.758959, 10.641474
978, 96.757057, 12.081971, 14.895609
979, 95.664497, 8.687486, 5.121759
980, 56.670586, 14.901924, 14.832894
981, 19.276678, 7.843038, 5.128013
982, 108.417496, 5.245447, 14.802687
983, 76.829292, 5.155028, 5.138191
984, 29.210447, 8.303906, 4.987056
985, 108.621986, 15.016306, 8.876672
986, 45.634277, 7.994032, 5.108103
987, 29.293392, 14.862041, 12.105455
988, 19.178110, 14.904034, 5.055588
989, 66.839203, 7.778918, 5.204882
990, 95.251022, 5.246935, 9.360381
991, 4.550330, 9.582764, 10.000325
992, 9.893825, 14.824237, 9.180333
993, 28.578615, 4.976616, 9.040819
994, 115.493752, 10.000325, 10.417236
995, 85.988419, 4.869543, 8.713078
996, 29.916565, 10.680159, 15.190057
997, 67.670761, 4.830315, 9.440123
998, 46.465588, 5.065156, 9.366885
999, 18.134106, 4.985716, 9.819709
1000, 86.140724, 9.472866, 4.818244
1001, 95.901306, 15.020373, 10.635525
1002, 77.020775, 15.094487, 4.942677
1003, 46.103561, 14.933032, 8.953156
1004, 10.770605, 9.921638, 4.989563
1005, 46.433552, 9.538915, 14.875654
1006, 10.680140, 9.503394, 15.011931
1007, 11.069732, 4.695585, 10.148337
1008, 20.606531, 14.924481, 9.897454
1009, 88.383385, 10.146592, 14.980054
1010, 65.151794, 10.110723, 14.994156
1011, 76.476456, 4.843011, 11.345469
1012, 58.414093, 10.206782, 15.006875
1013, 109.950409, 5.003391, 9.989413
1014, 53.879414, 4.923604, 9.854453
1015, 21.088600, 10.077324, 15.057871
1016, 65.130661, 15.052251, 10.041986
1017, 88.497383, 15.094279, 10.016801
1018, 75.352226, 9.897587, 4.762385
1019, 58.483025, 15.101277, 10.220942
1020, 10.716056, 4.628788, 15.489578
1021, 76.699707, 14.608434, 15.556462
1022, 58.761051, 4.827111, 9.870501
1023, 38.366386, 4.519097, 15.418773
1024, 40.156666, 10.913945, 9.533305
1025, 111.290527, 9.979431, 15.227614
1026, 25.073040, 10.175325, 9.939128
1027, 10.469319, 4.770289, 4.407259
1028, 115.749771, 9.780927, 4.917595
1029, 53.674538, 10.296945, 4.725437
1030, 106.667610, 15.337431, 4.542391
1031, 37.533539, 15.600919, 10.660832
1032, 37.559959, 9.359597, 4.421805
1033, 46.307182, 12.723530, 4.578006
1034, 101.204033, 10.457941, 4.388501
1035, 58.605423, 10.332852, 4.706202
1036, 37.488819, 10.865039, 15.726349
1037, 10.491962, 14.682778, 4.416188
1038, 72.142853, 10.024186, 9.839499
1039, 47.145779, 4.536802, 15.446351
1040, 53.642433, 9.654548, 15.340970
1041, 4.254648, 15.385386, 9.703181
1042, 115.704887, 15.771406, 9.888039
1043, 83.782173, 15.419846, 10.325857
1044, 105.293205, 11.146138, 16.296682
1045, 69.825943, 15.367160, 10.044266
1046, 101.145180, 15.690384, 9.449397
1047, 69.827744, 10.072220, 15.341723
1048, 100.714966, 4.484806, 10.468316
1049, 83.788849, 9.447603, 15.417285
1050, 53.532055, 15.390709, 9.623629
1051, 4.110558, 4.088695, 10.651296
1052, 34.554001, 4.492566, 10.577018
1053, 110.263344, 4.516000, 4.626503
1054, 115.888153, 10.547333, 15.951425
1055, 14.937552, 10.176323, 10.266317
1056, 92.864235, 9.549496, 9.527530
1057, 49.396557, 10.596372, 10.568075
1058, 94.550323, 4.215863, 4.919243
1059, 81.784279, 9.989784, 9.801723
1060, 78.799774, 4.125856, 15.574080
1061, 33.032829, 15.613687, 9.543658
1062, 22.689606, 4.142825, 9.929166
1063, 10.277796, 15.768810, 15.147816
1064, 87.259926, 5.011775, 4.260163
1065, 60.646942, 9.554008, 9.535752
1066, 116.029984, 3.999966, 3.961874
1067, 115.879852, 4.073123, 10.606219
1068, 100.480362, 9.538590, 15.564331
1069, 106.181427, 10.838252, 11.134371
1070, 16.533381, 10.232409, 15.462718
1071, 40.191208, 4.535353, 10.634787
1072, 27.854170, 4.353282, 15.568736
1073, 33.140526, 10.515475, 4.301355
1074, 37.391167, 4.438127, 4.053761
1075, 3.998300, 9.251073, 3.998596
1076, 37.435658, 15.829049, 15.823735
1077, 4.196733, 10.188435, 15.646233
1078, 94.604408, 15.729255, 4.302929
1079, 116.339005, 16.364149, 3.585873
1080, 101.734680, 9.131701, 9.100087
1081, 16.132845, 15.517808, 10.269750
1082, 38.156487, 15.713193, 4.321574
1083, 70.574371, 10.048152, 4.279284
1084, 90.136147, 4.056938, 10.156871
1085, 52.403469, 4.051623, 15.967576
1086, 59.866302, 4.048825, 15.946548
1087, 52.476784, 15.976937, 4.033744
1088, 59.931179, 16.021706, 4.047284
1089, 63.314037, 4.213679, 9.953367
1090, 102.308647, 15.843911, 4.228611
1091, 102.174889, 4.281641, 15.639317
1092, 34.237560, 10.393974, 10.287874
1093, 41.783703, 9.895227, 15.780865
1094, 63.165947, 9.956598, 4.172100
1095, 25.616236, 10.106639, 15.831450
1096, 22.854122, 10.159786, 4.117580
1097, 79.681137, 10.229137, 4.282343
1098, 27.236219, 16.023811, 8.435517
1099, 15.018244, 9.928288, 3.970975
1100, 90.382957, 10.135629, 4.116363
1101, 41.859901, 9.954057, 4.214688
1102, 30.751463, 4.097128, 5.215986
1103, 105.066139, 3.999059, 10.014407
1104, 93.024696, 10.077304, 15.840443
1105, 41.977776, 15.779228, 10.024557
1106, 94.353127, 4.181317, 15.756914
1107, 80.177834, 4.194401, 9.188715
1108, 33.763924, 16.014971, 3.985596
1109, 3.671168, 16.404026, 16.367561
1110, 27.096861, 15.828644, 15.780102
1111, 105.075363, 15.767519, 11.179289
1112, 116.253632, 16.254372, 16.308058
1113, 74.456551, 4.068449, 15.913311
1114, 3.985260, 15.797298, 3.836135
1115, 21.066378, 3.845032, 5.814052
1116, 17.081213, 4.241917, 4.196264
1117, 103.668365, 4.189198, 4.238043
1118, 82.459846, 16.036867, 16.105309
1119, 104.393265, 15.369781, 16.200748
1120, 31.432762, 15.774632, 15.765163
1121, 68.658035, 3.859915, 5.345008
1122, 49.462696, 9.875272, 4.134768
1123, 14.996208, 3.727957, 16.247364
1124, 105.284752, 9.454654, 3.877591
1125, 33.686470, 9.076794, 16.271856
1126, 26.667765, 16.025528, 4.174904
1127, 26.821766, 4.710279, 3.768477
1128, 47.226349, 3.984685, 5.257658
1129, 64.643860, 4.333978, 4.030204
1130, 98.340752, 16.073820, 14.101488
1131, 94.599098, 15.556846, 16.050135
1132, 27.013998, 11.795035, 3.962508
1133, 82.428764, 16.278376, 3.759499
1134, 110.682869, 16.311373, 4.943476
1135, 71.733200, 3.916508, 10.018290
1136, 90.445709, 16.106113, 3.904403
1137, 111.862602, 8.363617, 4.354826
1138, 82.992638, 3.817980, 15.688708
1139, 49.617695, 16.085680, 10.874925
1140, 70.981209, 16.057859, 16.095901
1141, 14.971940, 16.257889, 16.218624
1142, 71.183952, 16.290480, 3.741886
1143, 53.065601, 4.011393, 3.999258
1144, 23.383865, 3.932843, 16.026844
1145, 15.287354, 16.090614, 3.895868
1146, 43.411503, 4.740987, 3.852291
1147, 22.676996, 16.168215, 16.148499
1148, 116.286583, 3.904320, 16.269312
1149, 48.364227, 16.341681, 4.559728
1150, 74.452995, 11.229546, 16.294672
1151, 63.741207, 16.226294, 16.248535
1152, 59.317696, 4.046193, 3.990522
1153, 3.452265, 3.472953, 6.646458
1154, 89.967979, 16.223604, 16.255461
1155, 82.518951, 3.734920, 3.773078
1156, 112.257828, 13.664714, 10.012306
1157, 90.245293, 3.762869, 16.182238
1158, 9.897238, 12.652540, 12.599441
1159, 70.468246, 3.657262, 15.386961
1160, 17.959515, 11.370862, 6.556689
1161, 79.069298, 11.484552, 16.483631
1162, 44.364231, 16.218889, 3.954136
1163, 49.946281, 11.034161, 16.171894
1164, 52.518009, 9.313487, 8.424186
1165, 52.466755, 16.292496, 16.311981
1166, 63.914581, 16.350990, 3.631353
1167, 79.384995, 16.418098, 7.871169
1168, 3.713522, 3.748152, 16.075146
1169, 7.391636, 6.195331, 9.828960
1170, 28.554535, 7.681254, 12.951509
1171, 63.829136, 3.553974, 16.397369
1172, 74.415131, 16.476143, 8.165274
1173, 34.545017, 3.749226, 16.198088
1174, 95.496040, 8.560884, 13.137848
1175, 63.835594, 11.423097, 10.961197
1176, 50.090706, 3.922966, 10.543313
1177, 83.934418, 12.518950, 3.549022
1178, 110.847961, 16.004564, 15.932088
1179, 92.172638, 16.424690, 10.809026
1180, 93.894318, 11.894974, 3.622727
1181, 84.221313, 3.460133, 11.952071
1182, 76.062721, 11.561928, 12.718225
1183, 37.511978, 8.026128, 8.118237
1184, 41.400536, 16.355423, 16.353508
1185, 64.203140, 7.946737, 9.141574
1186, 7.228168, 9.834526, 13.192157
1187, 22.746038, 16.508093, 4.439416
1188, 80.520683, 7.543482, 16.564320
1189, 73.202644, 3.958151, 3.956781
1190, 95.592545, 12.015095, 7.166276
1191, 26.533155, 3.472952, 12.004158
1192, 110.436661, 16.514555, 12.042350
1193, 37.402813, 4.133325, 7.940210
1194, 13.140119, 16.714645, 8.016219
1195, 43.195614, 3.516943, 7.656336
1196, 89.813728, 11.540496, 10.888614
1197, 65.277039, 11.424713, 7.087716
1198, 80.352478, 16.447960, 12.056731
1199, 12.238128, 16.514332, 11.832823
1200, 66.981110, 11.208364, 3.404336
1201, 104.358337, 16.465796, 7.445971
1202, 88.364792, 11.597417, 7.136796
1203, 27.572214, 12.129313, 7.757343
1204, 6.896986, 12.628397, 10.187853
1205, 98.251228, 3.716677, 3.744325
1206, 113.047523, 10.239343, 7.533668
1207, 88.386238, 7.137359, 11.643262
1208, 116.843018, 8.074411, 13.319621
1209, 7.421896, 16.676262, 11.504875
1210, 24.130907, 16.212297, 10.671748
1211, 90.833969, 3.600380, 4.152923
1212, 60.080582, 16.755671, 15.051878
1213, 37.544018, 12.036098, 12.088033
1214, 97.680740, 11.451983, 3.266800
1215, 108.277695, 8.607909, 14.264874
1216, 16.989206, 3.224693, 13.019014
1217, 61.768269, 8.953176, 16.330996
1218, 116.641418, 12.089190, 7.627175
1219, 75.919563, 12.676894, 7.663728
1220, 13.186728, 7.230088, 16.737289
1221, 112.418961, 3.457812, 16.563793
1222, 21.209642, 7.099680, 11.799639
1223, 8.694825, 3.597045, 7.479994
1224, 3.342331, 12.537750, 11.954861
1225, 17.437162, 12.420319, 12.032797
1226, 116.812431, 12.826107, 3.373361
1227, 44.118408, 13.234676, 11.841224
1228, 61.846786, 16.571915, 11.205618
1229, 61.732231, 16.858467, 7.430120
1230, 41.904041, 7.891328, 10.995011
1231, 3.170931, 16.652906, 12.850142
1232, 105.243111, 6.895309, 16.182602
1233, 3.084521, 6.709727, 8.292232
1234, 3.180834, 12.219439, 8.072176
1235, 30.308434, 3.253915, 11.929807
1236, 31.837648, 6.839868, 9.416848
1237, 47.503792, 10.417305, 7.311281
1238, 7.453198, 10.748067, 3.238161
1239, 72.988358, 16.771879, 11.726109
1240, 116.853912, 8.091915, 7.796531
1241, 27.456947, 11.595031, 12.487286
1242, 106.944885, 7.248475, 10.298034

*ELEMENT, TYPE=C3D4, ELSET=ALL_ELEMENTS
1, 412, 1037, 939, 1114
2, 835, 1077, 1006, 1186
3, 804, 806, 932, 1150
4, 955, 990, 297, 1048
5, 835, 954, 1077, 1186
6, 835, 1006, 954, 1186
7, 938, 899, 1013, 1137
8, 226, 1011, 983, 1135
9, 978, 1068, 820, 1174
10, 903, 942, 980, 1050
11, 903, 980, 942, 1040
12, 932, 806, 1113, 1150
13, 901, 959, 939, 1004
14, 932, 1047, 804, 1150
15, 316, 244, 956, 998
16, 412, 992, 939, 1037
17, 912, 1061, 507, 1108
18, 958, 1025, 834, 1044
19, 766, 1006, 941, 1070
20, 819, 978, 820, 1174
21, 260, 999, 930, 1007
22, 768, 1006, 835, 1077
23, 913, 970, 680, 1137
24, 939, 1004, 959, 1238
25, 261, 999, 1007, 1216
26, 913, 1028, 724, 1226
27, 851, 943, 978, 1130
28, 724, 1028, 913, 1137
29, 705, 1074, 691, 1102
30, 316, 998, 956, 1039
31, 926, 905, 973, 1049
32, 1004, 901, 1169, 1223
33, 947, 983, 908, 1011
34, 912, 1031, 507, 1061
35, 969, 1043, 519, 1133
36, 939, 992, 412, 1041
37, 484, 832, 966, 1165
38, 483, 918, 1139, 1149
39, 903, 916, 961, 1022
40, 772, 1006, 921, 1063
41, 518, 519, 1043, 1133
42, 778, 996, 1072, 1095
43, 963, 820, 1068, 1174
44, 804, 932, 806, 1113
45, 771, 941, 766, 1006
46, 507, 1082, 912, 1108
47, 916, 903, 961, 1012
48, 915, 903, 961, 1014
49, 903, 915, 961, 1040
50, 787, 966, 1093, 1184
51, 867, 856, 915, 1163
52, 324, 261, 1020, 1123
53, 851, 880, 1119, 1130
54, 1031, 1082, 491, 1105
55, 778, 996, 841, 1072
56, 184, 1066, 336, 1067
57, 772, 921, 1006, 1186
58, 899, 938, 970, 1137
59, 724, 913, 680, 1137
60, 866, 956, 188, 1023
61, 680, 913, 724, 1226
62, 930, 1007, 1004, 1027
63, 918, 1050, 483, 1139
64, 820, 1106, 1104, 1174
65, 705, 691, 594, 1102
66, 772, 1006, 1077, 1186
67, 939, 959, 901, 991
68, 904, 928, 971, 1047
69, 921, 1063, 1006, 1158
70, 928, 904, 971, 1045
71, 645, 1018, 934, 1083
72, 905, 925, 1043, 1202
73, 852, 766, 941, 1070
74, 521, 1136, 917, 1179
75, 213, 963, 990, 1106
76, 297, 990, 955, 1205
77, 691, 945, 984, 1102
78, 358, 952, 350, 1054
79, 244, 956, 998, 1071
80, 926, 973, 905, 1043
81, 903, 914, 962, 1019
82, 913, 467, 1134, 1156
83, 691, 1074, 945, 1102
84, 203, 938, 1053, 1117
85, 769, 1070, 976, 1123
86, 960, 1001, 524, 1078
87, 914, 903, 962, 1035
88, 860, 973, 1049, 1118
89, 350, 994, 952, 1042
90, 620, 1073, 912, 1108
91, 969, 1043, 925, 1202
92, 691, 984, 945, 1073
93, 761, 1020, 283, 1168
94, 484, 832, 884, 966
95, 860, 973, 815, 1049
96, 203, 1053, 197, 1117
97, 324, 261, 1007, 1020
98, 903, 916, 1022, 1065
99, 1006, 1007, 954, 1169
100, 954, 1007, 1006, 1020
101, 507, 491, 1031, 1082
102, 903, 980, 1019, 1050
103, 851, 1119, 943, 1130
104, 772, 1077, 921, 1186
105, 904, 932, 968, 997
106, 930, 901, 1004, 1007
107, 620, 912, 1082, 1108
108, 765, 1070, 1123, 1220
109, 769, 765, 1070, 1123
110, 867, 915, 856, 1085
111, 915, 906, 998, 1005
112, 355, 350, 358, 952
113, 334, 1020, 954, 1168
114, 901, 1007, 1169, 1223
115, 412, 939, 1041, 1114
116, 587, 498, 397, 962
117, 947, 1011, 908, 1038
118, 550, 954, 556, 1051
119, 914, 903, 1035, 1065
120, 412, 402, 1037, 1114
121, 620, 1082, 1032, 1101
122, 819, 1104, 978, 1174
123, 851, 978, 822, 1130
124, 943, 902, 1001, 1046
125, 819, 820, 1104, 1174
126, 916, 903, 1012, 1065
127, 819, 820, 978, 1068
128, 355, 350, 952, 1042
129, 601, 1027, 602, 1099
130, 952, 994, 350, 1054
131, 772, 1006, 768, 1077
132, 244, 1071, 998, 1195
133, 903, 1012, 980, 1040
134, 903, 914, 1019, 1065
135, 851, 978, 943, 1068
136, 902, 960, 1046, 1080
137, 983, 1011, 947, 1135
138, 856, 1040, 915, 1163
139, 998, 1005, 956, 1039
140, 422, 507, 1061, 1108
141, 337, 577, 1027, 1116
142, 929, 1056, 1001, 1174
143, 204, 938, 203, 1117
144, 301, 840, 309, 961
145, 604, 981, 607, 1160
146, 954, 1007, 263, 1169
147, 1018, 1083, 641, 1189
148, 982, 1013, 951, 1221
149, 852, 766, 771, 941
150, 602, 1027, 930, 1099
151, 507, 1031, 912, 1082
152, 904, 968, 932, 1047
153, 483, 1087, 918, 1149
154, 226, 1135, 983, 1189
155, 954, 991, 550, 1077
156, 983, 1011, 225, 1107
157, 902, 1046, 943, 1080
158, 902, 1068, 963, 1080
159, 620, 1032, 912, 1073
160, 820, 963, 1106, 1174
161, 555, 556, 550, 954
162, 1011, 1038, 947, 1135
163, 520, 1017, 1136, 1179
164, 1005, 1039, 915, 1163
165, 867, 915, 1039, 1163
166, 550, 991, 954, 1051
167, 903, 1019, 1012, 1065
168, 695, 645, 934, 1083
169, 324, 326, 261, 1123
170, 906, 915, 998, 1057
171, 981, 1062, 924, 1222
172, 900, 1073, 964, 1092
173, 932, 1113, 975, 1150
174, 913, 1042, 467, 1156
175, 915, 1005, 998, 1039
176, 213, 990, 215, 1106
177, 611, 607, 1096, 1160
178, 465, 1134, 467, 1156
179, 915, 906, 1005, 1057
180, 260, 261, 999, 1007
181, 1012, 1019, 935, 1065
182, 903, 1040, 942, 1164
183, 204, 203, 197, 1117
184, 524, 960, 458, 1001
185, 334, 283, 1020, 1168
186, 980, 1040, 792, 1165
187, 209, 1013, 982, 1221
188, 484, 395, 832, 1165
189, 918, 483, 1050, 1087
190, 907, 1026, 924, 1096
191, 491, 426, 1031, 1105
192, 680, 970, 913, 1134
193, 705, 277, 1074, 1102
194, 901, 1007, 1006, 1169
195, 956, 998, 906, 1005
196, 456, 1078, 1001, 1179
197, 587, 685, 498, 962
198, 867, 1039, 1005, 1163
199, 555, 954, 550, 1077
200, 761, 954, 1020, 1168
201, 483, 1139, 503, 1149
202, 308, 1022, 1086, 1089
203, 907, 1070, 922, 1222
204, 838, 1023, 1036, 1093
205, 929, 1001, 978, 1174
206, 981, 1096, 607, 1160
207, 209, 951, 1013, 1221
208, 498, 962, 685, 1088
209, 262, 1007, 930, 1027
210, 907, 931, 1026, 1096
211, 285, 1091, 982, 1103
212, 1074, 1146, 949, 1195
213, 524, 1001, 456, 1078
214, 521, 1078, 456, 1179
215, 983, 1135, 947, 1189
216, 871, 1015, 1095, 1144
217, 326, 261, 1123, 1216
218, 763, 198, 283, 1020
219, 917, 1136, 1017, 1179
220, 761, 763, 283, 1020
221, 877, 840, 301, 961
222, 778, 1072, 853, 1095
223, 596, 1037, 402, 1114
224, 1040, 1057, 942, 1164
225, 521, 917, 1078, 1179
226, 924, 1115, 708, 1127
227, 337, 1027, 265, 1116
228, 993, 1102, 1052, 1235
229, 840, 309, 961, 1086
230, 999, 1062, 981, 1222
231, 916, 1086, 1022, 1089
232, 907, 981, 924, 1222
233, 789, 1163, 966, 1165
234, 507, 491, 426, 1031
235, 611, 1096, 988, 1160
236, 982, 1091, 911, 1103
237, 203, 1013, 938, 1103
238, 820, 818, 1104, 1106
239, 587, 962, 397, 1087
240, 951, 1025, 893, 1054
241, 911, 963, 1068, 1080
242, 184, 339, 1066, 1067
243, 431, 966, 1139, 1165
244, 912, 964, 1073, 1092
245, 954, 263, 1051, 1169
246, 926, 1059, 975, 1182
247, 1006, 1169, 954, 1186
248, 1013, 1137, 899, 1206
249, 1084, 1106, 920, 1157
250, 856, 915, 1040, 1085
251, 265, 262, 930, 1027
252, 946, 975, 926, 1059
253, 579, 708, 1115, 1127
254, 1052, 1102, 993, 1236
255, 433, 1050, 980, 1165
256, 611, 604, 607, 1160
257, 657, 955, 1034, 1214
258, 620, 912, 1032, 1082
259, 902, 978, 943, 1001
260, 657, 979, 955, 1214
261, 845, 768, 835, 1077
262, 210, 1048, 1103, 1117
263, 662, 664, 938, 1117
264, 622, 1082, 620, 1101
265, 641, 643, 1018, 1189
266, 598, 959, 307, 1027
267, 778, 841, 853, 1072
268, 225, 983, 226, 1011
269, 922, 1007, 999, 1216
270, 794, 792, 980, 1040
271, 975, 1113, 806, 1150
272, 238, 1022, 961, 1086
273, 642, 1018, 645, 1083
274, 713, 1030, 1090, 1124
275, 1001, 1056, 902, 1174
276, 511, 967, 512, 1045
277, 512, 1045, 967, 1142
278, 838, 1036, 784, 1093
279, 993, 1235, 1052, 1236
280, 930, 1027, 602, 1116
281, 713, 1090, 1034, 1124
282, 717, 960, 391, 1078
283, 915, 903, 1014, 1164
284, 667, 938, 664, 1117
285, 521, 1078, 917, 1136
286, 832, 789, 966, 1165
287, 905, 1000, 925, 1202
288, 215, 1106, 1084, 1157
289, 508, 505, 962, 1019
290, 238, 308, 1022, 1086
291, 901, 1169, 1006, 1186
292, 458, 1001, 960, 1046
293, 645, 1002, 934, 1018
294, 213, 990, 963, 1048
295, 238, 1014, 961, 1022
296, 312, 961, 238, 1014
297, 601, 1004, 1027, 1099
298, 908, 975, 1059, 1182
299, 254, 1115, 924, 1127
300, 1086, 1089, 916, 1171
301, 885, 980, 935, 1012
302, 815, 973, 860, 1118
303, 947, 1083, 1018, 1189
304, 480, 412, 402, 1037
305, 708, 924, 981, 1115
306, 905, 1009, 973, 1049
307, 903, 980, 1012, 1019
308, 950, 983, 646, 1155
309, 263, 311, 954, 1051
310, 667, 664, 938, 1053
311, 317, 940, 278, 1013
312, 641, 1083, 989, 1121
313, 667, 1053, 938, 1117
314, 926, 977, 925, 1059
315, 480, 402, 596, 1037
316, 655, 933, 979, 1100
317, 841, 996, 953, 1072
318, 577, 602, 1027, 1116
319, 613, 1096, 690, 1132
320, 919, 1095, 1015, 1144
321, 903, 915, 1040, 1164
322, 508, 1019, 962, 1229
323, 968, 1047, 804, 1159
324, 519, 969, 1017, 1043
325, 946, 905, 1049, 1207
326, 932, 1038, 1011, 1135
327, 317, 940, 1013, 1067
328, 1072, 1095, 996, 1170
329, 251, 1052, 1102, 1235
330, 931, 1096, 907, 1160
331, 838, 869, 1023, 1093
332, 648, 1000, 950, 1155
333, 771, 941, 1006, 1063
334, 900, 964, 1061, 1092
335, 650, 1064, 1000, 1155
336, 626, 1087, 918, 1122
337, 922, 1070, 976, 1222
338, 935, 980, 885, 1212
339, 249, 945, 1074, 1102
340, 465, 522, 467, 1134
341, 296, 866, 188, 1023
342, 805, 804, 1047, 1150
343, 943, 1068, 902, 1080
344, 518, 519, 450, 1043
345, 907, 930, 981, 999
346, 804, 805, 806, 1150
347, 699, 1002, 1097, 1133
348, 224, 983, 225, 1107
349, 934, 1038, 904, 1083
350, 691, 984, 678, 1102
351, 787, 966, 1005, 1093
352, 231, 288, 968, 1089
353, 1088, 1094, 694, 1166
354, 961, 1012, 798, 1086
355, 904, 932, 997, 1038
356, 626, 918, 1087, 1149
357, 934, 1002, 645, 1142
358, 925, 977, 926, 1198
359, 925, 1059, 977, 1219
360, 267, 705, 594, 1102
361, 949, 998, 986, 1230
362, 914, 1094, 1088, 1166
363, 944, 1120, 996, 1125
364, 981, 1062, 999, 1115
365, 924, 1062, 981, 1115
366, 924, 993, 984, 1026
367, 415, 988, 1081, 1145
368, 1025, 1044, 958, 1215
369, 984, 993, 900, 1026
370, 890, 747, 559, 1109
371, 188, 956, 866, 1039
372, 907, 981, 930, 1160
373, 655, 979, 933, 1058
374, 923, 1008, 907, 1015
375, 938, 1013, 1053, 1137
376, 951, 899, 1013, 1215
377, 905, 933, 995, 1000
378, 986, 998, 906, 1230
379, 946, 1049, 972, 1207
380, 912, 1061, 964, 1092
381, 910, 1046, 960, 1080
382, 907, 924, 981, 1096
383, 930, 999, 922, 1007
384, 270, 990, 1058, 1084
385, 203, 938, 1013, 1053
386, 901, 927, 992, 1055
387, 611, 1099, 988, 1145
388, 210, 955, 1048, 1117
389, 231, 968, 997, 1089
390, 297, 210, 955, 1048
391, 312, 961, 1014, 1085
392, 708, 981, 924, 1096
393, 604, 1099, 981, 1160
394, 254, 1062, 924, 1115
395, 925, 1097, 1002, 1133
396, 796, 798, 961, 1012
397, 857, 885, 935, 1217
398, 508, 962, 1088, 1229
399, 867, 1039, 915, 1085
400, 513, 1042, 537, 1079
401, 270, 1084, 1058, 1211
402, 771, 1006, 772, 1063
403, 940, 994, 951, 1067
404, 626, 1122, 918, 1149
405, 731, 584, 1075, 1114
406, 209, 1013, 951, 1067
407, 907, 1015, 1008, 1225
408, 646, 983, 950, 1097
409, 930, 999, 907, 1055
410, 973, 1009, 815, 1049
411, 907, 930, 1055, 1160
412, 787, 1093, 785, 1184
413, 802, 804, 968, 1047
414, 467, 913, 537, 1042
415, 936, 1128, 704, 1143
416, 1030, 910, 1090, 1124
417, 537, 1042, 913, 1079
418, 905, 925, 1000, 1059
419, 914, 1035, 1088, 1094
420, 908, 977, 1059, 1219
421, 465, 985, 1134, 1156
422, 951, 1013, 982, 1215
423, 908, 975, 946, 1059
424, 695, 642, 645, 1083
425, 238, 237, 1014, 1022
426, 915, 1057, 1040, 1164
427, 722, 694, 1088, 1094
428, 941, 992, 927, 1055
429, 882, 893, 1054, 1148
430, 942, 1139, 966, 1165
431, 204, 203, 938, 1103
432, 188, 956, 318, 1023
433, 900, 996, 953, 1092
434, 781, 1120, 944, 1125
435, 722, 1088, 1035, 1094
436, 920, 1106, 1104, 1157
437, 781, 996, 1120, 1125
438, 483, 432, 503, 1139
439, 251, 250, 1052, 1235
440, 923, 974, 1008, 1015
441, 959, 1004, 901, 1169
442, 927, 1099, 1037, 1145
443, 1008, 1015, 974, 1225
444, 620, 618, 1073, 1108
445, 1001, 1078, 917, 1179
446, 894, 747, 890, 1109
447, 215, 1084, 217, 1157
448, 877, 961, 301, 1085
449, 336, 1066, 940, 1067
450, 303, 231, 288, 968
451, 648, 650, 1000, 1155
452, 290, 1064, 995, 1084
453, 1001, 1056, 929, 1179
454, 894, 1077, 747, 1109
455, 365, 1042, 340, 1079
456, 904, 968, 1010, 1185
457, 917, 1056, 1001, 1179
458, 851, 822, 880, 1130
459, 435, 980, 433, 1050
460, 955, 1034, 902, 1080
461, 978, 1001, 902, 1174
462, 950, 983, 908, 1097
463, 838, 784, 869, 1093
464, 905, 946, 995, 1207
465, 982, 1091, 181, 1232
466, 911, 1048, 963, 1080
467, 929, 1179, 1056, 1196
468, 942, 1050, 903, 1164
469, 501, 974, 1008, 1147
470, 242, 998, 316, 1039
471, 512, 967, 511, 1142
472, 917, 1056, 1179, 1196
473, 365, 1042, 1079, 1218
474, 582, 964, 493, 1126
475, 290, 1064, 1084, 1211
476, 953, 1092, 996, 1125
477, 254, 993, 924, 1062
478, 940, 1137, 1013, 1206
479, 927, 901, 992, 1004
480, 680, 913, 1079, 1134
481, 930, 1004, 901, 1055
482, 980, 1050, 942, 1165
483, 752, 963, 266, 1106
484, 695, 934, 645, 1142
485, 955, 902, 990, 1048
486, 214, 990, 213, 1048
487, 537, 1079, 913, 1134
488, 919, 993, 924, 1026
489, 954, 1006, 835, 1020
490, 761, 954, 835, 1020
491, 737, 866, 296, 1023
492, 265, 1027, 930, 1116
493, 662, 667, 664, 1117
494, 662, 938, 664, 1124
495, 334, 263, 311, 954
496, 173, 1146, 1074, 1195
497, 957, 1082, 1031, 1105
498, 642, 641, 1018, 1083
499, 907, 999, 981, 1222
500, 869, 956, 866, 1023
501, 501, 1147, 1008, 1210
502, 908, 983, 950, 1107
503, 886, 1009, 929, 1104
504, 902, 963, 1048, 1080
505, 838, 1036, 1023, 1125
506, 953, 1072, 996, 1170
507, 415, 1081, 482, 1145
508, 926, 975, 946, 1188
509, 1034, 1090, 910, 1124
510, 818, 1104, 1106, 1157
511, 906, 957, 1033, 1101
512, 269, 1107, 946, 1181
513, 901, 1007, 930, 1055
514, 834, 1025, 958, 1178
515, 935, 1010, 857, 1217
516, 226, 225, 224, 983
517, 957, 491, 1082, 1105
518, 938, 1013, 899, 1242
519, 611, 1099, 604, 1160
520, 997, 1038, 932, 1135
521, 901, 1055, 992, 1158
522, 887, 893, 1025, 1054
523, 748, 362, 346, 1112
524, 262, 260, 930, 1007
525, 307, 1027, 959, 1223
526, 511, 1016, 967, 1045
527, 231, 968, 303, 997
528, 893, 951, 829, 1025
529, 1000, 1177, 925, 1202
530, 944, 1031, 424, 1076
531, 509, 967, 511, 1016
532, 635, 1035, 937, 1094
533, 519, 1017, 452, 1043
534, 655, 1058, 933, 1211
535, 936, 1057, 998, 1176
536, 802, 968, 804, 1159
537, 412, 1041, 992, 1209
538, 901, 922, 1006, 1007
539, 559, 747, 540, 1109
540, 652, 723, 969, 1100
541, 924, 993, 919, 1062
542, 942, 1040, 980, 1165
543, 303, 997, 968, 1159
544, 960, 1001, 902, 1046
545, 653, 933, 655, 1100
546, 319, 1052, 1023, 1071
547, 906, 1101, 1033, 1237
548, 976, 1070, 922, 1123
549, 1032, 1082, 957, 1101
550, 403, 513, 537, 1079
551, 689, 1099, 611, 1145
552, 403, 361, 513, 1079
553, 992, 1055, 941, 1158
554, 697, 1133, 1097, 1177
555, 691, 1032, 945, 1074
556, 927, 901, 1004, 1055
557, 922, 999, 907, 1222
558, 598, 307, 959, 1153
559, 916, 1010, 968, 1185
560, 943, 1001, 978, 1130
561, 747, 1077, 540, 1109
562, 951, 1013, 940, 1067
563, 501, 974, 413, 1008
564, 653, 655, 933, 1211
565, 939, 992, 901, 1004
566, 772, 768, 845, 1077
567, 340, 1042, 513, 1079
568, 794, 980, 792, 1165
569, 924, 993, 254, 1127
570, 885, 1012, 935, 1217
571, 429, 1105, 1003, 1227
572, 215, 990, 216, 1084
573, 665, 680, 970, 1137
574, 251, 1102, 993, 1235
575, 966, 1163, 942, 1165
576, 908, 983, 947, 1018
577, 946, 1181, 995, 1207
578, 969, 925, 1177, 1202
579, 423, 507, 1031, 1061
580, 213, 214, 215, 990
581, 899, 951, 1025, 1215
582, 626, 629, 1087, 1122
583, 886, 929, 1009, 1154
584, 950, 1000, 925, 1059
585, 548, 545, 1075, 1153
586, 576, 704, 1128, 1143
587, 946, 905, 995, 1059
588, 860, 1049, 926, 1118
589, 1058, 1084, 933, 1211
590, 635, 937, 1035, 1152
591, 986, 998, 949, 1195
592, 798, 796, 961, 1086
593, 524, 458, 456, 1001
594, 497, 696, 374, 967
595, 949, 1195, 998, 1230
596, 222, 1107, 995, 1155
597, 312, 238, 237, 1014
598, 478, 921, 1063, 1109
599, 907, 1008, 931, 1160
600, 285, 181, 982, 1091
601, 911, 1091, 982, 1232
602, 641, 989, 639, 1121
603, 980, 1012, 794, 1040
604, 902, 1034, 960, 1080
605, 505, 962, 1019, 1050
606, 321, 1072, 757, 1173
607, 904, 1038, 934, 1045
608, 242, 998, 1039, 1176
609, 769, 1015, 976, 1070
610, 941, 1063, 771, 1141
611, 955, 938, 1080, 1103
612, 937, 1129, 232, 1152
613, 923, 907, 1008, 1026
614, 691, 945, 1032, 1073
615, 657, 955, 660, 1034
616, 773, 404, 1063, 1109
617, 705, 267, 277, 1102
618, 927, 992, 941, 1199
619, 265, 262, 260, 930
620, 815, 973, 886, 1009
621, 832, 789, 884, 966
622, 923, 1015, 907, 1026
623, 955, 1103, 1048, 1117
624, 662, 1117, 938, 1124
625, 925, 1167, 977, 1198
626, 699, 1097, 697, 1133
627, 508, 962, 505, 1088
628, 938, 910, 1080, 1242
629, 412, 1041, 481, 1114
630, 787, 1005, 966, 1163
631, 748, 889, 362, 1112
632, 238, 235, 237, 1022
633, 1069, 1080, 910, 1242
634, 429, 427, 1105, 1184
635, 622, 957, 1082, 1101
636, 361, 340, 513, 1079
637, 198, 334, 283, 1020
638, 882, 1054, 341, 1148
639, 642, 641, 643, 1018
640, 946, 995, 950, 1059
641, 706, 949, 1032, 1074
642, 209, 208, 982, 1013
643, 821, 978, 851, 1068
644, 297, 1058, 990, 1205
645, 493, 964, 582, 1108
646, 708, 981, 606, 1115
647, 539, 1075, 584, 1114
648, 970, 938, 1124, 1137
649, 317, 278, 207, 1013
650, 966, 1139, 1057, 1227
651, 509, 967, 1016, 1229
652, 413, 1081, 974, 1141
653, 518, 1133, 1043, 1167
654, 836, 567, 1077, 1168
655, 910, 970, 938, 1124
656, 936, 693, 1029, 1143
657, 818, 816, 1104, 1157
658, 901, 922, 1007, 1055
659, 831, 1047, 971, 1140
660, 540, 1077, 565, 1109
661, 936, 1029, 693, 1122
662, 904, 928, 1038, 1045
663, 933, 1000, 905, 1202
664, 611, 988, 1099, 1160
665, 886, 1009, 973, 1154
666, 691, 617, 984, 1073
667, 907, 1055, 922, 1070
668, 361, 365, 340, 1079
669, 926, 1049, 860, 1161
670, 1007, 1027, 262, 1223
671, 878, 886, 929, 1104
672, 899, 1137, 970, 1206
673, 508, 436, 505, 1019
674, 297, 211, 210, 1048
675, 249, 1074, 945, 1193
676, 853, 871, 1095, 1144
677, 260, 259, 999, 1216
678, 928, 904, 1038, 1047
679, 925, 1043, 969, 1133
680, 930, 1027, 1004, 1099
681, 249, 1074, 277, 1102
682, 781, 1036, 944, 1076
683, 236, 1014, 965, 1143
684, 938, 955, 1080, 1124
685, 928, 934, 1172, 1219
686, 232, 1089, 997, 1129
687, 957, 1024, 912, 1032
688, 947, 989, 904, 1083
689, 904, 1010, 968, 1047
690, 550, 991, 1051, 1233
691, 943, 1119, 538, 1130
692, 777, 923, 1095, 1147
693, 699, 1002, 1018, 1097
694, 912, 1031, 957, 1082
695, 1057, 1139, 1003, 1227
696, 269, 1060, 946, 1107
697, 321, 953, 1072, 1173
698, 902, 960, 1034, 1190
699, 951, 1054, 893, 1148
700, 821, 822, 851, 978
701, 851, 943, 1044, 1068
702, 932, 804, 1047, 1159
703, 963, 990, 902, 1048
704, 925, 926, 1043, 1198
705, 857, 1010, 935, 1151
706, 427, 1031, 948, 1076
707, 708, 606, 707, 1115
708, 947, 904, 1038, 1083
709, 973, 1017, 905, 1043
710, 691, 617, 678, 984
711, 224, 983, 1107, 1155
712, 614, 1132, 1126, 1187
713, 690, 984, 615, 1132
714, 952, 1025, 958, 1156
715, 209, 317, 1013, 1067
716, 290, 1084, 270, 1211
717, 194, 711, 983, 1155
718, 972, 1009, 816, 1157
719, 922, 1123, 1070, 1220
720, 918, 1087, 1029, 1122
721, 962, 1035, 631, 1088
722, 629, 1029, 1087, 1122
723, 976, 1015, 871, 1144
724, 958, 1025, 899, 1156
725, 660, 1034, 1117, 1124
726, 696, 575, 374, 967
727, 757, 1072, 953, 1173
728, 648, 950, 646, 1155
729, 931, 1008, 907, 1026
730, 278, 1013, 940, 1053
731, 927, 941, 1081, 1199
732, 289, 1107, 269, 1181
733, 903, 1050, 962, 1164
734, 520, 1017, 969, 1136
735, 995, 1107, 950, 1155
736, 947, 1038, 997, 1135
737, 413, 407, 1081, 1141
738, 852, 941, 771, 1141
739, 519, 452, 450, 1043
740, 430, 429, 1003, 1139
741, 230, 997, 1121, 1129
742, 251, 1052, 249, 1102
743, 902, 979, 955, 990
744, 957, 1032, 912, 1082
745, 878, 929, 886, 1154
746, 645, 699, 1002, 1018
747, 652, 651, 723, 1100
748, 830, 181, 1091, 1232
749, 672, 959, 1027, 1238
750, 857, 971, 1010, 1151
751, 631, 1029, 962, 1087
752, 637, 1129, 937, 1152
753, 926, 1043, 905, 1059
754, 965, 1014, 236, 1022
755, 1043, 1133, 925, 1167
756, 880, 470, 1119, 1130
757, 260, 999, 261, 1216
758, 388, 698, 500, 969
759, 633, 1029, 965, 1035
760, 635, 1035, 965, 1152
761, 680, 671, 970, 1134
762, 270, 216, 990, 1084
763, 730, 719, 1028, 1066
764, 612, 931, 1132, 1187
765, 424, 1031, 944, 1061
766, 301, 309, 238, 961
767, 965, 1022, 236, 1152
768, 908, 1011, 983, 1107
769, 965, 1029, 693, 1143
770, 559, 540, 565, 1109
771, 853, 1095, 919, 1144
772, 777, 1110, 923, 1147
773, 478, 1063, 404, 1109
774, 922, 901, 1006, 1055
775, 959, 991, 939, 1075
776, 849, 304, 968, 1159
777, 912, 1024, 957, 1031
778, 339, 313, 184, 1066
779, 919, 853, 1072, 1095
780, 900, 984, 964, 1073
781, 899, 1069, 970, 1242
782, 646, 950, 648, 1097
783, 498, 505, 397, 962
784, 524, 391, 960, 1078
785, 536, 875, 1119, 1178
786, 902, 943, 978, 1068
787, 610, 596, 402, 1114
788, 998, 1057, 915, 1176
789, 911, 1068, 943, 1080
790, 919, 1072, 853, 1144
791, 184, 313, 336, 1066
792, 789, 787, 966, 1163
793, 482, 1145, 1081, 1194
794, 943, 1046, 910, 1080
795, 667, 197, 1053, 1117
796, 860, 815, 812, 1049
797, 1196, 1202, 933, 1207
798, 940, 1066, 339, 1067
799, 1006, 1007, 922, 1020
800, 505, 1019, 436, 1050
801, 925, 905, 1043, 1059
802, 900, 1061, 987, 1092
803, 635, 633, 965, 1035
804, 926, 905, 1049, 1059
805, 987, 1061, 424, 1120
806, 633, 693, 965, 1029
807, 983, 1018, 908, 1097
808, 932, 908, 1011, 1038
809, 968, 1089, 288, 1171
810, 672, 959, 598, 1027
811, 936, 915, 1057, 1176
812, 706, 1032, 949, 1101
813, 440, 1016, 511, 1045
814, 241, 1128, 936, 1143
815, 214, 213, 211, 1048
816, 773, 404, 405, 1063
817, 637, 635, 937, 1094
818, 316, 956, 188, 1039
819, 918, 962, 1050, 1164
820, 933, 1058, 990, 1084
821, 841, 953, 996, 1125
822, 496, 701, 1002, 1142
823, 286, 194, 711, 983
824, 355, 1042, 952, 1112
825, 899, 970, 938, 1242
826, 987, 1061, 944, 1092
827, 906, 998, 956, 1230
828, 1023, 1036, 909, 1125
829, 660, 1034, 955, 1117
830, 934, 928, 1038, 1219
831, 904, 997, 947, 1038
832, 637, 937, 635, 1152
833, 831, 858, 1047, 1140
834, 176, 872, 870, 976
835, 626, 1033, 1122, 1149
836, 932, 975, 908, 1182
837, 900, 987, 1061, 1203
838, 358, 355, 952, 1112
839, 781, 1076, 944, 1120
840, 925, 1000, 950, 1177
841, 1000, 1064, 950, 1155
842, 700, 500, 698, 969
843, 988, 1008, 415, 1081
844, 226, 227, 1011, 1135
845, 923, 777, 1095, 1110
846, 465, 1156, 467, 1192
847, 904, 997, 968, 1185
848, 432, 483, 1050, 1139
849, 565, 1109, 1077, 1224
850, 268, 1115, 254, 1127
851, 435, 1019, 980, 1050
852, 696, 967, 497, 1166
853, 509, 511, 440, 1016
854, 693, 936, 704, 1143
855, 905, 995, 950, 1000
856, 496, 701, 386, 1002
857, 664, 970, 1124, 1137
858, 851, 1044, 943, 1119
859, 624, 1033, 957, 1101
860, 1023, 1125, 909, 1173
861, 900, 987, 944, 1092
862, 829, 982, 1025, 1221
863, 796, 1040, 961, 1085
864, 909, 1036, 1023, 1093
865, 1005, 1057, 966, 1163
866, 908, 975, 932, 1011
867, 384, 1042, 367, 1112
868, 260, 930, 999, 1116
869, 704, 936, 1122, 1128
870, 970, 1030, 663, 1124
871, 867, 790, 856, 1163
872, 579, 708, 707, 1115
873, 659, 960, 717, 1078
874, 930, 1007, 922, 1055
875, 236, 1143, 965, 1152
876, 630, 1029, 633, 1035
877, 319, 248, 1052, 1071
878, 968, 1010, 802, 1047
879, 205, 1013, 203, 1103
880, 900, 1061, 964, 1203
881, 586, 286, 711, 983
882, 857, 971, 831, 1010
883, 984, 1026, 900, 1203
884, 955, 979, 657, 1205
885, 907, 924, 1026, 1222
886, 693, 704, 936, 1122
887, 800, 1010, 968, 1217
888, 1073, 1092, 900, 1236
889, 942, 966, 1057, 1163
890, 672, 1027, 1004, 1238
891, 904, 971, 1010, 1047
892, 910, 960, 1034, 1080
893, 238, 308, 235, 1022
894, 953, 996, 900, 1170
895, 318, 316, 244, 956
896, 905, 995, 933, 1207
897, 645, 644, 699, 1018
898, 1105, 1184, 948, 1227
899, 717, 391, 716, 1078
900, 982, 1013, 208, 1103
901, 317, 336, 278, 940
902, 234, 937, 232, 1152
903, 916, 1012, 935, 1065
904, 798, 1086, 1012, 1217
905, 915, 936, 1057, 1164
906, 926, 1161, 975, 1188
907, 427, 1076, 948, 1184
908, 1056, 1196, 933, 1207
909, 942, 792, 1040, 1165
910, 221, 995, 290, 1064
911, 713, 663, 1030, 1124
912, 904, 1016, 971, 1045
913, 791, 1005, 956, 1093
914, 852, 974, 1070, 1141
915, 944, 987, 900, 996
916, 939, 901, 992, 1204
917, 433, 942, 1050, 1165
918, 926, 1049, 973, 1118
919, 942, 1057, 1050, 1164
920, 964, 984, 900, 1203
921, 251, 250, 249, 1052
922, 545, 728, 673, 1153
923, 796, 1012, 961, 1040
924, 423, 422, 507, 1061
925, 238, 961, 312, 1085
926, 294, 176, 870, 976
927, 951, 1025, 982, 1221
928, 903, 1022, 965, 1065
929, 857, 935, 885, 1151
930, 600, 598, 307, 1027
931, 819, 821, 820, 1068
932, 505, 962, 1050, 1087
933, 819, 978, 821, 1068
934, 391, 960, 717, 1090
935, 931, 1096, 612, 1132
936, 699, 1018, 644, 1097
937, 296, 188, 318, 1023
938, 663, 970, 671, 1030
939, 722, 631, 1035, 1088
940, 953, 909, 1125, 1173
941, 871, 976, 769, 1015
942, 442, 440, 511, 1045
943, 908, 946, 975, 1011
944, 887, 893, 829, 1025
945, 849, 968, 756, 1159
946, 944, 1076, 424, 1120
947, 849, 756, 304, 1159
948, 1056, 933, 1196, 1202
949, 935, 916, 1065, 1175
950, 210, 1103, 204, 1117
951, 792, 942, 1040, 1163
952, 906, 986, 1101, 1237
953, 935, 1012, 980, 1019
954, 913, 1079, 1042, 1218
955, 834, 843, 1025, 1178
956, 680, 724, 735, 1226
957, 312, 1085, 1014, 1176
958, 905, 933, 1202, 1207
959, 918, 1122, 1033, 1149
960, 988, 1145, 1099, 1160
961, 425, 424, 1031, 1076
962, 1004, 1027, 959, 1238
963, 800, 968, 1171, 1217
964, 763, 761, 835, 1020
965, 943, 1069, 911, 1080
966, 910, 1069, 943, 1080
967, 781, 944, 1036, 1125
968, 957, 1033, 624, 1162
969, 413, 1008, 974, 1081
970, 777, 1095, 775, 1147
971, 902, 1048, 955, 1080
972, 860, 1118, 926, 1161
973, 396, 1082, 634, 1162
974, 318, 956, 244, 1071
975, 928, 1172, 934, 1239
976, 613, 690, 615, 1132
977, 196, 752, 266, 1106
978, 245, 173, 1074, 1195
979, 512, 1045, 1142, 1172
980, 299, 1113, 1011, 1135
981, 242, 1039, 314, 1176
982, 928, 1150, 932, 1182
983, 336, 940, 317, 1067
984, 704, 1122, 986, 1128
985, 701, 720, 386, 1002
986, 373, 736, 1021, 1118
987, 972, 1181, 946, 1207
988, 499, 716, 391, 1078
989, 878, 1131, 929, 1154
990, 630, 633, 632, 1035
991, 804, 932, 1113, 1159
992, 953, 909, 1092, 1125
993, 800, 802, 968, 1010
994, 341, 1148, 1054, 1208
995, 770, 1015, 769, 1070
996, 830, 982, 181, 1232
997, 357, 313, 339, 1066
998, 394, 484, 884, 966
999, 773, 405, 759, 1063
1000, 422, 1061, 964, 1108
1001, 965, 1035, 903, 1065
1002, 230, 232, 997, 1129
1003, 505, 1050, 483, 1087
1004, 940, 1053, 1013, 1137
1005, 538, 943, 459, 1111
1006, 971, 1045, 443, 1140
1007, 950, 995, 946, 1107
1008, 546, 562, 185, 1168
1009, 612, 1132, 614, 1187
1010, 713, 663, 671, 1030
1011, 955, 1080, 1048, 1103
1012, 1034, 1080, 955, 1124
1013, 379, 754, 492, 974
1014, 866, 956, 791, 1039
1015, 736, 883, 474, 1021
1016, 350, 1054, 994, 1208
1017, 856, 1040, 796, 1085
1018, 946, 908, 1059, 1107
1019, 954, 1077, 555, 1168
1020, 932, 1038, 904, 1047
1021, 657, 1034, 658, 1214
1022, 556, 954, 555, 1168
1023, 772, 921, 894, 1109
1024, 838, 1125, 1023, 1173
1025, 424, 987, 489, 1061
1026, 915, 936, 1164, 1176
1027, 622, 1082, 957, 1162
1028, 239, 1014, 936, 1176
1029, 1097, 1133, 925, 1177
1030, 907, 1015, 1070, 1222
1031, 831, 1010, 971, 1047
1032, 394, 966, 751, 1184
1033, 308, 233, 1022, 1089
1034, 756, 193, 304, 1159
1035, 605, 1004, 672, 1027
1036, 944, 424, 1061, 1120
1037, 957, 906, 1024, 1101
1038, 904, 989, 947, 997
1039, 713, 688, 1034, 1090
1040, 943, 1046, 1001, 1130
1041, 219, 972, 1084, 1181
1042, 950, 995, 905, 1059
1043, 394, 884, 751, 966
1044, 965, 1022, 937, 1065
1045, 459, 943, 538, 1130
1046, 491, 1105, 957, 1162
1047, 992, 1004, 939, 1037
1048, 942, 1163, 792, 1165
1049, 876, 958, 834, 1044
1050, 909, 1023, 956, 1093
1051, 680, 1079, 679, 1134
1052, 819, 820, 818, 1104
1053, 265, 930, 260, 1116
1054, 928, 932, 1038, 1182
1055, 316, 242, 244, 998
1056, 998, 1057, 936, 1237
1057, 748, 346, 1054, 1112
1058, 932, 908, 1038, 1182
1059, 899, 985, 970, 1069
1060, 966, 942, 1057, 1139
1061, 387, 1021, 1140, 1239
1062, 297, 955, 210, 1205
1063, 605, 672, 1004, 1238
1064, 922, 907, 999, 1055
1065, 984, 1073, 617, 1132
1066, 956, 1023, 869, 1093
1067, 922, 999, 930, 1055
1068, 964, 1061, 987, 1203
1069, 934, 1142, 1045, 1172
1070, 994, 1042, 350, 1218
1071, 465, 985, 1156, 1192
1072, 631, 629, 1029, 1087
1073, 937, 1035, 965, 1065
1074, 606, 1099, 602, 1116
1075, 299, 276, 1113, 1135
1076, 374, 967, 575, 1142
1077, 241, 936, 239, 1143
1078, 608, 1037, 1004, 1099
1079, 938, 1103, 955, 1117
1080, 606, 1115, 981, 1116
1081, 965, 1143, 633, 1152
1082, 989, 1083, 947, 1121
1083, 984, 1073, 900, 1236
1084, 606, 981, 1099, 1116
1085, 256, 1062, 254, 1115
1086, 958, 1044, 876, 1119
1087, 928, 934, 1045, 1239
1088, 207, 209, 317, 1013
1089, 737, 869, 866, 1023
1090, 925, 950, 1097, 1177
1091, 624, 957, 622, 1101
1092, 770, 871, 769, 1015
1093, 1083, 1142, 695, 1200
1094, 707, 1115, 606, 1116
1095, 996, 1095, 777, 1110
1096, 791, 956, 1005, 1039
1097, 928, 1172, 977, 1219
1098, 217, 219, 972, 1084
1099, 439, 1016, 971, 1151
1100, 905, 1043, 1017, 1202
1101, 239, 936, 1014, 1143
1102, 603, 1004, 601, 1099
1103, 905, 1202, 1196, 1207
1104, 1126, 1132, 931, 1187
1105, 489, 987, 424, 1120
1106, 260, 261, 259, 1216
1107, 939, 959, 1075, 1238
1108, 523, 458, 960, 1046
1109, 908, 946, 1011, 1107
1110, 834, 958, 876, 1119
1111, 1023, 1052, 319, 1173
1112, 524, 523, 458, 960
1113, 966, 1057, 1005, 1227
1114, 289, 223, 1107, 1181
1115, 646, 1018, 983, 1097
1116, 938, 1080, 910, 1124
1117, 968, 997, 932, 1159
1118, 362, 358, 346, 1112
1119, 950, 1059, 908, 1107
1120, 691, 675, 1032, 1074
1121, 475, 1003, 1105, 1162
1122, 730, 1066, 1028, 1137
1123, 289, 223, 269, 1107
1124, 836, 543, 567, 1168
1125, 639, 989, 641, 1083
1126, 323, 1062, 976, 1144
1127, 268, 579, 1115, 1127
1128, 538, 943, 1111, 1119
1129, 323, 257, 976, 1062
1130, 241, 239, 936, 1176
1131, 997, 1135, 932, 1159
1132, 982, 1025, 951, 1215
1133, 748, 898, 889, 1112
1134, 926, 946, 1049, 1188
1135, 939, 1075, 539, 1114
1136, 321, 953, 253, 1072
1137, 1017, 1043, 969, 1202
1138, 601, 1004, 605, 1027
1139, 933, 1084, 1064, 1211
1140, 475, 1105, 491, 1162
1141, 937, 1022, 234, 1089
1142, 433, 980, 435, 1165
1143, 906, 957, 1003, 1033
1144, 618, 964, 1073, 1108
1145, 910, 970, 985, 1069
1146, 925, 1043, 926, 1059
1147, 851, 880, 741, 1119
1148, 948, 1031, 427, 1105
1149, 186, 714, 1143, 1152
1150, 905, 1000, 950, 1059
1151, 1039, 1085, 314, 1176
1152, 924, 1026, 984, 1203
1153, 943, 1046, 459, 1111
1154, 995, 1000, 933, 1064
1155, 997, 1129, 1089, 1185
1156, 935, 885, 1151, 1212
1157, 738, 859, 389, 971
1158, 635, 965, 633, 1152
1159, 946, 1049, 905, 1059
1160, 232, 937, 234, 1089
1161, 918, 1029, 962, 1164
1162, 422, 420, 964, 1061
1163, 509, 1166, 967, 1229
1164, 612, 988, 1096, 1187
1165, 995, 1064, 221, 1155
1166, 843, 952, 898, 1054
1167, 633, 1143, 714, 1152
1168, 711, 646, 983, 1155
1169, 940, 1067, 339, 1240
1170, 496, 1002, 515, 1142
1171, 852, 974, 774, 1070
1172, 900, 944, 996, 1092
1173, 501, 413, 414, 1008
1174, 634, 1082, 622, 1162
1175, 384, 367, 343, 1112
1176, 843, 1025, 952, 1054
1177, 880, 470, 741, 1119
1178, 1113, 1135, 276, 1159
1179, 539, 939, 1114, 1234
1180, 224, 194, 983, 1155
1181, 633, 965, 693, 1143
1182, 919, 1026, 924, 1062
1183, 967, 1142, 1083, 1200
1184, 945, 249, 1052, 1102
1185, 907, 1026, 1015, 1222
1186, 1048, 1091, 212, 1103
1187, 992, 927, 1194, 1199
1188, 757, 841, 953, 1072
1189, 976, 1070, 1015, 1222
1190, 900, 1092, 953, 1236
1191, 622, 957, 624, 1162
1192, 1024, 1032, 957, 1101
1193, 952, 1042, 468, 1112
1194, 996, 1092, 944, 1125
1195, 955, 1117, 1034, 1124
1196, 495, 720, 573, 1002
1197, 905, 1017, 973, 1196
1198, 342, 1028, 719, 1066
1199, 916, 968, 1089, 1185
1200, 932, 928, 1047, 1150
1201, 969, 1100, 723, 1136
1202, 861, 472, 863, 973
1203, 962, 1029, 631, 1035
1204, 612, 1096, 931, 1187
1205, 894, 921, 772, 1077
1206, 612, 988, 611, 1096
1207, 373, 1118, 1021, 1198
1208, 766, 1006, 1070, 1220
1209, 929, 878, 1104, 1131
1210, 257, 976, 1062, 1216
1211, 186, 1143, 236, 1152
1212, 922, 1006, 941, 1055
1213, 907, 1055, 1070, 1225
1214, 921, 1077, 894, 1109
1215, 916, 935, 1012, 1217
1216, 495, 386, 720, 1002
1217, 981, 907, 1096, 1160
1218, 795, 1012, 796, 1040
1219, 909, 1052, 953, 1092
1220, 427, 425, 1031, 1076
1221, 919, 1062, 993, 1191
1222, 924, 1096, 1026, 1203
1223, 411, 992, 412, 1037
1224, 232, 1129, 287, 1152
1225, 185, 562, 310, 1168
1226, 872, 976, 176, 1123
1227, 801, 802, 1010, 1047
1228, 787, 1005, 786, 1093
1229, 871, 1015, 776, 1095
1230, 899, 951, 994, 1025
1231, 225, 226, 227, 1011
1232, 816, 972, 813, 1009
1233, 334, 954, 311, 1168
1234, 1081, 1194, 927, 1199
1235, 196, 837, 752, 1106
1236, 336, 278, 940, 1066
1237, 396, 491, 1082, 1162
1238, 701, 645, 1002, 1142
1239, 685, 587, 631, 962
1240, 905, 973, 1009, 1196
1241, 539, 1075, 939, 1234
1242, 217, 1084, 972, 1157
1243, 922, 976, 999, 1222
1244, 931, 1008, 988, 1160
1245, 442, 511, 512, 1045
1246, 495, 1002, 573, 1133
1247, 924, 1132, 1096, 1203
1248, 439, 1016, 1151, 1228
1249, 307, 959, 328, 1223
1250, 388, 698, 969, 1133
1251, 941, 1006, 922, 1070
1252, 957, 1082, 491, 1162
1253, 1033, 1101, 986, 1237
1254, 449, 1043, 973, 1118
1255, 220, 995, 222, 1107
1256, 379, 844, 754, 974
1257, 422, 964, 420, 1108
1258, 885, 794, 980, 1012
1259, 909, 1213, 1093, 1230
1260, 316, 318, 188, 956
1261, 239, 1014, 236, 1143
1262, 220, 995, 1107, 1181
1263, 706, 1032, 675, 1074
1264, 691, 1032, 619, 1073
1265, 775, 1015, 974, 1147
1266, 539, 1114, 566, 1234
1267, 945, 1092, 1073, 1236
1268, 421, 489, 987, 1061
1269, 505, 436, 434, 1050
1270, 937, 234, 1022, 1152
1271, 269, 1011, 1060, 1107
1272, 1016, 1045, 904, 1197
1273, 989, 1129, 997, 1185
1274, 909, 953, 1052, 1173
1275, 180, 839, 972, 1138
1276, 416, 415, 988, 1008
1277, 774, 974, 852, 1141
1278, 309, 238, 961, 1086
1279, 588, 502, 396, 1162
1280, 421, 424, 489, 1061
1281, 835, 954, 761, 1168
1282, 973, 1017, 453, 1154
1283, 753, 275, 180, 972
1284, 953, 1092, 1052, 1236
1285, 278, 203, 1013, 1053
1286, 839, 753, 180, 972
1287, 998, 1071, 956, 1230
1288, 467, 1156, 1042, 1192
1289, 906, 1033, 1003, 1237
1290, 813, 1049, 972, 1138
1291, 186, 677, 714, 1152
1292, 515, 1142, 1002, 1172
1293, 829, 1025, 951, 1221
1294, 949, 1074, 706, 1146
1295, 919, 1026, 1015, 1095
1296, 657, 660, 658, 1034
1297, 441, 443, 971, 1045
1298, 615, 984, 617, 1132
1299, 210, 1048, 206, 1103
1300, 997, 1089, 968, 1185
1301, 620, 619, 1032, 1073
1302, 222, 995, 221, 1155
1303, 835, 954, 836, 1077
1304, 416, 1008, 988, 1187
1305, 858, 1047, 1140, 1150
1306, 764, 835, 1006, 1020
1307, 474, 373, 736, 1021
1308, 659, 688, 717, 960
1309, 901, 991, 959, 1169
1310, 955, 938, 1117, 1124
1311, 927, 941, 1055, 1081
1312, 1015, 1026, 923, 1095
1313, 1054, 1148, 951, 1208
1314, 416, 1187, 1098, 1210
1315, 1006, 1055, 901, 1158
1316, 955, 990, 979, 1058
1317, 208, 285, 982, 1103
1318, 428, 1003, 429, 1105
1319, 717, 960, 688, 1090
1320, 831, 801, 1010, 1047
1321, 396, 634, 588, 1162
1322, 616, 617, 1073, 1132
1323, 759, 772, 773, 1063
1324, 826, 828, 827, 1215
1325, 278, 1053, 940, 1066
1326, 1008, 1147, 923, 1210
1327, 967, 1045, 1016, 1197
1328, 917, 1078, 1001, 1190
1329, 902, 1001, 960, 1190
1330, 923, 1008, 974, 1147
1331, 584, 727, 558, 1114
1332, 829, 982, 827, 1025
1333, 903, 961, 1014, 1022
1334, 995, 1064, 933, 1084
1335, 851, 1044, 824, 1068
1336, 713, 1034, 661, 1124
1337, 752, 266, 963, 1091
1338, 935, 916, 1175, 1217
1339, 977, 1172, 928, 1239
1340, 957, 1105, 1003, 1162
1341, 730, 599, 719, 1066
1342, 908, 1018, 947, 1038
1343, 857, 799, 885, 1217
1344, 327, 1051, 263, 1169
1345, 990, 1106, 963, 1174
1346, 665, 724, 680, 1137
1347, 904, 1083, 989, 1197
1348, 843, 952, 1025, 1178
1349, 828, 1025, 827, 1215
1350, 880, 1130, 822, 1131
1351, 934, 1172, 1045, 1239
1352, 209, 982, 208, 1221
1353, 242, 316, 314, 1039
1354, 677, 633, 714, 1152
1355, 927, 1004, 992, 1037
1356, 536, 1119, 469, 1178
1357, 535, 478, 1109, 1209
1358, 881, 1076, 781, 1120
1359, 904, 1010, 971, 1175
1360, 783, 1036, 781, 1076
1361, 738, 389, 476, 971
1362, 413, 414, 1008, 1081
1363, 387, 1021, 864, 1140
1364, 941, 922, 1055, 1070
1365, 433, 1050, 942, 1139
1366, 908, 1059, 950, 1097
1367, 939, 991, 901, 1204
1368, 919, 993, 1026, 1170
1369, 1008, 1026, 931, 1210
1370, 602, 603, 601, 1099
1371, 505, 962, 498, 1088
1372, 918, 1050, 1057, 1164
1373, 930, 602, 1099, 1116
1374, 649, 647, 648, 1097
1375, 358, 350, 347, 1054
1376, 898, 952, 843, 1112
1377, 215, 214, 216, 990
1378, 328, 959, 307, 1153
1379, 523, 524, 391, 960
1380, 931, 988, 1096, 1160
1381, 478, 1063, 921, 1209
1382, 957, 1031, 1024, 1105
1383, 212, 1048, 963, 1091
1384, 904, 971, 1016, 1175
1385, 813, 1009, 972, 1049
1386, 934, 1038, 928, 1045
1387, 877, 796, 840, 961
1388, 869, 791, 956, 1093
1389, 849, 968, 304, 1171
1390, 668, 1142, 967, 1200
1391, 623, 986, 1033, 1101
1392, 836, 567, 892, 1077
1393, 380, 424, 1076, 1120
1394, 817, 1009, 886, 1104
1395, 307, 331, 200, 1153
1396, 320, 319, 1052, 1173
1397, 917, 1001, 1056, 1190
1398, 927, 1081, 988, 1145
1399, 999, 1062, 976, 1216
1400, 796, 795, 798, 1012
1401, 637, 1094, 937, 1129
1402, 618, 964, 616, 1073
1403, 924, 984, 1132, 1203
1404, 950, 1107, 983, 1155
1405, 1019, 1065, 914, 1175
1406, 864, 474, 883, 1021
1407, 459, 1046, 943, 1130
1408, 716, 659, 717, 1078
1409, 923, 1026, 1008, 1210
1410, 397, 962, 505, 1087
1411, 928, 1140, 1047, 1150
1412, 234, 236, 1022, 1152
1413, 666, 1053, 1066, 1137
1414, 523, 960, 391, 1090
1415, 601, 605, 672, 1027
1416, 801, 803, 802, 1047
1417, 916, 1089, 968, 1171
1418, 546, 185, 1051, 1168
1419, 428, 430, 429, 1003
1420, 285, 212, 1091, 1103
1421, 779, 996, 777, 1110
1422, 902, 963, 1068, 1174
1423, 990, 1058, 955, 1205
1424, 1036, 1092, 909, 1125
1425, 921, 1158, 1006, 1186
1426, 928, 1038, 932, 1047
1427, 757, 841, 854, 953
1428, 1089, 1129, 937, 1185
1429, 643, 983, 646, 1018
1430, 952, 1025, 994, 1054
1431, 994, 1025, 951, 1208
1432, 655, 1100, 979, 1180
1433, 909, 1052, 1023, 1173
1434, 795, 796, 793, 1040
1435, 920, 1106, 990, 1174
1436, 1005, 1093, 966, 1227
1437, 387, 445, 1021, 1239
1438, 934, 695, 1083, 1142
1439, 668, 695, 1142, 1200
1440, 218, 290, 995, 1084
1441, 441, 971, 439, 1016
1442, 967, 1045, 934, 1142
1443, 1083, 1197, 967, 1200
1444, 350, 347, 1054, 1208
1445, 616, 964, 618, 1108
1446, 935, 1065, 1019, 1175
1447, 657, 660, 955, 1205
1448, 967, 1166, 1094, 1197
1449, 886, 973, 815, 1154
1450, 943, 1069, 910, 1111
1451, 791, 866, 869, 956
1452, 441, 971, 443, 1140
1453, 694, 1166, 1094, 1200
1454, 431, 966, 429, 1139
1455, 921, 1109, 478, 1209
1456, 752, 963, 823, 1091
1457, 933, 653, 1064, 1100
1458, 1094, 1166, 914, 1197
1459, 1000, 1064, 653, 1100
1460, 630, 631, 1029, 1035
1461, 1077, 1109, 921, 1224
1462, 852, 1070, 941, 1141
1463, 601, 577, 602, 1027
1464, 232, 937, 1089, 1129
1465, 276, 1135, 229, 1159
1466, 748, 1054, 898, 1112
1467, 588, 634, 622, 1162
1468, 1094, 1166, 967, 1200
1469, 416, 1008, 1187, 1210
1470, 944, 1092, 1036, 1125
1471, 241, 936, 1128, 1176
1472, 831, 803, 801, 1047
1473, 319, 246, 248, 1071
1474, 421, 1061, 987, 1098
1475, 769, 765, 767, 1070
1476, 212, 963, 213, 1091
1477, 288, 233, 308, 1089
1478, 623, 986, 625, 1033
1479, 1051, 1169, 327, 1223
1480, 808, 1140, 1021, 1150
1481, 757, 953, 854, 1173
1482, 983, 1018, 643, 1189
1483, 238, 301, 961, 1085
1484, 616, 1073, 964, 1132
1485, 943, 1044, 911, 1069
1486, 1026, 1096, 931, 1203
1487, 1011, 1113, 932, 1135
1488, 671, 1030, 970, 1134
1489, 290, 216, 270, 1084
1490, 447, 373, 1021, 1198
1491, 903, 962, 1029, 1164
1492, 811, 1049, 813, 1138
1493, 503, 1139, 1003, 1149
1494, 934, 1083, 967, 1142
1495, 815, 886, 814, 1009
1496, 254, 993, 1062, 1191
1497, 944, 1036, 1092, 1213
1498, 902, 990, 963, 1174
1499, 903, 1019, 962, 1050
1500, 690, 613, 708, 1096
1501, 524, 499, 391, 1078
1502, 932, 1135, 1113, 1159
1503, 550, 1077, 991, 1224
1504, 738, 971, 476, 1140
1505, 685, 962, 631, 1088
1506, 327, 1169, 263, 1223
1507, 253, 953, 321, 1173
1508, 906, 1093, 1005, 1227
1509, 903, 1029, 962, 1035
1510, 933, 1064, 653, 1211
1511, 445, 977, 447, 1021
1512, 453, 1154, 1017, 1179
1513, 571, 545, 561, 1153
1514, 420, 964, 1061, 1098
1515, 274, 1128, 241, 1143
1516, 903, 961, 1012, 1040
1517, 447, 1021, 977, 1198
1518, 219, 1084, 218, 1181
1519, 253, 1072, 953, 1235
1520, 767, 770, 769, 1070
1521, 396, 502, 491, 1162
1522, 775, 774, 974, 1015
1523, 938, 204, 1103, 1117
1524, 579, 707, 190, 1115
1525, 909, 1092, 1036, 1213
1526, 237, 236, 1014, 1022
1527, 335, 1027, 307, 1223
1528, 929, 1017, 1154, 1179
1529, 307, 728, 331, 1153
1530, 664, 970, 663, 1124
1531, 633, 630, 693, 1029
1532, 1001, 1078, 960, 1190
1533, 188, 866, 865, 1039
1534, 221, 218, 290, 995
1535, 469, 1119, 958, 1178
1536, 318, 1023, 956, 1071
1537, 971, 1016, 441, 1045
1538, 630, 632, 631, 1035
1539, 941, 1055, 1006, 1158
1540, 827, 1025, 982, 1215
1541, 666, 1066, 730, 1137
1542, 786, 1005, 791, 1093
1543, 1034, 1190, 960, 1214
1544, 1019, 1175, 914, 1228
1545, 1026, 1203, 1210, 1241
1546, 212, 213, 963, 1048
1547, 228, 1135, 226, 1189
1548, 906, 1005, 1093, 1230
1549, 993, 1102, 254, 1127
1550, 257, 1062, 999, 1216
1551, 903, 1014, 965, 1022
1552, 831, 971, 857, 1151
1553, 1099, 1145, 927, 1160
1554, 511, 967, 509, 1166
1555, 791, 1005, 867, 1039
1556, 305, 830, 181, 1091
1557, 587, 631, 962, 1087
1558, 994, 1054, 1025, 1208
1559, 979, 1056, 917, 1100
1560, 276, 229, 303, 1159
1561, 263, 327, 311, 1051
1562, 249, 945, 1052, 1193
1563, 974, 1015, 774, 1070
1564, 464, 958, 1111, 1192
1565, 713, 688, 661, 1034
1566, 781, 996, 779, 1120
1567, 977, 1021, 445, 1239
1568, 390, 863, 472, 973
1569, 913, 985, 970, 1156
1570, 1098, 1187, 931, 1210
1571, 975, 1060, 806, 1113
1572, 772, 894, 773, 1109
1573, 606, 604, 602, 1099
1574, 945, 1102, 1052, 1236
1575, 953, 1173, 253, 1235
1576, 754, 492, 974, 1141
1577, 213, 963, 266, 1091
1578, 800, 801, 802, 1010
1579, 606, 981, 604, 1099
1580, 234, 232, 287, 1152
1581, 836, 1077, 954, 1168
1582, 466, 468, 952, 1042
1583, 550, 556, 547, 1051
1584, 785, 1036, 783, 1076
1585, 418, 1098, 416, 1187
1586, 188, 865, 295, 1039
1587, 903, 965, 1029, 1035
1588, 358, 1054, 346, 1112
1589, 278, 203, 207, 1013
1590, 635, 632, 633, 1035
1591, 418, 416, 1098, 1210
1592, 986, 1122, 936, 1128
1593, 928, 1182, 1038, 1219
1594, 899, 985, 958, 1156
1595, 548, 1153, 1075, 1233
1596, 925, 1043, 1167, 1198
1597, 204, 205, 203, 1103
1598, 736, 862, 1021, 1118
1599, 771, 768, 772, 1006
1600, 834, 843, 828, 1025
1601, 423, 1031, 424, 1061
1602, 919, 1015, 1026, 1222
1603, 331, 728, 571, 1153
1604, 931, 1096, 988, 1187
1605, 550, 1051, 547, 1233
1606, 380, 1076, 881, 1120
1607, 186, 273, 677, 1152
1608, 915, 1085, 1039, 1176
1609, 325, 323, 257, 976
1610, 688, 960, 659, 1214
1611, 963, 1068, 823, 1091
1612, 1004, 1037, 927, 1099
1613, 443, 1140, 1045, 1239
1614, 508, 436, 1019, 1229
1615, 248, 1052, 1071, 1193
1616, 699, 573, 1002, 1133
1617, 1006, 1063, 941, 1158
1618, 906, 1093, 1227, 1230
1619, 305, 850, 830, 1091
1620, 958, 985, 899, 1069
1621, 641, 639, 593, 1121
1622, 1131, 1154, 455, 1179
1623, 201, 725, 1053, 1066
1624, 764, 835, 768, 1006
1625, 1075, 1153, 959, 1233
1626, 352, 366, 339, 1240
1627, 653, 651, 1000, 1100
1628, 950, 1000, 995, 1064
1629, 952, 466, 1042, 1192
1630, 945, 1073, 984, 1236
1631, 931, 1187, 1008, 1210
1632, 935, 1175, 1019, 1228
1633, 790, 1040, 856, 1163
1634, 893, 882, 762, 1148
1635, 970, 985, 913, 1134
1636, 968, 916, 1171, 1217
1637, 1023, 1052, 909, 1071
1638, 539, 566, 552, 1234
1639, 449, 451, 973, 1043
1640, 688, 960, 1034, 1090
1641, 956, 909, 1093, 1230
1642, 574, 1074, 173, 1146
1643, 600, 672, 598, 1027
1644, 331, 571, 200, 1153
1645, 787, 788, 786, 1005
1646, 917, 979, 1100, 1180
1647, 929, 1056, 1104, 1196
1648, 636, 1035, 635, 1094
1649, 205, 208, 1013, 1103
1650, 655, 654, 1100, 1180
1651, 581, 1129, 637, 1152
1652, 929, 1104, 1056, 1174
1653, 384, 468, 1042, 1112
1654, 1098, 1210, 1203, 1241
1655, 987, 1110, 473, 1210
1656, 688, 1034, 960, 1214
1657, 912, 1073, 945, 1092
1658, 324, 1007, 263, 1020
1659, 387, 474, 864, 1021
1660, 571, 728, 545, 1153
1661, 535, 1209, 1109, 1231
1662, 704, 986, 628, 1128
1663, 948, 1227, 1093, 1230
1664, 665, 970, 664, 1137
1665, 641, 1121, 593, 1189
1666, 421, 987, 419, 1098
1667, 237, 235, 236, 1022
1668, 473, 419, 987, 1210
1669, 928, 977, 1182, 1219
1670, 495, 517, 1002, 1133
1671, 1009, 1049, 905, 1207
1672, 413, 409, 414, 1081
1673, 273, 186, 236, 1152
1674, 823, 752, 820, 963
1675, 920, 1104, 1056, 1196
1676, 496, 386, 515, 1002
1677, 814, 1009, 813, 1049
1678, 497, 374, 511, 967
1679, 274, 576, 1128, 1143
1680, 421, 420, 1061, 1098
1681, 546, 556, 562, 1168
1682, 644, 1018, 646, 1097
1683, 1021, 1118, 862, 1161
1684, 945, 912, 1092, 1183
1685, 270, 990, 297, 1058
1686, 906, 957, 1024, 1227
1687, 312, 314, 1085, 1176
1688, 949, 706, 1101, 1146
1689, 817, 816, 1009, 1104
1690, 1002, 1133, 517, 1167
1691, 616, 615, 617, 1132
1692, 906, 1003, 957, 1227
1693, 946, 1060, 1011, 1107
1694, 794, 793, 792, 1040
1695, 210, 206, 204, 1103
1696, 843, 1112, 952, 1178
1697, 959, 672, 1075, 1238
1698, 1110, 1147, 473, 1210
1699, 660, 1117, 662, 1124
1700, 664, 665, 663, 970
1701, 377, 848, 750, 980
1702, 943, 910, 1046, 1111
1703, 1028, 1066, 366, 1240
1704, 822, 1130, 978, 1131
1705, 680, 735, 679, 1079
1706, 549, 1233, 568, 1234
1707, 864, 1021, 808, 1140
1708, 780, 996, 781, 1125
1709, 278, 201, 1053, 1066
1710, 959, 1153, 328, 1223
1711, 853, 871, 776, 1095
1712, 451, 449, 973, 1118
1713, 321, 315, 757, 1072
1714, 523, 1046, 960, 1090
1715, 841, 996, 780, 1125
1716, 859, 389, 971, 1151
1717, 952, 1156, 958, 1192
1718, 470, 538, 1119, 1130
1719, 820, 823, 963, 1068
1720, 840, 961, 796, 1086
1721, 600, 307, 183, 1027
1722, 806, 975, 809, 1060
1723, 998, 1195, 1071, 1230
1724, 650, 653, 1000, 1064
1725, 257, 325, 976, 1216
1726, 353, 350, 1042, 1218
1727, 943, 911, 1044, 1068
1728, 1026, 1210, 923, 1241
1729, 521, 524, 456, 1078
1730, 1040, 1057, 915, 1163
1731, 924, 1062, 1026, 1222
1732, 598, 728, 307, 1153
1733, 433, 1139, 942, 1165
1734, 526, 578, 516, 1030
1735, 942, 1057, 1040, 1163
1736, 231, 997, 232, 1089
1737, 975, 932, 1150, 1182
1738, 841, 854, 953, 1125
1739, 915, 1039, 998, 1176
1740, 571, 561, 200, 1153
1741, 334, 311, 283, 1168
1742, 900, 1026, 993, 1170
1743, 933, 1056, 979, 1100
1744, 584, 558, 539, 1114
1745, 1080, 1103, 938, 1242
1746, 929, 1154, 1131, 1179
1747, 352, 339, 1067, 1240
1748, 750, 479, 377, 980
1749, 268, 256, 254, 1115
1750, 899, 970, 985, 1156
1751, 574, 706, 1074, 1146
1752, 927, 1081, 1145, 1194
1753, 478, 405, 404, 1063
1754, 457, 1001, 1046, 1130
1755, 929, 1017, 973, 1154
1756, 201, 725, 202, 1053
1757, 672, 673, 598, 959
1758, 557, 548, 545, 1075
1759, 912, 945, 1073, 1183
1760, 962, 1019, 914, 1229
1761, 796, 961, 877, 1085
1762, 1014, 1085, 915, 1176
1763, 578, 712, 516, 1030
1764, 962, 914, 1088, 1229
1765, 181, 746, 280, 982
1766, 917, 1056, 979, 1190
1767, 620, 618, 619, 1073
1768, 691, 678, 594, 1102
1769, 660, 1117, 955, 1205
1770, 827, 826, 1215, 1232
1771, 996, 1110, 779, 1120
1772, 947, 1038, 1018, 1083
1773, 270, 214, 297, 990
1774, 810, 860, 1049, 1161
1775, 578, 1030, 526, 1090
1776, 916, 1012, 961, 1086
1777, 926, 1049, 946, 1059
1778, 539, 552, 1075, 1234
1779, 909, 1036, 1093, 1213
1780, 843, 887, 1025, 1054
1781, 320, 253, 1173, 1235
1782, 906, 1057, 998, 1237
1783, 932, 1047, 968, 1159
1784, 968, 1010, 916, 1217
1785, 1026, 1062, 919, 1222
1786, 731, 609, 1114, 1238
1787, 441, 1016, 440, 1045
1788, 902, 1068, 978, 1174
1789, 474, 447, 373, 1021
1790, 777, 996, 778, 1095
1791, 509, 1016, 440, 1229
1792, 851, 876, 1044, 1119
1793, 398, 486, 591, 988
1794, 457, 1001, 458, 1046
1795, 719, 363, 585, 1226
1796, 980, 1019, 435, 1212
1797, 516, 1030, 712, 1134
1798, 212, 213, 266, 1091
1799, 286, 224, 194, 983
1800, 691, 675, 619, 1032
1801, 581, 637, 635, 1152
1802, 589, 179, 1117, 1205
1803, 913, 1156, 970, 1206
1804, 323, 1062, 1144, 1191
1805, 867, 1005, 788, 1163
1806, 451, 453, 973, 1017
1807, 595, 614, 1126, 1187
1808, 915, 1014, 961, 1085
1809, 419, 1098, 987, 1210
1810, 855, 757, 315, 1072
1811, 568, 1233, 1075, 1234
1812, 857, 831, 801, 1010
1813, 854, 1125, 838, 1173
1814, 429, 966, 394, 1184
1815, 1003, 1139, 918, 1149
1816, 651, 650, 653, 1000
1817, 431, 429, 430, 1139
1818, 671, 665, 680, 970
1819, 292, 687, 179, 1117
1820, 861, 472, 973, 1118
1821, 666, 1053, 725, 1066
1822, 918, 1057, 1050, 1139
1823, 971, 1016, 935, 1151
1824, 979, 1058, 657, 1205
1825, 427, 948, 1105, 1184
1826, 1018, 1038, 934, 1083
1827, 413, 974, 501, 1147
1828, 880, 822, 879, 1131
1829, 481, 1041, 542, 1114
1830, 935, 1151, 1016, 1228
1831, 342, 366, 1028, 1066
1832, 542, 1041, 566, 1114
1833, 751, 966, 787, 1184
1834, 946, 1107, 995, 1181
1835, 1050, 1057, 942, 1139
1836, 679, 1079, 506, 1134
1837, 1005, 1057, 906, 1227
1838, 902, 1056, 1001, 1190
1839, 224, 1107, 222, 1155
1840, 493, 420, 964, 1108
1841, 898, 1054, 952, 1112
1842, 950, 1064, 995, 1155
1843, 727, 584, 731, 1114
1844, 643, 646, 644, 1018
1845, 229, 1121, 997, 1135
1846, 909, 1024, 1213, 1230
1847, 906, 956, 1005, 1230
1848, 535, 478, 404, 1109
1849, 636, 722, 1035, 1094
1850, 358, 343, 355, 1112
1851, 769, 976, 872, 1123
1852, 1008, 1081, 988, 1160
1853, 217, 972, 219, 1157
1854, 907, 1070, 1015, 1225
1855, 979, 1180, 917, 1190
1856, 912, 1073, 1032, 1183
1857, 814, 816, 813, 1009
1858, 228, 947, 1135, 1189
1859, 1096, 1132, 931, 1203
1860, 349, 368, 1208, 1240
1861, 876, 834, 826, 1044
1862, 431, 1139, 433, 1165
1863, 925, 977, 1167, 1219
1864, 374, 511, 967, 1142
1865, 774, 1015, 770, 1070
1866, 952, 1054, 358, 1112
1867, 516, 712, 383, 1134
1868, 451, 1017, 973, 1043
1869, 621, 1032, 706, 1101
1870, 299, 1011, 227, 1135
1871, 591, 681, 398, 988
1872, 519, 388, 500, 969
1873, 987, 1098, 964, 1203
1874, 190, 268, 579, 1115
1875, 746, 181, 830, 982
1876, 931, 1026, 1203, 1210
1877, 939, 1075, 991, 1234
1878, 904, 1010, 1175, 1185
1879, 210, 955, 1117, 1205
1880, 320, 253, 321, 1173
1881, 228, 1121, 947, 1189
1882, 655, 657, 979, 1058
1883, 817, 814, 886, 1009
1884, 527, 384, 343, 1112
1885, 930, 1099, 1055, 1160
1886, 365, 1218, 1079, 1226
1887, 303, 968, 304, 1159
1888, 899, 970, 1156, 1206
1889, 944, 1061, 987, 1120
1890, 566, 1114, 1041, 1234
1891, 791, 788, 867, 1005
1892, 228, 947, 1121, 1135
1893, 948, 1024, 1227, 1230
1894, 390, 863, 973, 1154
1895, 560, 481, 542, 1114
1896, 835, 836, 845, 1077
1897, 973, 1009, 929, 1154
1898, 928, 1140, 1021, 1239
1899, 442, 441, 440, 1045
1900, 990, 1056, 933, 1084
1901, 920, 1056, 990, 1084
1902, 965, 1035, 937, 1152
1903, 916, 1012, 1086, 1217
1904, 885, 980, 848, 1212
1905, 319, 1023, 318, 1071
1906, 553, 1077, 550, 1224
1907, 987, 1061, 964, 1098
1908, 911, 1091, 1048, 1103
1909, 1067, 1208, 368, 1240
1910, 245, 1074, 173, 1193
1911, 649, 648, 650, 1000
1912, 961, 1022, 916, 1086
1913, 935, 1010, 971, 1151
1914, 701, 645, 720, 1002
1915, 538, 1111, 461, 1119
1916, 586, 711, 646, 983
1917, 263, 1169, 1007, 1223
1918, 958, 1025, 952, 1178
1919, 1032, 1073, 945, 1183
1920, 1084, 1181, 972, 1207
1921, 218, 1084, 995, 1181
1922, 926, 975, 1161, 1182
1923, 295, 739, 174, 1039
1924, 647, 1097, 649, 1177
1925, 324, 263, 334, 1020
1926, 916, 1175, 1010, 1185
1927, 639, 686, 1121, 1129
1928, 989, 937, 1129, 1185
1929, 285, 305, 181, 1091
1930, 439, 971, 441, 1151
1931, 967, 1197, 1094, 1200
1932, 951, 1067, 994, 1208
1933, 576, 702, 189, 1128
1934, 407, 1081, 1141, 1199
1935, 231, 230, 232, 997
1936, 936, 1029, 965, 1143
1937, 612, 611, 607, 1096
1938, 480, 411, 412, 1037
1939, 501, 1008, 414, 1210
1940, 281, 1148, 951, 1221
1941, 546, 1051, 556, 1168
1942, 974, 1015, 923, 1147
1943, 557, 545, 673, 1075
1944, 355, 353, 350, 1042
1945, 281, 209, 951, 1067
1946, 992, 1037, 411, 1194
1947, 221, 1064, 279, 1155
1948, 844, 974, 379, 1147
1949, 294, 325, 176, 976
1950, 899, 1025, 958, 1215
1951, 616, 582, 964, 1108
1952, 829, 951, 893, 1221
1953, 241, 239, 274, 1143
1954, 380, 881, 488, 1120
1955, 900, 953, 1170, 1236
1956, 312, 1014, 237, 1176
1957, 464, 958, 469, 1111
1958, 958, 1044, 943, 1069
1959, 596, 381, 480, 1037
1960, 885, 795, 794, 1012
1961, 450, 518, 1043, 1167
1962, 746, 280, 982, 1221
1963, 1037, 1145, 381, 1194
1964, 952, 1178, 468, 1192
1965, 308, 233, 235, 1022
1966, 687, 589, 179, 1117
1967, 739, 174, 1039, 1085
1968, 430, 1003, 503, 1139
1969, 608, 1004, 603, 1099
1970, 270, 216, 214, 990
1971, 501, 473, 1147, 1210
1972, 597, 383, 712, 1134
1973, 808, 858, 1140, 1150
1974, 782, 1036, 838, 1125
1975, 947, 1018, 983, 1189
1976, 723, 1136, 1100, 1180
1977, 976, 1144, 1062, 1222
1978, 525, 1030, 985, 1201
1979, 943, 958, 1069, 1111
1980, 700, 969, 723, 1136
1981, 693, 704, 576, 1143
1982, 320, 319, 248, 1052
1983, 871, 770, 776, 1015
1984, 652, 723, 700, 969
1985, 915, 1164, 1014, 1176
1986, 595, 612, 614, 1187
1987, 972, 1049, 1009, 1207
1988, 764, 1020, 1006, 1220
1989, 951, 1148, 893, 1221
1990, 851, 876, 824, 1044
1991, 1028, 1066, 940, 1137
1992, 193, 303, 304, 1159
1993, 500, 969, 700, 1136
1994, 1031, 1061, 912, 1092
1995, 944, 1061, 1031, 1092
1996, 520, 969, 519, 1136
1997, 248, 1071, 246, 1193
1998, 994, 1067, 940, 1240
1999, 469, 958, 464, 1192
2000, 416, 414, 415, 1008
2001, 771, 1063, 833, 1141
2002, 556, 1051, 954, 1168
2003, 1067, 1148, 348, 1208
2004, 628, 986, 1101, 1146
2005, 842, 898, 843, 1112
2006, 627, 693, 1029, 1122
2007, 927, 988, 1081, 1160
2008, 229, 228, 1121, 1135
2009, 576, 704, 702, 1128
2010, 176, 1123, 976, 1216
2011, 941, 1070, 974, 1141
2012, 383, 597, 679, 1134
2013, 519, 969, 500, 1136
2014, 814, 813, 812, 1049
2015, 679, 506, 383, 1134
2016, 843, 898, 887, 1054
2017, 769, 870, 872, 976
2018, 388, 969, 519, 1133
2019, 281, 951, 209, 1221
2020, 946, 1059, 950, 1107
2021, 672, 673, 959, 1075
2022, 596, 670, 381, 1037
2023, 861, 863, 815, 973
2024, 628, 1101, 706, 1146
2025, 607, 981, 708, 1096
2026, 703, 574, 173, 1146
2027, 387, 445, 474, 1021
2028, 310, 311, 185, 1168
2029, 1001, 1131, 455, 1179
2030, 575, 967, 668, 1142
2031, 944, 1092, 1031, 1213
2032, 628, 1128, 986, 1146
2033, 923, 1147, 1110, 1210
2034, 704, 628, 702, 1128
2035, 639, 686, 593, 1121
2036, 1056, 1104, 920, 1174
2037, 1095, 1110, 996, 1241
2038, 413, 379, 492, 974
2039, 957, 1105, 1024, 1227
2040, 910, 1080, 1034, 1124
2041, 753, 275, 972, 1157
2042, 929, 978, 1104, 1174
2043, 1032, 1101, 1024, 1183
2044, 1009, 1104, 920, 1196
2045, 525, 985, 462, 1201
2046, 520, 519, 500, 1136
2047, 781, 780, 779, 996
2048, 560, 542, 566, 1114
2049, 814, 817, 816, 1009
2050, 356, 348, 1067, 1148
2051, 979, 990, 902, 1056
2052, 933, 990, 979, 1056
2053, 940, 1066, 1053, 1137
2054, 935, 1175, 1010, 1217
2055, 955, 1058, 979, 1205
2056, 741, 470, 375, 1119
2057, 925, 950, 1059, 1097
2058, 786, 788, 791, 1005
2059, 812, 810, 860, 1049
2060, 686, 195, 593, 1121
2061, 174, 314, 1039, 1085
2062, 779, 778, 777, 996
2063, 295, 865, 739, 1039
2064, 800, 1171, 1086, 1217
2065, 514, 1041, 412, 1209
2066, 792, 1163, 789, 1165
2067, 565, 1109, 1224, 1231
2068, 972, 1157, 1084, 1207
2069, 956, 1093, 1005, 1230
2070, 1100, 1136, 969, 1202
2071, 900, 996, 987, 1241
2072, 974, 1081, 941, 1141
2073, 583, 202, 725, 1053
2074, 698, 652, 700, 969
2075, 981, 999, 930, 1116
2076, 801, 857, 1010, 1217
2077, 800, 968, 802, 1171
2078, 949, 1024, 1101, 1183
2079, 471, 455, 1131, 1154
2080, 475, 1003, 428, 1105
2081, 469, 1111, 958, 1119
2082, 926, 1049, 1161, 1188
2083, 639, 1121, 989, 1129
2084, 437, 435, 1019, 1212
2085, 867, 739, 1039, 1085
2086, 836, 954, 835, 1168
2087, 913, 970, 1137, 1206
2088, 884, 787, 751, 966
2089, 696, 668, 575, 967
2090, 813, 972, 816, 1157
2091, 842, 1112, 843, 1178
2092, 451, 452, 1017, 1043
2093, 637, 989, 638, 1094
2094, 986, 998, 936, 1237
2095, 1010, 1175, 916, 1217
2096, 965, 1014, 903, 1164
2097, 802, 756, 968, 1159
2098, 260, 999, 258, 1116
2099, 811, 1049, 1138, 1188
2100, 706, 621, 675, 1032
2101, 995, 1181, 1084, 1207
2102, 503, 1003, 475, 1149
2103, 659, 960, 1078, 1214
2104, 917, 1136, 1100, 1202
2105, 608, 670, 1037, 1145
2106, 303, 968, 288, 1171
2107, 991, 1075, 959, 1233
2108, 1021, 1140, 928, 1150
2109, 1084, 1157, 920, 1207
2110, 881, 745, 488, 1120
2111, 719, 1028, 363, 1226
2112, 267, 249, 277, 1102
2113, 176, 976, 325, 1216
2114, 829, 827, 982, 1221
2115, 249, 277, 1074, 1193
2116, 189, 274, 576, 1128
2117, 637, 989, 1094, 1129
2118, 450, 1043, 448, 1167
2119, 299, 227, 276, 1135
2120, 749, 806, 1060, 1113
2121, 594, 692, 175, 1102
2122, 366, 364, 1028, 1240
2123, 411, 1037, 381, 1194
2124, 933, 1084, 1056, 1207
2125, 217, 218, 219, 1084
2126, 755, 1151, 885, 1212
2127, 850, 830, 1091, 1232
2128, 775, 974, 774, 1147
2129, 815, 861, 973, 1118
2130, 623, 1033, 624, 1101
2131, 453, 451, 973, 1154
2132, 450, 448, 518, 1167
2133, 486, 591, 988, 1145
2134, 413, 974, 492, 1141
2135, 928, 1045, 971, 1140
2136, 660, 589, 1117, 1205
2137, 987, 1210, 1098, 1241
2138, 444, 1045, 512, 1172
2139, 903, 1029, 965, 1164
2140, 1081, 1160, 1008, 1225
2141, 210, 1117, 179, 1205
2142, 964, 1073, 984, 1132
2143, 912, 1031, 1092, 1213
2144, 479, 980, 750, 1165
2145, 1062, 1144, 919, 1222
2146, 484, 394, 429, 966
2147, 466, 952, 468, 1192
2148, 971, 1047, 928, 1140
2149, 1044, 1215, 826, 1232
2150, 475, 1149, 1003, 1162
2151, 543, 556, 555, 1168
2152, 776, 1015, 775, 1095
2153, 652, 969, 698, 1177
2154, 954, 1051, 311, 1168
2155, 195, 284, 593, 1121
2156, 753, 972, 813, 1157
2157, 209, 207, 208, 1013
2158, 841, 778, 780, 996
2159, 978, 1104, 878, 1131
2160, 327, 1153, 1051, 1223
2161, 742, 855, 191, 1072
2162, 269, 225, 1011, 1107
2163, 1055, 1099, 927, 1160
2164, 989, 1121, 997, 1129
2165, 639, 640, 989, 1083
2166, 202, 583, 197, 1053
2167, 802, 803, 804, 1047
2168, 1109, 1209, 921, 1231
2169, 969, 1133, 698, 1177
2170, 878, 817, 886, 1104
2171, 1075, 1233, 991, 1234
2172, 911, 1103, 1080, 1242
2173, 801, 799, 857, 1217
2174, 495, 517, 386, 1002
2175, 505, 434, 483, 1050
2176, 956, 1023, 909, 1071
2177, 449, 1043, 1118, 1198
2178, 964, 1126, 616, 1132
2179, 991, 1077, 954, 1186
2180, 823, 1091, 1068, 1232
2181, 229, 230, 997, 1121
2182, 299, 1060, 1011, 1113
2183, 423, 425, 424, 1031
2184, 1002, 1097, 925, 1219
2185, 1021, 1118, 926, 1198
2186, 885, 795, 1012, 1217
2187, 415, 409, 482, 1081
2188, 746, 982, 827, 1221
2189, 628, 623, 706, 1101
2190, 859, 738, 831, 971
2191, 597, 680, 679, 1134
2192, 1002, 1142, 934, 1172
2193, 827, 1215, 982, 1232
2194, 435, 433, 434, 1050
2195, 390, 973, 451, 1154
2196, 823, 1068, 824, 1232
2197, 819, 878, 978, 1104
2198, 413, 379, 974, 1147
2199, 798, 800, 1086, 1217
2200, 279, 298, 590, 1064
2201, 929, 1009, 973, 1196
2202, 353, 1042, 365, 1218
2203, 231, 303, 229, 997
2204, 281, 356, 1067, 1148
2205, 281, 1067, 951, 1148
2206, 989, 1197, 1083, 1200
2207, 803, 831, 858, 1047
2208, 756, 849, 802, 968
2209, 694, 722, 636, 1094
2210, 869, 786, 791, 1093
2211, 720, 699, 573, 1002
2212, 175, 254, 1102, 1127
2213, 426, 427, 1031, 1105
2214, 357, 339, 366, 1066
2215, 311, 1051, 185, 1168
2216, 323, 976, 294, 1144
2217, 949, 1101, 1032, 1183
2218, 416, 988, 415, 1187
2219, 315, 191, 855, 1072
2220, 774, 974, 844, 1147
2221, 976, 1062, 999, 1222
2222, 910, 1030, 970, 1124
2223, 1014, 1164, 936, 1176
2224, 312, 237, 240, 1176
2225, 910, 985, 970, 1030
2226, 927, 1160, 1081, 1225
2227, 247, 173, 1074, 1193
2228, 625, 986, 704, 1122
2229, 254, 993, 251, 1102
2230, 952, 1042, 994, 1156
2231, 328, 1153, 327, 1223
2232, 971, 1010, 935, 1175
2233, 628, 986, 623, 1101
2234, 927, 1055, 1160, 1225
2235, 774, 754, 974, 1141
2236, 660, 661, 1034, 1124
2237, 802, 804, 756, 1159
2238, 640, 989, 1083, 1200
2239, 323, 325, 294, 976
2240, 233, 234, 1022, 1089
2241, 451, 973, 472, 1118
2242, 912, 1032, 1024, 1183
2243, 307, 335, 183, 1027
2244, 667, 197, 583, 1053
2245, 456, 454, 521, 1179
2246, 686, 195, 1121, 1129
2247, 926, 1118, 1021, 1161
2248, 666, 725, 730, 1066
2249, 782, 781, 1036, 1125
2250, 606, 708, 607, 981
2251, 749, 806, 809, 1060
2252, 1035, 1065, 937, 1094
2253, 264, 328, 327, 1223
2254, 920, 1056, 1084, 1207
2255, 279, 590, 676, 1064
2256, 399, 759, 405, 1063
2257, 1013, 1103, 982, 1242
2258, 975, 1011, 946, 1060
2259, 1056, 1100, 933, 1202
2260, 960, 910, 1034, 1090
2261, 885, 799, 795, 1217
2262, 899, 1013, 1215, 1242
2263, 967, 1166, 668, 1200
2264, 1003, 1105, 957, 1227
2265, 435, 980, 479, 1165
2266, 919, 1144, 1062, 1191
2267, 474, 445, 447, 1021
2268, 291, 674, 182, 1058
2269, 337, 265, 271, 1116
2270, 294, 976, 870, 1144
2271, 703, 173, 272, 1146
2272, 626, 1087, 669, 1149
2273, 795, 798, 1012, 1217
2274, 215, 216, 217, 1084
2275, 553, 555, 550, 1077
2276, 824, 1068, 1044, 1232
2277, 815, 973, 863, 1154
2278, 639, 641, 640, 1083
2279, 702, 1128, 628, 1146
2280, 911, 1048, 1080, 1103
2281, 984, 993, 924, 1127
2282, 608, 689, 670, 1145
2283, 466, 384, 468, 1042
2284, 275, 219, 180, 972
2285, 637, 639, 638, 989
2286, 319, 318, 246, 1071
2287, 461, 1111, 469, 1119
2288, 965, 1014, 936, 1143
2289, 937, 1022, 965, 1152
2290, 911, 982, 1103, 1242
2291, 694, 668, 1166, 1200
2292, 281, 345, 356, 1148
2293, 979, 990, 933, 1058
2294, 469, 1178, 958, 1192
2295, 906, 1057, 1003, 1227
2296, 564, 566, 1041, 1234
2297, 987, 996, 944, 1120
2298, 992, 1041, 939, 1204
2299, 848, 885, 794, 980
2300, 737, 187, 868, 1023
2301, 988, 927, 1145, 1160
2302, 964, 1061, 912, 1108
2303, 336, 201, 278, 1066
2304, 655, 979, 656, 1180
2305, 931, 1203, 1098, 1210
2306, 730, 1028, 724, 1137
2307, 348, 360, 341, 1148
2308, 670, 381, 1037, 1145
2309, 269, 1011, 299, 1060
2310, 927, 1081, 1055, 1225
2311, 738, 831, 971, 1140
2312, 262, 261, 260, 1007
2313, 221, 290, 298, 1064
2314, 187, 737, 296, 1023
2315, 899, 958, 1069, 1215
2316, 455, 1154, 453, 1179
2317, 914, 1035, 962, 1088
2318, 206, 1048, 212, 1103
2319, 623, 625, 624, 1033
2320, 753, 813, 816, 1157
2321, 971, 935, 1016, 1175
2322, 987, 1110, 996, 1120
2323, 870, 769, 871, 976
2324, 736, 862, 883, 1021
2325, 929, 973, 1017, 1196
2326, 973, 1043, 926, 1118
2327, 1003, 1057, 918, 1139
2328, 912, 1073, 964, 1108
2329, 475, 428, 491, 1105
2330, 298, 1064, 290, 1211
2331, 307, 328, 335, 1223
2332, 627, 1029, 629, 1122
2333, 914, 1065, 1035, 1094
2334, 922, 999, 976, 1216
2335, 742, 1072, 191, 1144
2336, 353, 340, 365, 1042
2337, 981, 1115, 999, 1116
2338, 941, 1141, 1081, 1199
2339, 894, 772, 845, 1077
2340, 923, 1110, 987, 1210
2341, 871, 870, 976, 1144
2342, 473, 987, 489, 1110
2343, 229, 228, 230, 1121
2344, 702, 703, 272, 1146
2345, 994, 1208, 1067, 1240
2346, 612, 681, 988, 1187
2347, 962, 1029, 918, 1087
2348, 960, 1046, 910, 1090
2349, 640, 639, 989, 1200
2350, 767, 774, 770, 1070
2351, 278, 201, 202, 1053
2352, 936, 1014, 965, 1164
2353, 839, 813, 972, 1138
2354, 750, 980, 794, 1165
2355, 538, 461, 469, 1119
2356, 316, 188, 295, 1039
2357, 860, 862, 1118, 1161
2358, 1025, 1054, 951, 1208
2359, 928, 1045, 1140, 1239
2360, 866, 791, 865, 1039
2361, 759, 399, 833, 1063
2362, 451, 450, 452, 1043
2363, 511, 497, 967, 1166
2364, 958, 1156, 985, 1192
2365, 342, 359, 366, 1066
2366, 503, 430, 475, 1003
2367, 911, 1068, 963, 1091
2368, 999, 1115, 258, 1116
2369, 205, 207, 203, 1013
2370, 978, 1001, 929, 1131
2371, 473, 419, 489, 987
2372, 1092, 1183, 1052, 1236
2373, 964, 1098, 420, 1126
2374, 219, 180, 972, 1138
2375, 951, 1148, 1067, 1208
2376, 908, 1018, 1038, 1219
2377, 913, 1137, 1028, 1206
2378, 467, 1042, 466, 1192
2379, 775, 770, 774, 1015
2380, 710, 182, 674, 1058
2381, 919, 1095, 1072, 1170
2382, 637, 636, 635, 1094
2383, 421, 419, 420, 1098
2384, 342, 366, 364, 1028
2385, 937, 1065, 1022, 1089
2386, 1022, 1065, 916, 1089
2387, 878, 822, 819, 978
2388, 389, 441, 971, 1151
2389, 858, 805, 1047, 1150
2390, 909, 956, 1071, 1230
2391, 941, 992, 1158, 1199
2392, 1079, 1218, 913, 1226
2393, 678, 1102, 984, 1127
2394, 341, 348, 1148, 1208
2395, 678, 692, 1102, 1127
2396, 525, 985, 1030, 1134
2397, 414, 1008, 416, 1210
2398, 934, 1038, 1018, 1219
2399, 594, 678, 692, 1102
2400, 241, 1128, 998, 1176
2401, 636, 632, 635, 1035
2402, 988, 1008, 931, 1187
2403, 247, 245, 173, 1193
2404, 995, 1084, 933, 1207
2405, 419, 421, 489, 987
2406, 356, 345, 348, 1148
2407, 831, 859, 971, 1151
2408, 457, 1046, 459, 1130
2409, 932, 1011, 975, 1113
2410, 275, 219, 972, 1157
2411, 987, 923, 1210, 1241
2412, 410, 412, 992, 1209
2413, 413, 407, 409, 1081
2414, 210, 292, 179, 1117
2415, 961, 1040, 915, 1085
2416, 238, 312, 301, 1085
2417, 1065, 1185, 1094, 1197
2418, 934, 1018, 1002, 1219
2419, 822, 978, 878, 1131
2420, 854, 953, 1125, 1173
2421, 413, 501, 379, 1147
2422, 787, 786, 785, 1093
2423, 220, 221, 222, 995
2424, 476, 971, 441, 1140
2425, 922, 1070, 1006, 1220
2426, 740, 282, 198, 1020
2427, 627, 693, 630, 1029
2428, 930, 981, 1099, 1160
2429, 908, 1097, 1018, 1219
2430, 915, 1057, 1005, 1163
2431, 963, 1048, 911, 1091
2432, 1052, 1092, 909, 1183
2433, 933, 1064, 1000, 1100
2434, 784, 1036, 785, 1093
2435, 801, 1010, 800, 1217
2436, 914, 1175, 1016, 1228
2437, 280, 208, 982, 1221
2438, 943, 1044, 958, 1119
2439, 220, 222, 223, 1107
2440, 639, 989, 637, 1129
2441, 630, 631, 629, 1029
2442, 254, 1062, 255, 1191
2443, 593, 1121, 284, 1189
2444, 690, 678, 615, 984
2445, 775, 774, 844, 1147
2446, 940, 1066, 1028, 1240
2447, 884, 789, 787, 966
2448, 286, 983, 586, 1189
2449, 418, 1126, 1098, 1187
2450, 929, 1104, 1009, 1196
2451, 763, 740, 198, 1020
2452, 704, 625, 628, 986
2453, 767, 1070, 765, 1220
2454, 304, 968, 303, 1171
2455, 719, 342, 363, 1028
2456, 444, 442, 512, 1045
2457, 856, 793, 796, 1040
2458, 699, 647, 697, 1097
2459, 757, 855, 841, 1072
2460, 678, 984, 690, 1127
2461, 906, 998, 986, 1237
2462, 208, 285, 181, 982
2463, 917, 1100, 1056, 1202
2464, 632, 722, 631, 1035
2465, 918, 1050, 962, 1087
2466, 753, 839, 813, 972
2467, 689, 604, 611, 1099
2468, 933, 1100, 1000, 1202
2469, 457, 458, 459, 1046
2470, 800, 744, 1086, 1171
2471, 680, 597, 671, 1134
2472, 475, 430, 428, 1003
2473, 941, 1081, 974, 1225
2474, 674, 657, 1058, 1205
2475, 553, 565, 1077, 1224
2476, 1065, 1094, 914, 1197
2477, 965, 1029, 936, 1164
2478, 1100, 1136, 917, 1180
2479, 655, 674, 657, 1058
2480, 930, 1099, 981, 1116
2481, 607, 604, 606, 981
2482, 411, 410, 412, 992
2483, 802, 968, 849, 1171
2484, 926, 1021, 977, 1182
2485, 646, 648, 647, 1097
2486, 321, 253, 315, 1072
2487, 381, 411, 480, 1037
2488, 1065, 1089, 937, 1185
2489, 689, 608, 603, 1099
2490, 603, 605, 601, 1004
2491, 807, 975, 806, 1150
2492, 900, 993, 984, 1236
2493, 880, 393, 470, 1130
2494, 594, 175, 267, 1102
2495, 1104, 1106, 920, 1174
2496, 929, 1131, 1001, 1179
2497, 525, 465, 985, 1134
2498, 269, 223, 225, 1107
2499, 687, 660, 589, 1117
2500, 1004, 1037, 608, 1238
2501, 453, 390, 451, 1154
2502, 462, 985, 464, 1111
2503, 542, 564, 566, 1041
2504, 822, 821, 819, 978
2505, 996, 1110, 987, 1241
2506, 197, 667, 292, 1117
2507, 650, 676, 1064, 1155
2508, 244, 998, 242, 1195
2509, 707, 190, 1115, 1116
2510, 577, 337, 271, 1116
2511, 907, 1008, 1160, 1225
2512, 653, 655, 654, 1100
2513, 279, 1064, 676, 1155
2514, 829, 746, 827, 1221
2515, 923, 1095, 1026, 1241
2516, 427, 425, 426, 1031
2517, 760, 875, 536, 1178
2518, 702, 272, 189, 1146
2519, 928, 1021, 977, 1239
2520, 184, 336, 317, 1067
2521, 702, 189, 1128, 1146
2522, 937, 1094, 1065, 1185
2523, 406, 1141, 1063, 1199
2524, 625, 1033, 986, 1122
2525, 952, 958, 1178, 1192
2526, 208, 205, 285, 1103
2527, 530, 1112, 842, 1178
2528, 715, 1136, 723, 1180
2529, 412, 514, 481, 1041
2530, 493, 422, 420, 1108
2531, 623, 628, 625, 986
2532, 655, 656, 654, 1180
2533, 220, 1107, 223, 1181
2534, 958, 1111, 943, 1119
2535, 923, 1110, 1095, 1241
2536, 620, 1082, 718, 1108
2537, 367, 343, 527, 384
2538, 690, 708, 579, 1127
2539, 989, 997, 904, 1185
2540, 429, 431, 484, 966
2541, 710, 1058, 655, 1211
2542, 798, 800, 744, 1086
2543, 463, 526, 1030, 1090
2544, 592, 1088, 694, 1166
2545, 945, 1052, 1183, 1236
2546, 623, 624, 622, 1101
2547, 1041, 1114, 939, 1234
2548, 593, 284, 684, 1189
2549, 648, 646, 711, 1155
2550, 285, 206, 212, 1103
2551, 936, 998, 986, 1128
2552, 952, 1112, 468, 1178
2553, 696, 668, 967, 1166
2554, 427, 485, 1076, 1184
2555, 977, 1021, 926, 1198
2556, 790, 867, 788, 1163
2557, 515, 512, 1142, 1172
2558, 376, 580, 499, 1078
2559, 441, 439, 440, 1016
2560, 916, 1089, 1065, 1185
2561, 947, 997, 989, 1121
2562, 406, 399, 1063, 1141
2563, 713, 1030, 578, 1090
2564, 972, 1049, 946, 1138
2565, 451, 472, 449, 1118
2566, 488, 745, 400, 1120
2567, 998, 1128, 936, 1176
2568, 776, 770, 775, 1015
2569, 1013, 982, 1215, 1242
2570, 1018, 1097, 1002, 1219
2571, 391, 578, 526, 1090
2572, 258, 999, 1062, 1115
2573, 939, 1037, 1004, 1238
2574, 464, 1111, 985, 1192
2575, 844, 774, 754, 974
2576, 239, 237, 236, 1014
2577, 568, 552, 549, 1234
2578, 948, 1093, 1036, 1213
2579, 463, 526, 516, 1030
2580, 1002, 1167, 517, 1172
2581, 415, 486, 988, 1145
2582, 852, 771, 833, 1141
2583, 663, 665, 671, 970
2584, 693, 627, 704, 1122
2585, 804, 1113, 847, 1159
2586, 611, 612, 681, 988
2587, 629, 626, 627, 1122
2588, 515, 1002, 517, 1172
2589, 868, 1023, 187, 1173
2590, 323, 255, 1062, 1191
2591, 578, 391, 717, 1090
2592, 380, 488, 424, 1120
2593, 685, 631, 722, 1088
2594, 418, 417, 416, 1210
2595, 465, 467, 466, 1192
2596, 875, 834, 876, 1119
2597, 985, 910, 1069, 1111
2598, 529, 542, 481, 1041
2599, 377, 848, 980, 1212
2600, 716, 499, 580, 1078
2601, 436, 437, 435, 1019
2602, 710, 182, 1058, 1211
2603, 1098, 1126, 931, 1187
2604, 568, 1075, 552, 1234
2605, 945, 1183, 1092, 1236
2606, 284, 178, 684, 1189
2607, 540, 553, 565, 1077
2608, 912, 1024, 1031, 1213
2609, 730, 719, 724, 1028
2610, 626, 629, 669, 1087
2611, 374, 497, 145, 696
2612, 489, 1110, 987, 1120
2613, 626, 721, 1033, 1149
2614, 422, 421, 420, 1061
2615, 722, 694, 592, 1088
2616, 881, 488, 118, 380
2617, 797, 785, 1076, 1184
2618, 881, 783, 781, 1076
2619, 245, 1193, 1071, 1195
2620, 919, 993, 1170, 1191
2621, 985, 913, 1134, 1156
2622, 433, 435, 479, 1165
2623, 179, 292, 76, 687
2624, 368, 352, 1067, 1240
2625, 399, 833, 1063, 1141
2626, 829, 827, 828, 1025
2627, 389, 439, 441, 1151
2628, 970, 1030, 985, 1134
2629, 591, 611, 988, 1145
2630, 832, 792, 789, 1165
2631, 796, 877, 856, 1085
2632, 872, 870, 18, 176
2633, 1024, 1031, 948, 1105
2634, 400, 745, 846, 1120
2635, 771, 766, 768, 1006
2636, 379, 492, 754, 122
2637, 964, 1132, 984, 1203
2638, 508, 505, 498, 1088
2639, 455, 471, 453, 1154
2640, 809, 1060, 975, 1188
2641, 697, 1097, 647, 1177
2642, 494, 1082, 507, 1108
2643, 936, 1057, 1164, 1237
2644, 861, 104, 863, 472
2645, 987, 1098, 1203, 1241
2646, 692, 175, 1102, 1127
2647, 425, 427, 485, 1076
2648, 412, 481, 402, 1114
2649, 851, 824, 821, 1068
2650, 926, 1118, 1043, 1198
2651, 114, 484, 832, 884
2652, 864, 808, 858, 1140
2653, 921, 1224, 1109, 1231
2654, 291, 74, 182, 674
2655, 539, 558, 566, 1114
2656, 803, 805, 804, 1047
2657, 886, 815, 863, 1154
2658, 1003, 918, 1057, 1237
2659, 758, 1110, 777, 1147
2660, 887, 828, 843, 1025
2661, 243, 1128, 1146, 1195
2662, 368, 349, 352, 1240
2663, 219, 1138, 972, 1181
2664, 391, 578, 136, 526
2665, 337, 577, 183, 1027
2666, 792, 1040, 793, 1163
2667, 500, 388, 140, 698
2668, 286, 586, 69, 1189
2669, 406, 407, 1141, 1199
2670, 667, 687, 292, 1117
2671, 774, 852, 754, 1141
2672, 495, 386, 142, 720
2673, 616, 618, 582, 1108
2674, 755, 857, 885, 1151
2675, 176, 870, 18, 294
2676, 839, 811, 813, 1138
2677, 954, 1051, 991, 1169
2678, 470, 538, 375, 1119
2679, 906, 1003, 1057, 1237
2680, 818, 816, 817, 1104
2681, 684, 593, 68, 284
2682, 578, 713, 712, 1030
2683, 380, 424, 425, 1076
2684, 731, 609, 610, 1114
2685, 858, 805, 803, 1047
2686, 709, 577, 271, 1116
2687, 222, 221, 279, 1155
2688, 207, 205, 208, 1013
2689, 573, 495, 142, 720
2690, 660, 662, 661, 1124
2691, 235, 234, 236, 1022
2692, 395, 431, 433, 1165
2693, 783, 782, 781, 1036
2694, 28, 309, 301, 840
2695, 855, 20, 742, 191
2696, 264, 327, 263, 1223
2697, 765, 769, 872, 1123
2698, 193, 31, 756, 304
2699, 578, 391, 136, 717
2700, 457, 1130, 393, 1131
2701, 446, 1172, 977, 1239
2702, 513, 340, 367, 1042
2703, 583, 725, 666, 1053
2704, 494, 153, 396, 1082
2705, 1026, 1095, 919, 1241
2706, 295, 188, 25, 865
2707, 1086, 1171, 916, 1217
2708, 389, 441, 476, 971
2709, 525, 465, 462, 985
2710, 175, 254, 251, 1102
2711, 241, 998, 242, 1176
2712, 878, 743, 1131, 1154
2713, 292, 197, 77, 667
2714, 518, 517, 1133, 1167
2715, 399, 405, 759, 124
2716, 191, 855, 20, 315
2717, 638, 1094, 989, 1200
2718, 226, 983, 286, 1189
2719, 1033, 1149, 721, 1162
2720, 711, 70, 194, 286
2721, 275, 217, 219, 1157
2722, 374, 512, 511, 1142
2723, 106, 736, 883, 474
2724, 70, 711, 586, 286
2725, 643, 586, 983, 1189
2726, 800, 802, 849, 1171
2727, 258, 999, 257, 1062
2728, 784, 838, 782, 1036
2729, 386, 496, 143, 701
2730, 742, 853, 1072, 1144
2731, 593, 686, 67, 195
2732, 818, 1106, 873, 1157
2733, 700, 500, 140, 698
2734, 651, 649, 1000, 1177
2735, 446, 977, 445, 1239
2736, 750, 848, 794, 980
2737, 174, 295, 26, 739
2738, 24, 188, 296, 866
2739, 279, 221, 298, 1064
2740, 866, 25, 188, 865
2741, 376, 499, 580, 138
2742, 952, 1042, 1156, 1192
2743, 433, 432, 1050, 1139
2744, 523, 1046, 1090, 1201
2745, 145, 374, 696, 575
2746, 750, 377, 112, 848
2747, 864, 883, 808, 1021
2748, 617, 615, 678, 984
2749, 1068, 1091, 911, 1232
2750, 394, 484, 115, 884
2751, 755, 885, 848, 1212
2752, 456, 458, 457, 1001
2753, 286, 69, 178, 1189
2754, 709, 602, 577, 1116
2755, 484, 395, 114, 832
2756, 850, 40, 752, 1091
2757, 581, 287, 1129, 1152
2758, 1011, 1060, 975, 1113
2759, 529, 385, 563, 1231
2760, 906, 1227, 1024, 1230
2761, 859, 109, 738, 389
2762, 299, 225, 227, 1011
2763, 699, 697, 573, 1133
2764, 575, 668, 695, 1142
2765, 798, 840, 796, 1086
2766, 391, 717, 716, 137
2767, 305, 40, 850, 1091
2768, 494, 718, 153, 1082
2769, 586, 684, 69, 1189
2770, 68, 684, 284, 178
2771, 984, 1102, 993, 1127
2772, 498, 148, 587, 397
2773, 298, 590, 72, 279
2774, 31, 849, 756, 304
2775, 348, 368, 1067, 1208
2776, 160, 596, 381, 480
2777, 428, 429, 427, 1105
2778, 64, 186, 677, 714
2779, 181, 280, 208, 982
2780, 650, 648, 676, 1155
2781, 488, 881, 118, 745
2782, 597, 383, 679, 133
2783, 445, 446, 447, 977
2784, 383, 506, 679, 133
2785, 398, 988, 681, 1187
2786, 499, 391, 716, 137
2787, 925, 1167, 1002, 1219
2788, 701, 143, 386, 720
2789, 58, 267, 705, 594
2790, 296, 187, 23, 737
2791, 588, 396, 502, 152
2792, 396, 153, 634, 1082
2793, 994, 1156, 1042, 1218
2794, 783, 797, 785, 1076
2795, 233, 234, 235, 1022
2796, 499, 716, 580, 138
2797, 884, 115, 394, 751
2798, 306, 1106, 215, 1157
2799, 710, 182, 74, 674
2800, 57, 692, 175, 594
2801, 815, 860, 861, 1118
2802, 1078, 1136, 715, 1180
2803, 632, 636, 722, 1035
2804, 958, 985, 1069, 1111
2805, 490, 473, 1110, 1147
2806, 112, 479, 377, 750
2807, 703, 272, 61, 702
2808, 486, 591, 158, 398
2809, 882, 748, 346, 1054
2810, 737, 187, 23, 868
2811, 67, 593, 195, 284
2812, 806, 807, 809, 975
2813, 642, 644, 645, 1018
2814, 526, 516, 578, 135
2815, 977, 1167, 446, 1198
2816, 737, 24, 296, 866
2817, 614, 616, 1126, 1132
2818, 432, 430, 503, 1139
2819, 314, 295, 174, 1039
2820, 1153, 1169, 1051, 1223
2821, 877, 28, 301, 840
2822, 682, 1075, 672, 1238
2823, 959, 1169, 1153, 1223
2824, 702, 189, 62, 576
2825, 920, 1009, 1196, 1207
2826, 712, 578, 516, 135
2827, 266, 752, 40, 1091
2828, 348, 368, 356, 1067
2829, 833, 399, 759, 124
2830, 406, 407, 399, 1141
2831, 305, 266, 40, 1091
2832, 405, 404, 773, 125
2833, 107, 883, 864, 474
2834, 860, 862, 736, 1118
2835, 881, 781, 745, 1120
2836, 865, 26, 295, 739
2837, 400, 846, 1110, 1120
2838, 634, 153, 718, 1082
2839, 925, 1133, 1002, 1167
2840, 321, 315, 21, 757
2841, 640, 1083, 695, 1200
2842, 712, 516, 383, 134
2843, 935, 1019, 980, 1212
2844, 495, 518, 517, 1133
2845, 289, 1060, 293, 1138
2846, 76, 179, 687, 589
2847, 160, 596, 670, 381
2848, 945, 984, 1102, 1236
2849, 226, 224, 286, 983
2850, 974, 1070, 941, 1225
2851, 986, 1128, 998, 1195
2852, 620, 718, 618, 1108
2853, 986, 949, 1146, 1195
2854, 549, 991, 1233, 1234
2855, 653, 710, 655, 1211
2856, 588, 634, 396, 152
2857, 415, 988, 398, 1187
2858, 243, 998, 241, 1128
2859, 754, 844, 379, 122
2860, 407, 413, 492, 1141
2861, 315, 855, 21, 757
2862, 975, 1161, 807, 1188
2863, 488, 119, 400, 745
2864, 590, 676, 72, 279
2865, 646, 643, 586, 983
2866, 587, 629, 631, 1087
2867, 304, 303, 288, 1171
2868, 228, 227, 226, 1135
2869, 494, 507, 422, 1108
2870, 218, 995, 220, 1181
2871, 194, 224, 222, 1155
2872, 320, 1052, 250, 1235
2873, 692, 579, 56, 1127
2874, 917, 1179, 1017, 1196
2875, 768, 764, 1006, 1220
2876, 948, 1031, 1024, 1213
2877, 681, 158, 591, 398
2878, 247, 1074, 277, 1193
2879, 721, 624, 1033, 1162
2880, 463, 1030, 525, 1201
2881, 464, 469, 461, 1111
2882, 476, 441, 443, 1140
2883, 587, 685, 148, 498
2884, 398, 415, 486, 988
2885, 246, 1071, 245, 1193
2886, 249, 247, 277, 1193
2887, 490, 400, 120, 1110
2888, 405, 773, 759, 125
2889, 878, 886, 743, 1154
2890, 397, 505, 483, 1087
2891, 433, 432, 434, 1050
2892, 459, 1046, 460, 1111
2893, 193, 32, 300, 1159
2894, 599, 92, 719, 359
2895, 750, 794, 792, 1165
2896, 308, 1086, 177, 1171
2897, 701, 695, 645, 1142
2898, 210, 211, 206, 1048
2899, 605, 1004, 608, 1238
2900, 659, 1078, 1180, 1214
2901, 349, 1208, 994, 1240
2902, 243, 1128, 272, 1146
2903, 434, 432, 483, 1050
2904, 282, 1020, 740, 1123
2905, 908, 1038, 1182, 1219
2906, 638, 989, 639, 1200
2907, 529, 563, 1041, 1231
2908, 978, 1130, 1001, 1131
2909, 793, 1040, 790, 1163
2910, 684, 178, 69, 1189
2911, 918, 1033, 1003, 1149
2912, 667, 77, 292, 687
2913, 627, 630, 629, 1029
2914, 721, 624, 626, 1033
2915, 785, 784, 783, 1036
2916, 402, 596, 161, 480
2917, 574, 173, 60, 703
2918, 902, 979, 1056, 1190
2919, 847, 300, 32, 1159
2920, 756, 32, 193, 1159
2921, 655, 657, 656, 979
2922, 831, 857, 859, 1151
2923, 1003, 1033, 957, 1162
2924, 657, 656, 979, 1214
2925, 977, 1021, 928, 1182
2926, 280, 209, 208, 1221
2927, 651, 652, 649, 1177
2928, 809, 975, 807, 1188
2929, 993, 1102, 984, 1236
2930, 464, 462, 465, 985
2931, 541, 546, 185, 1051
2932, 792, 793, 790, 1163
2933, 836, 835, 761, 1168
2934, 772, 759, 771, 1063
2935, 383, 597, 712, 134
2936, 389, 109, 738, 476
2937, 322, 323, 1144, 1191
2938, 534, 468, 1178, 1192
2939, 288, 308, 177, 1171
2940, 756, 847, 32, 1159
2941, 867, 856, 739, 1085
2942, 324, 1020, 282, 1123
2943, 243, 242, 241, 998
2944, 273, 64, 186, 677
2945, 548, 1075, 568, 1233
2946, 842, 760, 530, 1178
2947, 777, 776, 775, 1095
2948, 937, 1094, 989, 1129
2949, 579, 707, 55, 190
2950, 608, 605, 603, 1004
2951, 748, 83, 882, 346
2952, 192, 1060, 299, 1113
2953, 242, 998, 243, 1195
2954, 423, 507, 426, 1031
2955, 874, 293, 34, 1060
2956, 197, 202, 78, 583
2957, 119, 846, 400, 745
2958, 731, 584, 682, 1075
2959, 191, 1072, 322, 1144
2960, 12, 562, 185, 546
2961, 192, 34, 293, 1060
2962, 306, 215, 217, 1157
2963, 823, 824, 825, 1232
2964, 525, 1030, 516, 1134
2965, 289, 269, 293, 1060
2966, 468, 1112, 530, 1178
2967, 808, 1150, 1021, 1161
2968, 581, 66, 686, 1129
2969, 490, 120, 758, 1110
2970, 577, 600, 183, 1027
2971, 790, 793, 856, 1040
2972, 275, 36, 753, 180
2973, 489, 400, 1110, 1120
2974, 879, 743, 102, 1131
2975, 816, 818, 873, 1157
2976, 390, 863, 104, 472
2977, 827, 982, 830, 1232
2978, 106, 736, 474, 373
2979, 538, 459, 461, 1111
2980, 324, 261, 263, 1007
2981, 749, 874, 34, 1060
2982, 274, 62, 189, 576
2983, 437, 1212, 1019, 1228
2984, 848, 111, 755, 1212
2985, 212, 211, 213, 1048
2986, 830, 827, 746, 982
2987, 447, 977, 446, 1198
2988, 233, 232, 234, 1089
2989, 619, 617, 691, 1073
2990, 749, 34, 192, 1060
2991, 377, 479, 435, 980
2992, 36, 839, 753, 180
2993, 581, 287, 66, 1129
2994, 810, 1161, 1049, 1188
2995, 574, 706, 675, 1074
2996, 410, 992, 411, 1194
2997, 243, 1146, 272, 1195
2998, 469, 534, 1178, 1192
2999, 582, 493, 155, 382
3000, 257, 999, 259, 1216
3001, 902, 1056, 990, 1174
3002, 920, 990, 1056, 1174
3003, 852, 767, 766, 1070
3004, 429, 394, 427, 1184
3005, 762, 82, 360, 882
3006, 185, 541, 11, 546
3007, 174, 312, 314, 1085
3008, 252, 993, 254, 1191
3009, 683, 582, 155, 382
3010, 699, 720, 645, 1002
3011, 269, 225, 299, 1011
3012, 926, 1161, 1021, 1182
3013, 309, 308, 238, 1086
3014, 302, 541, 185, 1051
3015, 626, 1033, 625, 1122
3016, 16, 740, 282, 198
3017, 760, 834, 875, 1178
3018, 468, 384, 527, 1112
3019, 271, 265, 260, 1116
3020, 779, 1110, 846, 1120
3021, 436, 1228, 1019, 1229
3022, 272, 189, 61, 702
3023, 865, 867, 739, 1039
3024, 567, 540, 892, 1077
3025, 740, 16, 763, 198
3026, 909, 1071, 1052, 1193
3027, 855, 742, 853, 1072
3028, 496, 515, 512, 1142
3029, 448, 1167, 1043, 1198
3030, 760, 536, 401, 1178
3031, 407, 408, 1081, 1199
3032, 387, 107, 864, 474
3033, 490, 501, 473, 1147
3034, 1006, 1020, 922, 1220
3035, 386, 517, 515, 1002
3036, 659, 1078, 715, 1180
3037, 459, 460, 461, 1111
3038, 322, 1144, 1072, 1191
3039, 84, 748, 362, 346
3040, 12, 562, 310, 185
3041, 911, 1080, 1069, 1242
3042, 731, 1075, 682, 1238
3043, 850, 41, 305, 830
3044, 517, 1167, 446, 1172
3045, 464, 985, 465, 1192
3046, 681, 591, 611, 988
3047, 306, 873, 38, 1106
3048, 610, 596, 161, 402
3049, 654, 723, 1100, 1180
3050, 614, 616, 683, 1126
3051, 910, 1090, 1046, 1201
3052, 1045, 1172, 444, 1239
3053, 889, 84, 748, 362
3054, 929, 1104, 978, 1131
3055, 417, 414, 416, 1210
3056, 655, 710, 674, 1058
3057, 203, 202, 197, 1053
3058, 747, 892, 540, 1077
3059, 1016, 1228, 440, 1229
3060, 463, 525, 462, 1201
3061, 705, 59, 574, 1074
3062, 1071, 1193, 949, 1195
3063, 758, 777, 775, 1147
3064, 841, 780, 854, 1125
3065, 267, 277, 58, 705
3066, 715, 1078, 580, 1136
3067, 579, 268, 56, 1127
3068, 457, 393, 455, 1131
3069, 846, 120, 400, 1110
3070, 1003, 1149, 1033, 1162
3071, 675, 691, 705, 1074
3072, 820, 821, 823, 1068
3073, 472, 451, 390, 973
3074, 181, 305, 41, 830
3075, 441, 442, 443, 1045
3076, 284, 1121, 228, 1189
3077, 986, 1146, 1128, 1195
3078, 852, 774, 767, 1070
3079, 541, 185, 11, 302
3080, 738, 858, 831, 1140
3081, 854, 782, 838, 1125
3082, 667, 197, 78, 583
3083, 808, 1021, 862, 1161
3084, 989, 1094, 937, 1185
3085, 199, 1148, 281, 1221
3086, 244, 242, 243, 1195
3087, 451, 452, 453, 1017
3088, 173, 272, 60, 703
3089, 696, 694, 668, 1166
3090, 388, 519, 518, 1133
3091, 462, 985, 1111, 1201
3092, 743, 471, 102, 1131
3093, 752, 196, 39, 837
3094, 529, 563, 542, 1041
3095, 483, 504, 1087, 1149
3096, 312, 240, 314, 1176
3097, 664, 1053, 666, 1137
3098, 618, 616, 617, 1073
3099, 920, 1196, 1056, 1207
3100, 887, 829, 828, 1025
3101, 407, 408, 409, 1081
3102, 220, 218, 221, 995
3103, 807, 1150, 808, 1161
3104, 230, 1121, 195, 1129
3105, 946, 1138, 1049, 1188
3106, 440, 1016, 439, 1228
3107, 848, 377, 111, 1212
3108, 833, 771, 759, 1063
3109, 751, 787, 785, 1184
3110, 922, 976, 1123, 1216
3111, 846, 758, 120, 1110
3112, 346, 341, 882, 1054
3113, 869, 737, 838, 1023
3114, 669, 504, 150, 1149
3115, 811, 812, 813, 1049
3116, 974, 1081, 1008, 1225
3117, 175, 692, 56, 1127
3118, 591, 689, 611, 1145
3119, 415, 482, 486, 1145
3120, 766, 1070, 767, 1220
3121, 267, 57, 175, 594
3122, 423, 424, 421, 1061
3123, 195, 66, 287, 1129
3124, 195, 686, 66, 1129
3125, 882, 893, 887, 1054
3126, 1003, 1033, 918, 1237
3127, 181, 42, 280, 746
3128, 230, 195, 232, 1129
3129, 245, 1071, 244, 1195
3130, 741, 880, 100, 470
3131, 580, 1078, 376, 1136
3132, 837, 38, 873, 1106
3133, 266, 196, 39, 752
3134, 812, 810, 1049, 1188
3135, 350, 994, 349, 1208
3136, 644, 642, 643, 1018
3137, 927, 1037, 992, 1194
3138, 467, 537, 513, 1042
3139, 330, 339, 184, 1067
3140, 755, 111, 477, 1212
3141, 337, 183, 265, 1027
3142, 513, 367, 384, 1042
3143, 511, 509, 497, 1166
3144, 150, 721, 669, 1149
3145, 515, 517, 446, 1172
3146, 551, 550, 549, 991
3147, 703, 706, 574, 1146
3148, 823, 825, 1091, 1232
3149, 1071, 1195, 949, 1230
3150, 838, 1023, 868, 1173
3151, 356, 330, 281, 1067
3152, 406, 1199, 1063, 1209
3153, 1015, 1070, 974, 1225
3154, 377, 980, 435, 1212
3155, 870, 19, 294, 1144
3156, 992, 1194, 410, 1199
3157, 239, 236, 186, 1143
3158, 446, 1167, 448, 1198
3159, 436, 438, 1228, 1229
3160, 557, 673, 729, 1075
3161, 196, 306, 38, 1106
3162, 804, 806, 847, 1113
3163, 557, 568, 548, 1075
3164, 550, 991, 551, 1224
3165, 667, 583, 664, 1053
3166, 470, 459, 538, 1130
3167, 1041, 1204, 992, 1209
3168, 948, 1076, 1031, 1213
3169, 1031, 1076, 944, 1213
3170, 378, 150, 504, 1149
3171, 619, 621, 620, 1032
3172, 946, 975, 1060, 1188
3173, 936, 1164, 1122, 1237
3174, 452, 453, 1017, 1179
3175, 997, 1121, 947, 1135
3176, 249, 1052, 248, 1193
3177, 900, 987, 1203, 1241
3178, 835, 764, 763, 1020
3179, 911, 1215, 982, 1242
3180, 150, 378, 721, 1149
3181, 463, 1090, 1030, 1201
3182, 269, 299, 192, 1060
3183, 588, 622, 624, 1162
3184, 985, 1030, 910, 1201
3185, 1026, 919, 1170, 1241
3186, 874, 1138, 1060, 1188
3187, 117, 380, 485, 1076
3188, 245, 246, 244, 1071
3189, 315, 322, 191, 1072
3190, 318, 244, 246, 1071
3191, 709, 271, 54, 1116
3192, 436, 437, 1019, 1228
3193, 268, 579, 55, 190
3194, 870, 742, 19, 1144
3195, 318, 319, 296, 1023
3196, 380, 117, 881, 1076
3197, 420, 1098, 418, 1126
3198, 746, 181, 42, 830
3199, 352, 339, 368, 1067
3200, 925, 1133, 969, 1177
3201, 768, 1006, 766, 1220
3202, 449, 448, 1043, 1198
3203, 482, 381, 1145, 1194
3204, 117, 485, 797, 1076
3205, 941, 1055, 1081, 1225
3206, 1032, 1074, 949, 1183
3207, 945, 1074, 1032, 1183
3208, 199, 281, 209, 1221
3209, 350, 351, 349, 994
3210, 918, 1122, 1164, 1237
3211, 409, 482, 1081, 1194
3212, 729, 584, 539, 1075
3213, 418, 1098, 417, 1210
3214, 818, 820, 837, 1106
3215, 243, 998, 1128, 1195
3216, 804, 847, 756, 1159
3217, 568, 539, 552, 1075
3218, 59, 705, 277, 1074
3219, 727, 169, 584, 558
3220, 672, 682, 673, 1075
3221, 609, 608, 1037, 1238
3222, 351, 994, 350, 1218
3223, 649, 650, 651, 1000
3224, 707, 606, 709, 1116
3225, 241, 240, 239, 1176
3226, 549, 991, 550, 1233
3227, 1044, 1068, 911, 1232
3228, 494, 718, 1082, 1108
3229, 668, 640, 695, 1200
3230, 483, 503, 504, 1149
3231, 909, 1183, 1092, 1213
3232, 1151, 1212, 439, 1228
3233, 83, 341, 882, 346
3234, 416, 415, 398, 1187
3235, 196, 38, 837, 1106
3236, 272, 1128, 189, 1146
3237, 927, 1145, 1037, 1194
3238, 173, 574, 59, 1074
3239, 202, 201, 79, 725
3240, 260, 259, 258, 999
3241, 1019, 1228, 914, 1229
3242, 117, 797, 881, 1076
3243, 196, 213, 215, 1106
3244, 807, 808, 862, 1161
3245, 1055, 907, 1160, 1225
3246, 949, 1101, 986, 1146
3247, 1077, 1186, 991, 1224
3248, 874, 35, 293, 1138
3249, 229, 230, 231, 997
3250, 850, 1091, 825, 1232
3251, 27, 301, 174, 1085
3252, 1095, 1170, 919, 1241
3253, 1094, 1185, 989, 1197
3254, 892, 845, 836, 1077
3255, 812, 1049, 811, 1188
3256, 251, 993, 252, 1235
3257, 723, 715, 580, 1136
3258, 811, 1138, 874, 1188
3259, 534, 466, 468, 1192
3260, 320, 248, 250, 1052
3261, 694, 1094, 638, 1200
3262, 749, 192, 33, 1113
3263, 880, 879, 101, 393
3264, 941, 1070, 1055, 1225
3265, 376, 1078, 521, 1136
3266, 1024, 1105, 948, 1227
3267, 590, 653, 1064, 1211
3268, 743, 471, 1131, 1154
3269, 810, 807, 1161, 1188
3270, 732, 201, 332, 1066
3271, 294, 19, 191, 1144
3272, 620, 622, 634, 1082
3273, 448, 450, 449, 1043
3274, 525, 516, 383, 1134
3275, 559, 890, 164, 747
3276, 807, 806, 805, 1150
3277, 29, 177, 309, 1086
3278, 960, 1180, 1078, 1214
3279, 960, 1078, 1180, 1190
3280, 944, 1076, 1036, 1213
3281, 1036, 1076, 948, 1213
3282, 949, 1183, 1071, 1230
3283, 641, 593, 684, 1189
3284, 960, 1190, 1180, 1214
3285, 949, 1024, 1183, 1230
3286, 456, 1001, 455, 1179
3287, 823, 825, 850, 1091
3288, 175, 56, 268, 1127
3289, 633, 693, 714, 1143
3290, 236, 234, 273, 1152
3291, 914, 1228, 1016, 1229
3292, 760, 401, 530, 1178
3293, 985, 910, 1111, 1201
3294, 27, 877, 301, 1085
3295, 991, 1169, 1051, 1233
3296, 326, 324, 282, 1123
3297, 478, 406, 1063, 1209
3298, 438, 440, 1228, 1229
3299, 549, 551, 991, 1234
3300, 341, 360, 82, 882
3301, 29, 744, 177, 1086
3302, 300, 33, 192, 1113
3303, 377, 477, 111, 1212
3304, 396, 491, 507, 1082
3305, 677, 635, 633, 1152
3306, 583, 202, 79, 725
3307, 33, 847, 749, 1113
3308, 812, 811, 810, 1188
3309, 659, 716, 715, 1078
3310, 868, 838, 737, 1023
3311, 658, 1034, 688, 1214
3312, 666, 730, 724, 1137
3313, 985, 1111, 958, 1192
3314, 879, 102, 393, 1131
3315, 281, 317, 209, 1067
3316, 175, 268, 254, 1127
3317, 758, 490, 1110, 1147
3318, 361, 513, 87, 403
3319, 523, 460, 1046, 1201
3320, 874, 839, 35, 1138
3321, 401, 536, 469, 1178
3322, 740, 1123, 1020, 1220
3323, 740, 1020, 764, 1220
3324, 29, 309, 840, 1086
3325, 778, 779, 780, 996
3326, 954, 1169, 991, 1186
3327, 342, 719, 92, 359
3328, 742, 191, 19, 1144
3329, 33, 300, 847, 1113
3330, 739, 27, 174, 1085
3331, 713, 661, 663, 1124
3332, 909, 1071, 1183, 1230
3333, 853, 841, 855, 1072
3334, 909, 1052, 1183, 1193
3335, 257, 258, 259, 999
3336, 192, 749, 1060, 1113
3337, 444, 442, 1045, 1239
3338, 647, 644, 646, 1097
3339, 909, 1024, 1183, 1213
3340, 254, 252, 251, 993
3341, 298, 590, 1064, 1211
3342, 699, 644, 647, 1097
3343, 300, 847, 1113, 1159
3344, 243, 189, 272, 1128
3345, 713, 671, 712, 1030
3346, 1065, 914, 1175, 1197
3347, 977, 446, 1167, 1172
3348, 247, 246, 245, 1193
3349, 258, 1062, 256, 1115
3350, 473, 417, 419, 1210
3351, 319, 187, 1023, 1173
3352, 293, 35, 180, 1138
3353, 253, 322, 1072, 1191
3354, 327, 302, 1051, 1153
3355, 233, 288, 231, 1089
3356, 986, 936, 1122, 1237
3357, 918, 1122, 1029, 1164
3358, 487, 595, 156, 1126
3359, 295, 314, 316, 1039
3360, 387, 1140, 443, 1239
3361, 600, 598, 51, 307
3362, 791, 867, 865, 1039
3363, 713, 578, 688, 1090
3364, 581, 65, 287, 1152
3365, 293, 1060, 874, 1138
3366, 909, 1183, 1071, 1193
3367, 29, 840, 744, 1086
3368, 147, 392, 498, 1088
3369, 313, 369, 332, 1066
3370, 300, 299, 276, 1113
3371, 253, 1191, 1072, 1235
3372, 946, 972, 1138, 1181
3373, 461, 462, 464, 1111
3374, 284, 228, 178, 1189
3375, 807, 975, 1150, 1161
3376, 300, 1113, 276, 1159
3377, 397, 504, 149, 1087
3378, 349, 994, 351, 1240
3379, 904, 1175, 1016, 1197
3380, 525, 463, 516, 1030
3381, 1013, 938, 1103, 1242
3382, 846, 779, 777, 1110
3383, 364, 1218, 1028, 1240
3384, 297, 291, 1058, 1205
3385, 400, 473, 489, 1110
3386, 739, 877, 27, 1085
3387, 839, 180, 35, 1138
3388, 626, 669, 721, 1149
3389, 297, 210, 179, 1205
3390, 810, 809, 807, 1188
3391, 282, 324, 198, 1020
3392, 916, 1065, 1175, 1185
3393, 610, 402, 734, 1114
3394, 740, 763, 764, 1020
3395, 871, 853, 742, 1144
3396, 147, 592, 392, 1088
3397, 500, 700, 139, 1136
3398, 393, 102, 471, 1131
3399, 219, 218, 220, 1181
3400, 319, 187, 296, 1023
3401, 661, 658, 660, 1034
3402, 545, 548, 561, 1153
3403, 824, 826, 825, 1044
3404, 327, 328, 302, 1153
3405, 953, 1235, 1170, 1236
3406, 364, 351, 1218, 1240
3407, 905, 1017, 1196, 1202
3408, 59, 277, 173, 1074
3409, 838, 868, 854, 1173
3410, 298, 73, 590, 1211
3411, 776, 778, 853, 1095
3412, 426, 491, 428, 1105
3413, 190, 258, 1115, 1116
3414, 657, 589, 660, 1205
3415, 256, 255, 254, 1062
3416, 685, 147, 498, 1088
3417, 470, 100, 741, 375
3418, 824, 1044, 825, 1232
3419, 674, 1058, 291, 1205
3420, 669, 149, 504, 1087
3421, 577, 601, 600, 1027
3422, 289, 1138, 219, 1181
3423, 923, 987, 1110, 1241
3424, 489, 488, 400, 1120
3425, 356, 339, 330, 1067
3426, 164, 540, 559, 747
3427, 654, 715, 723, 1180
3428, 825, 1044, 826, 1232
3429, 1019, 1212, 935, 1228
3430, 677, 65, 581, 1152
3431, 917, 1056, 1196, 1202
3432, 993, 1170, 1235, 1236
3433, 529, 481, 514, 1041
3434, 455, 456, 457, 1001
3435, 88, 367, 513, 340
3436, 991, 959, 1169, 1233
3437, 397, 149, 587, 1087
3438, 905, 1196, 1009, 1207
3439, 595, 683, 156, 1126
3440, 1065, 1175, 1185, 1197
3441, 487, 156, 382, 1126
3442, 1063, 1199, 1158, 1209
3443, 660, 687, 662, 1117
3444, 623, 621, 706, 1101
3445, 313, 357, 369, 1066
3446, 640, 638, 639, 1200
3447, 1029, 1122, 936, 1164
3448, 875, 536, 98, 760
3449, 558, 169, 584, 539
3450, 757, 22, 321, 1173
3451, 625, 626, 624, 1033
3452, 51, 600, 307, 183
3453, 363, 585, 93, 719
3454, 447, 446, 448, 1198
3455, 911, 982, 1215, 1232
3456, 917, 1136, 1078, 1180
3457, 613, 607, 708, 1096
3458, 525, 522, 465, 1134
3459, 178, 226, 286, 1189
3460, 672, 600, 601, 1027
3461, 190, 54, 271, 1116
3462, 643, 684, 586, 1189
3463, 410, 1199, 406, 1209
3464, 904, 989, 1185, 1197
3465, 504, 669, 1087, 1149
3466, 63, 576, 274, 1143
3467, 500, 139, 376, 1136
3468, 893, 1148, 888, 1221
3469, 994, 1206, 1156, 1218
3470, 761, 283, 333, 1168
3471, 747, 894, 845, 1077
3472, 200, 328, 307, 1153
3473, 340, 513, 87, 361
3474, 729, 539, 557, 1075
3475, 306, 873, 1106, 1157
3476, 398, 681, 157, 1187
3477, 376, 521, 520, 1136
3478, 204, 197, 292, 1117
3479, 685, 592, 147, 1088
3480, 599, 732, 369, 1066
3481, 250, 248, 249, 1052
3482, 263, 1007, 262, 1223
3483, 410, 514, 412, 1209
3484, 523, 460, 458, 1046
3485, 369, 359, 599, 1066
3486, 258, 257, 256, 1062
3487, 661, 688, 658, 1034
3488, 913, 1042, 1156, 1218
3489, 784, 786, 869, 1093
3490, 462, 1111, 460, 1201
3491, 323, 255, 257, 1062
3492, 741, 375, 875, 1119
3493, 683, 382, 156, 1126
3494, 576, 63, 714, 1143
3495, 285, 212, 305, 1091
3496, 139, 700, 580, 1136
3497, 219, 289, 180, 1138
3498, 1063, 1141, 941, 1199
3499, 1167, 1172, 1002, 1219
3500, 489, 424, 488, 1120
3501, 721, 378, 151, 1162
3502, 669, 587, 149, 1087
3503, 452, 454, 453, 1179
3504, 642, 695, 640, 1083
3505, 945, 1074, 1183, 1193
3506, 949, 1183, 1074, 1193
3507, 850, 825, 830, 1232
3508, 1016, 1175, 935, 1228
3509, 408, 410, 1194, 1199
3510, 460, 1111, 1046, 1201
3511, 475, 491, 502, 1162
3512, 449, 450, 451, 1043
3513, 977, 1172, 1167, 1219
3514, 524, 521, 499, 1078
3515, 697, 698, 1133, 1177
3516, 1044, 1069, 958, 1215
3517, 733, 531, 132, 1079
3518, 681, 595, 157, 1187
3519, 642, 640, 641, 1083
3520, 900, 1170, 993, 1236
3521, 270, 297, 291, 1058
3522, 462, 461, 460, 1111
3523, 994, 940, 1206, 1240
3524, 494, 154, 718, 1108
3525, 383, 506, 522, 1134
3526, 443, 1045, 442, 1239
3527, 819, 817, 878, 1104
3528, 423, 421, 422, 1061
3529, 842, 843, 760, 1178
3530, 663, 662, 664, 1124
3531, 612, 595, 681, 1187
3532, 378, 1149, 475, 1162
3533, 482, 411, 381, 1194
3534, 874, 1060, 809, 1188
3535, 602, 709, 606, 1116
3536, 469, 464, 534, 1192
3537, 536, 875, 375, 1119
3538, 768, 766, 764, 1220
3539, 373, 449, 1118, 1198
3540, 210, 204, 292, 1117
3541, 73, 710, 590, 1211
3542, 909, 1183, 1024, 1230
3543, 717, 688, 578, 1090
3544, 139, 580, 376, 1136
3545, 992, 1199, 410, 1209
3546, 73, 298, 182, 1211
3547, 1041, 1224, 564, 1234
3548, 392, 1088, 1166, 1229
3549, 664, 583, 666, 1053
3550, 1158, 1199, 992, 1209
3551, 697, 652, 698, 1177
3552, 223, 224, 225, 1107
3553, 619, 675, 621, 1032
3554, 329, 345, 281, 1148
3555, 191, 322, 323, 1144
3556, 991, 1204, 939, 1234
3557, 409, 1081, 408, 1194
3558, 900, 1026, 1170, 1241
3559, 273, 287, 65, 1152
3560, 382, 420, 418, 1126
3561, 493, 154, 494, 1108
3562, 821, 824, 823, 1068
3563, 694, 636, 638, 1094
3564, 931, 1126, 1098, 1203
3565, 1098, 1126, 964, 1203
3566, 426, 428, 427, 1105
3567, 757, 868, 22, 1173
3568, 501, 414, 417, 1210
3569, 627, 625, 704, 1122
3570, 914, 1016, 1175, 1197
3571, 202, 203, 278, 1053
3572, 248, 246, 247, 1193
3573, 417, 1098, 419, 1210
3574, 732, 332, 369, 1066
3575, 302, 541, 1051, 1153
3576, 333, 761, 14, 283
3577, 918, 1164, 1057, 1237
3578, 222, 224, 223, 1107
3579, 363, 1028, 354, 1226
3580, 639, 637, 686, 1129
3581, 827, 825, 826, 1232
3582, 913, 1156, 1206, 1218
3583, 162, 734, 610, 402
3584, 252, 254, 255, 1191
3585, 444, 1172, 446, 1239
3586, 760, 530, 97, 842
3587, 553, 550, 551, 1224
3588, 745, 781, 779, 1120
3589, 270, 1058, 182, 1211
3590, 582, 154, 493, 1108
3591, 355, 340, 353, 1042
3592, 657, 658, 656, 1214
3593, 677, 273, 65, 1152
3594, 595, 487, 157, 1187
3595, 964, 1126, 1132, 1203
3596, 206, 211, 212, 1048
3597, 670, 159, 381, 1145
3598, 665, 664, 666, 1137
3599, 784, 785, 786, 1093
3600, 929, 1017, 1179, 1196
3601, 931, 1132, 1126, 1203
3602, 22, 187, 321, 1173
3603, 347, 346, 358, 1054
3604, 406, 399, 405, 1063
3605, 186, 714, 63, 1143
3606, 580, 715, 716, 1078
3607, 745, 779, 846, 1120
3608, 718, 154, 582, 1108
3609, 347, 350, 349, 1208
3610, 651, 654, 723, 1100
3611, 622, 621, 623, 1101
3612, 935, 1212, 1151, 1228
3613, 354, 1028, 364, 1218
3614, 721, 1149, 378, 1162
3615, 725, 201, 732, 1066
3616, 626, 625, 627, 1122
3617, 732, 201, 80, 332
3618, 760, 536, 98, 401
3619, 408, 1194, 1081, 1199
3620, 186, 63, 274, 1143
3621, 199, 888, 895, 1148
3622, 897, 533, 126, 1109
3623, 801, 800, 799, 1217
3624, 523, 1090, 463, 1201
3625, 1030, 1090, 910, 1201
3626, 684, 643, 641, 1189
3627, 392, 1166, 509, 1229
3628, 470, 880, 101, 393
3629, 378, 502, 151, 1162
3630, 911, 1069, 1044, 1215
3631, 883, 862, 808, 1021
3632, 766, 767, 765, 1220
3633, 398, 157, 487, 1187
3634, 945, 1183, 1052, 1193
3635, 481, 128, 560, 542
3636, 782, 780, 781, 1125
3637, 824, 876, 826, 1044
3638, 637, 638, 636, 1094
3639, 667, 662, 687, 1117
3640, 48, 356, 281, 345
3641, 218, 216, 290, 1084
3642, 588, 721, 151, 1162
3643, 329, 199, 895, 1148
3644, 670, 596, 608, 1037
3645, 752, 823, 850, 1091
3646, 315, 253, 322, 1072
3647, 418, 487, 1126, 1187
3648, 861, 736, 105, 1118
3649, 322, 255, 323, 1191
3650, 487, 595, 1126, 1187
3651, 471, 455, 393, 1131
3652, 545, 557, 673, 171
3653, 263, 261, 262, 1007
3654, 73, 182, 710, 1211
3655, 228, 226, 178, 1189
3656, 674, 291, 75, 1205
3657, 917, 1196, 1017, 1202
3658, 656, 1180, 979, 1214
3659, 901, 991, 1169, 1186
3660, 908, 1182, 977, 1219
3661, 354, 364, 351, 1218
3662, 811, 839, 874, 1138
3663, 477, 439, 1151, 1212
3664, 355, 367, 340, 1042
3665, 319, 320, 187, 1173
3666, 423, 426, 425, 1031
3667, 354, 363, 342, 1028
3668, 590, 710, 653, 1211
3669, 697, 647, 649, 1177
3670, 1072, 1144, 919, 1191
3671, 1072, 1191, 1170, 1235
3672, 551, 564, 1224, 1234
3673, 547, 556, 546, 1051
3674, 755, 477, 1151, 1212
3675, 702, 628, 703, 1146
3676, 287, 232, 195, 1129
3677, 521, 376, 499, 1078
3678, 159, 486, 381, 1145
3679, 809, 874, 749, 1060
3680, 353, 351, 350, 1218
3681, 993, 1170, 1191, 1235
3682, 354, 1218, 365, 1226
3683, 795, 799, 798, 1217
3684, 249, 248, 247, 1193
3685, 241, 242, 240, 1176
3686, 392, 508, 1088, 1229
3687, 291, 182, 270, 1058
3688, 910, 1046, 1111, 1201
3689, 108, 387, 864, 1140
3690, 899, 1156, 994, 1206
3691, 379, 121, 844, 1147
3692, 324, 334, 198, 1020
3693, 97, 530, 760, 401
3694, 463, 523, 526, 1090
3695, 1052, 1235, 953, 1236
3696, 921, 1063, 1158, 1209
3697, 819, 818, 817, 1104
3698, 618, 617, 619, 1073
3699, 797, 1076, 485, 1184
3700, 901, 1158, 992, 1204
3701, 373, 105, 736, 1118
3702, 22, 868, 187, 1173
3703, 528, 734, 402, 1114
3704, 554, 564, 1041, 1224
3705, 265, 183, 335, 1027
3706, 401, 468, 530, 1178
3707, 567, 555, 540, 1077
3708, 501, 417, 473, 1210
3709, 17, 282, 740, 1123
3710, 590, 653, 650, 1064
3711, 378, 503, 475, 1149
3712, 343, 358, 362, 1112
3713, 93, 363, 719, 342
3714, 653, 654, 651, 1100
3715, 260, 258, 271, 1116
3716, 141, 495, 573, 1133
3717, 861, 105, 472, 1118
3718, 17, 740, 872, 1123
3719, 864, 738, 108, 1140
3720, 590, 650, 676, 1064
3721, 876, 851, 741, 1119
3722, 251, 252, 250, 1235
3723, 872, 176, 17, 1123
3724, 528, 481, 560, 1114
3725, 620, 634, 718, 1082
3726, 523, 391, 526, 1090
3727, 490, 121, 379, 1147
3728, 388, 141, 698, 1133
3729, 776, 777, 778, 1095
3730, 1072, 1170, 953, 1235
3731, 822, 878, 879, 1131
3732, 240, 242, 314, 1176
3733, 159, 591, 486, 1145
3734, 914, 1166, 1088, 1229
3735, 151, 502, 588, 1162
3736, 827, 830, 825, 1232
3737, 159, 670, 591, 1145
3738, 466, 467, 384, 1042
3739, 596, 609, 608, 1037
3740, 231, 232, 233, 1089
3741, 540, 555, 553, 1077
3742, 1002, 1172, 934, 1219
3743, 659, 1180, 656, 1214
3744, 554, 1041, 563, 1231
3745, 400, 490, 473, 1110
3746, 949, 1071, 1183, 1193
3747, 542, 563, 554, 1041
3748, 570, 310, 562, 1168
3749, 738, 476, 108, 1140
3750, 494, 396, 507, 1082
3751, 895, 199, 44, 888
3752, 141, 573, 698, 1133
3753, 805, 858, 808, 1150
3754, 338, 329, 44, 895
3755, 264, 263, 262, 1223
3756, 88, 367, 384, 513
3757, 567, 543, 836, 166
3758, 141, 388, 495, 1133
3759, 733, 132, 679, 1079
3760, 760, 843, 834, 1178
3761, 665, 666, 724, 1137
3762, 408, 410, 411, 1194
3763, 514, 1209, 535, 1231
3764, 585, 735, 724, 1226
3765, 199, 44, 329, 895
3766, 506, 132, 531, 1079
3767, 177, 1086, 744, 1171
3768, 747, 845, 892, 1077
3769, 478, 410, 406, 1209
3770, 659, 715, 656, 1180
3771, 282, 17, 176, 1123
3772, 227, 229, 276, 1135
3773, 173, 277, 247, 1074
3774, 275, 753, 37, 1157
3775, 302, 185, 327, 1051
3776, 1051, 1153, 541, 1233
3777, 889, 370, 362, 1112
3778, 403, 531, 371, 1079
3779, 604, 603, 602, 1099
3780, 291, 179, 75, 1205
3781, 392, 1088, 592, 1166
3782, 274, 189, 241, 1128
3783, 570, 333, 310, 1168
3784, 405, 478, 406, 1063
3785, 444, 446, 445, 1239
3786, 190, 271, 258, 1116
3787, 740, 765, 1123, 1220
3788, 508, 438, 436, 1229
3789, 290, 270, 182, 1211
3790, 993, 1191, 252, 1235
3791, 565, 1224, 554, 1231
3792, 846, 777, 758, 1110
3793, 584, 170, 729, 539
3794, 1021, 1161, 1150, 1182
3795, 374, 575, 144, 1142
3796, 99, 875, 741, 375
3797, 873, 818, 837, 1106
3798, 896, 370, 889, 1112
3799, 436, 438, 437, 1228
3800, 496, 374, 144, 1142
3801, 613, 615, 614, 1132
3802, 387, 443, 445, 1239
3803, 678, 690, 692, 1127
3804, 490, 758, 121, 1147
3805, 476, 387, 108, 1140
3806, 921, 1186, 1077, 1224
3807, 898, 748, 887, 1054
3808, 833, 399, 123, 1141
3809, 492, 123, 399, 1141
3810, 701, 496, 144, 1142
3811, 538, 469, 375, 1119
3812, 1020, 1123, 922, 1220
3813, 306, 37, 873, 1157
3814, 557, 673, 171, 729
3815, 900, 1170, 996, 1241
3816, 899, 1215, 1069, 1242
3817, 551, 1224, 991, 1234
3818, 372, 895, 762, 1148
3819, 784, 782, 783, 1036
3820, 536, 375, 469, 1119
3821, 71, 279, 676, 1155
3822, 946, 1060, 1138, 1188
3823, 514, 1041, 1209, 1231
3824, 509, 440, 438, 1229
3825, 371, 361, 403, 1079
3826, 313, 201, 336, 1066
3827, 492, 754, 123, 1141
3828, 711, 194, 71, 1155
3829, 444, 443, 442, 1239
3830, 871, 742, 870, 1144
3831, 257, 259, 325, 1216
3832, 404, 126, 533, 1109
3833, 184, 330, 47, 339
3834, 901, 1006, 1158, 1186
3835, 351, 994, 1218, 1240
3836, 1150, 1161, 975, 1182
3837, 311, 310, 283, 1168
3838, 392, 592, 146, 1166
3839, 892, 165, 540, 567
3840, 897, 890, 572, 1109
3841, 542, 481, 128, 529
3842, 10, 302, 200, 1153
3843, 419, 417, 418, 1098
3844, 540, 747, 165, 892
3845, 733, 726, 371, 1079
3846, 306, 275, 37, 1157
3847, 365, 1079, 344, 1226
3848, 562, 556, 543, 1168
3849, 212, 266, 305, 1091
3850, 572, 510, 533, 1109
3851, 206, 205, 204, 1103
3852, 372, 762, 360, 1148
3853, 735, 726, 1079, 1226
3854, 439, 1212, 437, 1228
3855, 753, 873, 37, 1157
3856, 829, 893, 888, 1221
3857, 549, 552, 551, 1234
3858, 253, 252, 322, 1191
3859, 859, 110, 389, 1151
3860, 844, 121, 758, 1147
3861, 547, 1051, 541, 1233
3862, 530, 896, 842, 1112
3863, 477, 110, 755, 1151
3864, 354, 342, 364, 1028
3865, 253, 252, 1191, 1235
3866, 459, 458, 460, 1046
3867, 836, 892, 567, 166
3868, 10, 200, 561, 1153
3869, 392, 509, 508, 1229
3870, 860, 810, 862, 1161
3871, 377, 435, 437, 1212
3872, 581, 686, 637, 1129
3873, 373, 472, 105, 1118
3874, 1021, 1150, 928, 1182
3875, 554, 564, 542, 1041
3876, 267, 251, 249, 1102
3877, 431, 432, 433, 1139
3878, 217, 216, 218, 1084
3879, 674, 75, 589, 1205
3880, 327, 185, 311, 1051
3881, 469, 534, 401, 1178
3882, 557, 729, 170, 539
3883, 559, 572, 890, 1109
3884, 595, 614, 683, 1126
3885, 485, 380, 425, 1076
3886, 341, 1054, 347, 1208
3887, 918, 1033, 1122, 1237
3888, 547, 549, 550, 1233
3889, 734, 162, 528, 402
3890, 701, 144, 575, 1142
3891, 194, 279, 71, 1155
3892, 891, 761, 333, 1168
3893, 52, 337, 577, 183
3894, 859, 755, 110, 1151
3895, 201, 80, 725, 732
3896, 530, 532, 896, 1112
3897, 609, 605, 608, 1238
3898, 897, 126, 773, 1109
3899, 514, 535, 385, 1231
3900, 485, 116, 797, 1184
3901, 600, 52, 577, 183
3902, 676, 711, 71, 1155
3903, 326, 259, 261, 1216
3904, 510, 535, 1109, 1231
3905, 882, 887, 748, 1054
3906, 658, 688, 659, 1214
3907, 612, 607, 613, 1096
3908, 174, 301, 312, 1085
3909, 875, 99, 536, 375
3910, 874, 809, 811, 1188
3911, 797, 783, 881, 1076
3912, 565, 544, 1109, 1231
3913, 409, 408, 482, 1194
3914, 749, 847, 806, 1113
3915, 919, 1170, 1072, 1191
3916, 497, 392, 146, 1166
3917, 554, 551, 564, 1224
3918, 215, 306, 196, 1106
3919, 917, 1180, 1078, 1190
3920, 113, 832, 395, 1165
3921, 1033, 986, 1122, 1237
3922, 289, 220, 223, 1181
3923, 349, 351, 352, 1240
3924, 103, 743, 863, 1154
3925, 390, 103, 863, 1154
3926, 696, 497, 146, 1166
3927, 740, 764, 765, 1220
3928, 878, 743, 879, 1131
3929, 438, 440, 439, 1228
3930, 996, 1170, 1095, 1241
3931, 287, 273, 234, 1152
3932, 479, 750, 113, 1165
3933, 48, 356, 330, 281
3934, 418, 416, 487, 1187
3935, 373, 447, 449, 1198
3936, 541, 302, 10, 1153
3937, 537, 506, 403, 1079
3938, 833, 123, 754, 1141
3939, 730, 725, 599, 1066
3940, 790, 788, 789, 1163
3941, 743, 103, 471, 1154
3942, 177, 308, 309, 1086
3943, 330, 356, 47, 339
3944, 527, 343, 370, 1112
3945, 605, 682, 672, 1238
3946, 179, 589, 75, 1205
3947, 444, 512, 515, 1172
3948, 677, 581, 635, 1152
3949, 368, 339, 356, 1067
3950, 206, 285, 205, 1103
3951, 1028, 913, 1218, 1226
3952, 689, 603, 604, 1099
3953, 901, 991, 1186, 1204
3954, 1186, 1204, 991, 1224
3955, 729, 682, 584, 1075
3956, 562, 570, 13, 310
3957, 574, 675, 705, 1074
3958, 195, 230, 284, 1121
3959, 227, 228, 229, 1135
3960, 317, 330, 184, 1067
3961, 840, 798, 744, 1086
3962, 773, 894, 890, 1109
3963, 176, 326, 1123, 1216
3964, 921, 1204, 1186, 1224
3965, 714, 693, 576, 1143
3966, 744, 30, 177, 1171
3967, 546, 541, 547, 1051
3968, 679, 132, 506, 1079
3969, 757, 854, 868, 1173
3970, 696, 146, 592, 1166
3971, 585, 94, 726, 1226
3972, 734, 528, 569, 1114
3973, 397, 483, 504, 1087
3974, 721, 588, 624, 1162
3975, 192, 299, 300, 1113
3976, 293, 269, 192, 1060
3977, 14, 891, 761, 333
3978, 385, 510, 130, 1231
3979, 431, 430, 432, 1139
3980, 345, 360, 348, 1148
3981, 921, 1158, 1204, 1209
3982, 541, 10, 561, 1153
3983, 477, 389, 110, 1151
3984, 1028, 1137, 940, 1206
3985, 343, 527, 89, 367
3986, 570, 333, 13, 310
3987, 304, 30, 849, 1171
3988, 508, 498, 392, 1088
3989, 992, 1204, 1158, 1209
3990, 726, 679, 735, 1079
3991, 346, 347, 341, 1054
3992, 941, 1158, 1063, 1199
3993, 1041, 921, 1209, 1231
3994, 722, 592, 685, 1088
3995, 113, 750, 832, 1165
3996, 186, 274, 239, 1143
3997, 253, 320, 250, 1235
3998, 371, 403, 86, 531
3999, 694, 638, 668, 1200
4000, 911, 1215, 1044, 1232
4001, 739, 856, 877, 1085
4002, 585, 363, 94, 1226
4003, 535, 404, 510, 1109
4004, 616, 614, 615, 1132
4005, 700, 723, 580, 1136
4006, 193, 276, 303, 1159
4007, 395, 479, 113, 1165
4008, 385, 130, 563, 1231
4009, 792, 790, 789, 1163
4010, 911, 1069, 1215, 1242
4011, 313, 332, 201, 1066
4012, 467, 513, 384, 1042
4013, 898, 842, 889, 1112
4014, 191, 323, 294, 1144
4015, 628, 706, 703, 1146
4016, 587, 669, 629, 1087
4017, 116, 485, 394, 1184
4018, 921, 1204, 1041, 1209
4019, 900, 1203, 1026, 1241
4020, 116, 394, 751, 1184
4021, 895, 81, 372, 762
4022, 369, 599, 91, 732
4023, 304, 177, 30, 1171
4024, 486, 482, 381, 1145
4025, 268, 190, 256, 1115
4026, 91, 599, 369, 359
4027, 330, 317, 281, 1067
4028, 373, 449, 472, 1118
4029, 420, 419, 418, 1098
4030, 527, 370, 532, 1112
4031, 86, 361, 403, 371
4032, 366, 359, 357, 1066
4033, 744, 849, 30, 1171
4034, 860, 736, 861, 1118
4035, 476, 443, 387, 1140
4036, 45, 313, 369, 332
4037, 362, 889, 85, 370
4038, 762, 888, 893, 1148
4039, 741, 875, 876, 1119
4040, 548, 541, 1153, 1233
4041, 534, 468, 401, 1178
4042, 494, 422, 493, 1108
4043, 773, 126, 404, 1109
4044, 921, 1041, 1224, 1231
4045, 557, 539, 568, 1075
4046, 297, 179, 291, 1205
4047, 477, 437, 439, 1212
4048, 116, 751, 797, 1184
4049, 618, 718, 582, 1108
4050, 371, 726, 344, 1079
4051, 345, 281, 48, 329
4052, 501, 490, 379, 1147
4053, 544, 510, 572, 1109
4054, 762, 81, 372, 360
4055, 558, 560, 566, 1114
4056, 896, 85, 889, 370
4057, 897, 163, 572, 890
4058, 168, 727, 734, 569
4059, 891, 543, 836, 1168
4060, 692, 690, 579, 1127
4061, 1094, 1197, 989, 1200
4062, 500, 376, 520, 1136
4063, 872, 740, 765, 1123
4064, 256, 257, 255, 1062
4065, 674, 589, 657, 1205
4066, 591, 670, 689, 1145
4067, 816, 873, 753, 1157
4068, 864, 858, 738, 1140
4069, 284, 230, 228, 1121
4070, 798, 799, 800, 1217
4071, 313, 357, 45, 369
4072, 245, 243, 272, 1195
4073, 673, 682, 729, 1075
4074, 382, 418, 487, 1126
4075, 921, 1041, 1204, 1224
4076, 243, 241, 189, 1128
4077, 390, 471, 103, 1154
4078, 939, 1204, 1041, 1234
4079, 1028, 1206, 940, 1240
4080, 573, 697, 698, 1133
4081, 523, 463, 460, 1201
4082, 648, 711, 676, 1155
4083, 888, 1148, 199, 1221
4084, 559, 572, 163, 890
4085, 175, 251, 267, 1102
4086, 390, 453, 471, 1154
4087, 361, 344, 365, 1079
4088, 176, 325, 326, 1216
4089, 558, 727, 168, 569
4090, 367, 527, 89, 384
4091, 200, 571, 9, 561
4092, 94, 344, 726, 1226
4093, 371, 531, 733, 1079
4094, 477, 439, 389, 1151
4095, 569, 560, 558, 1114
4096, 369, 357, 359, 1066
4097, 549, 548, 568, 1233
4098, 321, 187, 320, 1173
4099, 662, 663, 661, 1124
4100, 758, 775, 844, 1147
4101, 456, 455, 454, 1179
4102, 857, 755, 859, 1151
4103, 407, 492, 399, 1141
4104, 544, 559, 565, 1109
4105, 743, 886, 863, 1154
4106, 517, 518, 448, 1167
4107, 754, 852, 833, 1141
4108, 378, 475, 502, 1162
4109, 731, 610, 727, 1114
4110, 180, 289, 293, 1138
4111, 572, 533, 897, 1109
4112, 9, 331, 571, 200
4113, 572, 510, 131, 533
4114, 725, 732, 599, 1066
4115, 746, 43, 280, 1221
4116, 913, 1206, 1028, 1218
4117, 479, 395, 433, 1165
4118, 96, 530, 896, 842
4119, 194, 222, 279, 1155
4120, 306, 217, 275, 1157
4121, 354, 1028, 1218, 1226
4122, 544, 130, 510, 1231
4123, 782, 854, 780, 1125
4124, 264, 335, 328, 1223
4125, 94, 363, 344, 1226
4126, 95, 371, 733, 726
4127, 532, 96, 530, 896
4128, 800, 849, 744, 1171
4129, 300, 276, 193, 1159
4130, 1206, 1218, 994, 1240
4131, 734, 569, 528, 127
4132, 575, 695, 701, 1142
4133, 394, 485, 427, 1184
4134, 392, 497, 509, 1166
4135, 592, 694, 696, 1166
4136, 374, 496, 512, 1142
4137, 341, 347, 348, 1208
4138, 548, 547, 541, 1233
4139, 807, 805, 808, 1150
4140, 298, 290, 182, 1211
4141, 750, 792, 832, 1165
4142, 569, 528, 560, 1114
4143, 495, 388, 518, 1133
4144, 348, 349, 368, 1208
4145, 569, 734, 8, 127
4146, 570, 891, 333, 1168
4147, 726, 344, 1079, 1226
4148, 656, 715, 654, 1180
4149, 563, 130, 544, 1231
4150, 1028, 1218, 1206, 1240
4151, 921, 1158, 1186, 1204
4152, 751, 785, 797, 1184
4153, 331, 728, 172, 571
4154, 1180, 1190, 979, 1214
4155, 610, 734, 727, 1114
4156, 904, 1185, 1175, 1197
4157, 991, 1224, 1204, 1234
4158, 407, 406, 408, 1199
4159, 896, 532, 370, 1112
4160, 177, 304, 288, 1171
4161, 1, 331, 172, 571
4162, 554, 1224, 1041, 1231
4163, 510, 1109, 544, 1231
4164, 176, 326, 282, 1123
4165, 329, 372, 345, 1148
4166, 283, 310, 333, 1168
4167, 353, 365, 354, 1218
4168, 504, 503, 378, 1149
4169, 542, 529, 129, 563
4170, 901, 1186, 1158, 1204
4171, 406, 410, 408, 1199
4172, 43, 888, 199, 1221
4173, 280, 199, 209, 1221
4174, 566, 564, 552, 1234
4175, 697, 649, 652, 1177
4176, 385, 129, 529, 563
4177, 333, 167, 891, 570
4178, 470, 457, 459, 1130
4179, 517, 448, 446, 1167
4180, 393, 457, 470, 1130
4181, 153, 718, 494, 154
4182, 522, 525, 383, 1134
4183, 157, 158, 681, 398
4184, 484, 114, 115, 884
4185, 593, 67, 68, 284
4186, 366, 352, 364, 1240
4187, 71, 72, 676, 279
4188, 810, 807, 862, 1161
4189, 377, 111, 112, 848
4190, 1204, 1224, 1041, 1234
4191, 596, 160, 161, 480
4192, 2, 167, 333, 570
4193, 116, 117, 485, 797
4194, 329, 281, 199, 1148
4195, 306, 37, 38, 873
4196, 43, 199, 280, 1221
4197, 554, 565, 553, 1224
4198, 159, 160, 670, 381
4199, 69, 70, 586, 286
4200, 544, 510, 131, 572
4201, 380, 117, 118, 881
4202, 70, 71, 711, 194
4203, 684, 68, 69, 178
4204, 74, 73, 182, 710
4205, 36, 35, 839, 180
4206, 634, 396, 152, 153
4207, 395, 113, 114, 832
4208, 859, 110, 109, 389
4209, 273, 65, 64, 677
4210, 75, 74, 291, 674
4211, 65, 66, 581, 287
4212, 188, 24, 25, 866
4213, 371, 95, 344, 726
4214, 463, 462, 460, 1201
4215, 497, 146, 145, 696
4216, 120, 846, 400, 119
4217, 896, 889, 842, 1112
4218, 186, 64, 63, 714
4219, 844, 379, 122, 121
4220, 354, 365, 344, 1226
4221, 128, 560, 528, 481
4222, 156, 157, 595, 487
4223, 147, 148, 685, 498
4224, 388, 141, 140, 698
4225, 609, 731, 682, 1238
4226, 66, 67, 686, 195
4227, 37, 36, 753, 275
4228, 185, 11, 12, 546
4229, 39, 40, 266, 752
4230, 32, 31, 756, 193
4231, 673, 728, 545, 171
4232, 77, 76, 292, 687
4233, 142, 386, 143, 720
4234, 755, 111, 110, 477
4235, 506, 531, 403, 1079
4236, 158, 159, 591, 486
4237, 362, 370, 343, 1112
4238, 514, 478, 535, 1209
4239, 301, 27, 28, 877
4240, 113, 479, 112, 750
4241, 561, 548, 541, 1153
4242, 35, 34, 874, 293
4243, 746, 888, 43, 1221
4244, 72, 73, 590, 298
4245, 28, 29, 309, 840
4246, 124, 833, 399, 123
4247, 31, 30, 849, 304
4248, 149, 150, 669, 504
4249, 295, 25, 26, 865
4250, 565, 554, 544, 1231
4251, 495, 142, 141, 573
4252, 543, 570, 562, 1168
4253, 155, 156, 683, 382
4254, 888, 762, 895, 1148
4255, 197, 78, 77, 667
4256, 863, 104, 103, 390
4257, 150, 151, 721, 378
4258, 40, 41, 305, 850
4259, 280, 42, 43, 746
4260, 289, 219, 220, 1181
4261, 500, 140, 139, 700
4262, 146, 392, 147, 592
4263, 126, 773, 404, 125
4264, 121, 758, 490, 120
4265, 138, 580, 376, 139
4266, 744, 30, 29, 177
4267, 847, 33, 32, 300
4268, 861, 105, 104, 472
4269, 161, 162, 610, 402
4270, 20, 19, 742, 191
4271, 374, 145, 144, 575
4272, 132, 679, 506, 133
4273, 444, 515, 446, 1172
4274, 38, 39, 196, 837
4275, 174, 26, 27, 739
4276, 109, 108, 738, 476
4277, 272, 61, 60, 703
4278, 18, 17, 872, 176
4279, 296, 23, 24, 737
4280, 736, 106, 105, 373
4281, 118, 119, 488, 745
4282, 125, 759, 405, 124
4283, 187, 22, 23, 868
4284, 179, 76, 75, 589
4285, 761, 15, 14, 283
4286, 679, 726, 733, 1079
4287, 107, 106, 883, 474
4288, 870, 19, 18, 294
4289, 21, 22, 321, 757
4290, 144, 143, 496, 701
4291, 402, 481, 528, 1114
4292, 267, 58, 57, 594
4293, 123, 754, 492, 122
4294, 640, 668, 638, 1200
4295, 184, 47, 46, 339
4296, 116, 394, 115, 751
4297, 189, 62, 61, 702
4298, 743, 103, 102, 471
4299, 748, 84, 83, 346
4300, 487, 416, 398, 1187
4301, 855, 21, 20, 315
4302, 277, 59, 58, 705
4303, 746, 829, 888, 1221
4304, 190, 258, 256, 1115
4305, 579, 55, 56, 268
4306, 274, 63, 62, 576
4307, 404, 533, 510, 1109
4308, 56, 57, 692, 175
4309, 34, 33, 749, 192
4310, 108, 107, 864, 387
4311, 527, 532, 468, 1112
4312, 809, 810, 811, 1188
4313, 740, 17, 16, 282
4314, 148, 149, 587, 397
4315, 493, 582, 155, 154
4316, 716, 499, 137, 138
4317, 464, 465, 466, 1192
4318, 717, 391, 136, 137
4319, 79, 78, 202, 583
4320, 449, 447, 448, 1198
4321, 200, 302, 328, 1153
4322, 578, 526, 135, 136
4323, 502, 151, 588, 152
4324, 773, 890, 897, 1109
4325, 543, 891, 570, 1168
4326, 245, 244, 243, 1195
4327, 41, 42, 181, 830
4328, 527, 90, 370, 343
4329, 543, 836, 166, 891
4330, 763, 16, 15, 198
4331, 134, 712, 516, 135
4332, 13, 12, 562, 310
4333, 439, 437, 438, 1228
4334, 658, 659, 656, 1214
4335, 372, 360, 345, 1148
4336, 80, 79, 201, 725
4337, 766, 765, 764, 1220
4338, 351, 353, 354, 1218
4339, 60, 59, 173, 574
4340, 880, 101, 100, 470
4341, 709, 53, 54, 271
4342, 453, 454, 455, 1179
4343, 43, 44, 199, 888
4344, 264, 262, 335, 1223
4345, 530, 468, 532, 1112
4346, 252, 255, 322, 1191
4347, 510, 385, 535, 1231
4348, 482, 408, 411, 1194
4349, 735, 585, 726, 1226
4350, 370, 532, 90, 527
4351, 598, 50, 51, 307
4352, 528, 8, 734, 127
4353, 82, 81, 762, 360
4354, 514, 410, 478, 1209
4355, 747, 164, 540, 165
4356, 551, 554, 553, 1224
4357, 599, 91, 92, 359
4358, 200, 9, 10, 561
4359, 513, 87, 88, 340
4360, 891, 836, 761, 1168
4361, 361, 371, 344, 1079
4362, 170, 584, 169, 539
4363, 541, 11, 10, 302
4364, 437, 477, 377, 1212
4365, 544, 572, 559, 1109
4366, 348, 347, 349, 1208
4367, 889, 85, 84, 362
4368, 564, 551, 552, 1234
4369, 1, 331, 728, 172
4370, 707, 54, 55, 190
4371, 253, 250, 252, 1235
4372, 133, 597, 383, 134
4373, 508, 509, 438, 1229
4374, 549, 547, 548, 1233
4375, 344, 363, 354, 1226
4376, 87, 86, 361, 403
4377, 82, 83, 341, 882
4378, 351, 364, 352, 1240
4379, 167, 891, 2, 333
4380, 325, 259, 326, 1216
4381, 3, 372, 338, 895
4382, 554, 563, 544, 1231
4383, 345, 48, 49, 329
4384, 372, 345, 49, 329
4385, 443, 444, 445, 1239
4386, 719, 92, 93, 342
4387, 609, 682, 605, 1238
4388, 732, 4, 369, 332
4389, 544, 510, 130, 131
4390, 897, 572, 7, 533
4391, 733, 371, 6, 531
4392, 563, 385, 129, 130
4393, 344, 95, 94, 726
4394, 879, 102, 101, 393
4395, 600, 51, 52, 183
4396, 14, 2, 891, 333
4397, 49, 372, 329, 338
4398, 734, 162, 8, 528
4399, 45, 46, 357, 313
4400, 890, 163, 559, 164
4401, 558, 727, 169, 168
4402, 331, 50, 1, 728
4403, 760, 98, 97, 401
4404, 585, 93, 94, 363
4405, 896, 532, 5, 370
4406, 337, 53, 52, 577
4407, 543, 891, 167, 570
4408, 464, 466, 534, 1192
4409, 530, 96, 97, 842
4410, 728, 172, 545, 171
4411, 369, 91, 4, 732
4412, 372, 3, 81, 895
4413, 545, 172, 728, 571
4414, 89, 90, 527, 343
4415, 528, 569, 560, 127
4416, 536, 98, 99, 875
4417, 891, 166, 543, 167
4418, 100, 99, 741, 375
4419, 89, 88, 367, 384
4420, 371, 86, 6, 531
4421, 560, 528, 127, 128
4422, 44, 3, 338, 895
4423, 896, 5, 85, 370
4424, 4, 45, 369, 332
4425, 163, 572, 7, 897
4426, 356, 47, 48, 330
4427, 529, 128, 542, 129
4428, 729, 171, 557, 170
4429, 132, 733, 6, 531
4430, 372, 49, 3, 338
4431, 126, 897, 7, 533
4432, 732, 80, 4, 332
4433, 371, 6, 95, 733
4434, 131, 7, 572, 533
4435, 532, 90, 5, 370
4436, 532, 5, 96, 896
4437, 333, 13, 2, 570
4438, 331, 1, 9, 571
4439, 168, 734, 8, 569
4440, 567, 892, 165, 166
4441, 1223, 1004, 1007, 1027
4442, 1223, 1007, 1004, 901
4443, 1223, 1004, 959, 1169
4444, 1223, 959, 1004, 1027
4445, 1165, 484, 431, 966
4446, 1165, 431, 484, 395
4447, 1075, 1153, 673, 959
4448, 673, 1153, 1075, 545
4449, 1214, 955, 1190, 979
4450, 1214, 1190, 955, 1034
4451, 902, 1190, 955, 979
4452, 902, 955, 1190, 1034
4453, 1020, 263, 954, 1007
4454, 1020, 954, 263, 334
4455, 1007, 1216, 1123, 261
4456, 1123, 1216, 1007, 922
4457, 1123, 1020, 1007, 261
4458, 1007, 1020, 1123, 922
4459, 1134, 467, 537, 522
4460, 1134, 537, 467, 913
4461, 938, 664, 1137, 1053
4462, 938, 1137, 664, 1124
4463, 520, 1179, 521, 454
4464, 521, 1179, 520, 1136
4465, 1106, 1084, 990, 215
4466, 1106, 990, 1084, 920
4467, 1230, 1024, 1101, 949
4468, 1101, 1024, 1230, 906
4469, 1101, 986, 1230, 949
4470, 1230, 986, 1101, 906
4471, 1159, 229, 997, 1135
4472, 1159, 997, 229, 303
4473, 1104, 1157, 1009, 920
4474, 1009, 1157, 1104, 816
4475, 1112, 367, 355, 1042
4476, 1112, 355, 367, 343
4477, 1168, 567, 555, 543
4478, 1168, 555, 567, 1077
4479, 1127, 1096, 708, 924
4480, 1127, 708, 1096, 690
4481, 1074, 1195, 1193, 245
4482, 1193, 1195, 1074, 949
4483, 620, 1101, 621, 622
4484, 621, 1101, 620, 1032
4485, 1242, 910, 970, 938
4486, 1242, 970, 910, 1069
4487, 1181, 1138, 1060, 289
4488, 1060, 1138, 1181, 946
4489, 1060, 269, 1181, 289
4490, 1181, 269, 1060, 946
4491, 690, 1132, 1127, 984
4492, 690, 1127, 1132, 1096
4493, 924, 1127, 1132, 984
4494, 924, 1132, 1127, 1096
4495, 1059, 1219, 1097, 908
4496, 1097, 1219, 1059, 925
4497, 1048, 214, 297, 211
4498, 1048, 297, 214, 990
4499, 1059, 1182, 977, 908
4500, 977, 1182, 1059, 926
4501, 1227, 429, 1184, 966
4502, 1227, 1184, 429, 1105
4503, 1083, 1197, 934, 967
4504, 1083, 934, 1197, 904
4505, 1045, 934, 1197, 967
4506, 1045, 1197, 934, 904
4507, 763, 283, 15, 761
4508, 15, 283, 763, 198
4509, 1163, 787, 788, 789
4510, 1163, 788, 787, 1005
4511, 1095, 1147, 1015, 775
4512, 1015, 1147, 1095, 923
4513, 1226, 680, 1079, 735
4514, 1226, 1079, 680, 913
4515, 1114, 596, 609, 610
4516, 1114, 609, 596, 1037
4517, 1227, 1139, 429, 966
4518, 1227, 429, 1139, 1003
4519, 1099, 1055, 1004, 930
4520, 1099, 1004, 1055, 927
4521, 1126, 582, 616, 683
4522, 1126, 616, 582, 964
4523, 1153, 673, 598, 728
4524, 1153, 598, 673, 959
4525, 1134, 537, 506, 522
4526, 1134, 506, 537, 1079
4527, 1189, 1083, 1121, 947
4528, 1189, 1121, 1083, 641
4529, 493, 1126, 420, 382
4530, 420, 1126, 493, 964
4531, 1240, 1066, 339, 940
4532, 1240, 339, 1066, 366
4533, 1215, 828, 1044, 826
4534, 1215, 1044, 828, 1025
4535, 834, 1044, 828, 826
4536, 834, 828, 1044, 1025
4537, 1017, 519, 520, 969
4538, 1017, 520, 519, 452
4539, 1119, 1178, 834, 958
4540, 834, 1178, 1119, 875
4541, 266, 1106, 213, 196
4542, 213, 1106, 266, 963
4543, 1106, 752, 820, 837
4544, 1106, 820, 752, 963
4545, 339, 313, 46, 184
4546, 46, 313, 339, 357
4547, 1177, 1202, 1100, 969
4548, 1100, 1202, 1177, 1000
4549, 1100, 652, 1177, 969
4550, 582, 382, 1126, 493
4551, 1126, 382, 582, 683
4552, 1013, 1206, 994, 940
4553, 994, 1206, 1013, 899
4554, 994, 951, 1013, 940
4555, 1013, 951, 994, 899
4556, 1195, 173, 272, 245
4557, 1195, 272, 173, 1146
4558, 1131, 880, 393, 879
4559, 1131, 393, 880, 1130
4560, 1109, 772, 1063, 773
4561, 1109, 1063, 772, 921
4562, 1016, 1197, 1229, 967
4563, 1016, 1229, 1197, 914
4564, 1166, 1229, 1197, 967
4565, 1166, 1197, 1229, 914
4566, 1230, 948, 1213, 1093
4567, 1230, 1213, 948, 1024
4568, 1171, 308, 1089, 288
4569, 1171, 1089, 308, 1086
4570, 1156, 1025, 994, 952
4571, 1156, 994, 1025, 899
4572, 1177, 950, 649, 1000
4573, 1177, 649, 950, 1097
4574, 648, 649, 950, 1000
4575, 648, 950, 649, 1097
4576, 1049, 814, 815, 812
4577, 1049, 815, 814, 1009
4578, 1184, 1076, 1036, 785
4579, 1036, 1076, 1184, 948
4580, 1036, 1093, 1184, 785
4581, 1184, 1093, 1036, 948
4582, 1050, 436, 435, 1019
4583, 1050, 435, 436, 434
4584, 1040, 795, 794, 793
4585, 1040, 794, 795, 1012
4586, 1114, 1238, 1037, 939
4587, 1037, 1238, 1114, 609
4588, 1114, 1238, 1075, 731
4589, 1075, 1238, 1114, 939
4590, 1177, 651, 1100, 1000
4591, 1177, 1100, 651, 652
4592, 1145, 608, 1099, 1037
4593, 1145, 1099, 608, 689
4594, 1227, 1184, 1093, 966
4595, 1227, 1093, 1184, 948
4596, 1081, 414, 415, 409
4597, 1081, 415, 414, 1008
4598, 1226, 719, 724, 585
4599, 1226, 724, 719, 1028
4600, 712, 1134, 671, 597
4601, 671, 1134, 712, 1030
4602, 1173, 1235, 1052, 320
4603, 1052, 1235, 1173, 953
4604, 1202, 1136, 1017, 917
4605, 1202, 1017, 1136, 969
4606, 882, 360, 1148, 341
4607, 882, 1148, 360, 762
4608, 728, 307, 50, 598
4609, 50, 307, 728, 331
4610, 612, 1132, 613, 614
4611, 613, 1132, 612, 1096
4612, 1183, 1213, 912, 1092
4613, 912, 1213, 1183, 1024
4614, 1207, 1157, 1009, 972
4615, 1207, 1009, 1157, 920
4616, 1131, 457, 1001, 455
4617, 1131, 1001, 457, 1130
4618, 1027, 262, 335, 265
4619, 1027, 335, 262, 1223
4620, 359, 719, 1066, 342
4621, 359, 1066, 719, 599
4622, 1176, 237, 239, 1014
4623, 1176, 239, 237, 240
4624, 271, 577, 53, 337
4625, 271, 53, 577, 709
4626, 1153, 1169, 1233, 1051
4627, 1233, 1169, 1153, 959
4628, 1179, 452, 520, 1017
4629, 1179, 520, 452, 454
4630, 1116, 54, 707, 190
4631, 1116, 707, 54, 709
4632, 1222, 1144, 1015, 976
4633, 1222, 1015, 1144, 919
4634, 1231, 529, 514, 1041
4635, 1231, 514, 529, 385
4636, 569, 727, 1114, 558
4637, 569, 1114, 727, 734
4638, 895, 329, 372, 338
4639, 895, 372, 329, 1148

*NSET, NSET=CONSTRAINT_1
1, 8, 50, 162, 168, 169, 170, 171, 172, 584, 673, 727, 728, 729, 731, 734

*NSET, NSET=CONSTRAINT_2
4, 6, 80, 91, 92, 93, 94, 95, 132, 585, 599, 719, 726, 732, 733, 735

*NSET, NSET=LOAD_1
799

*MATERIAL, NAME=STRUCTURAL_STEEL
*ELASTIC
200000.000000, 0.300000

*SOLID SECTION, ELSET=ALL_ELEMENTS, MATERIAL=STRUCTURAL_STEEL

*BOUNDARY
CONSTRAINT_1, 1, 3

*BOUNDARY
CONSTRAINT_2, 1, 3

*STEP, NLGEOM=NO
*STATIC
0.1, 1.0

*CLOAD
LOAD_1, 3, -10000.000000

*NODE FILE
U, RF
*EL FILE
S, E

*END STEP
