*HEADING
T-shaped beam cross-section for bending analysis. The T-profile provides efficient moment of inertia.

*NODE, NSET=ALL_NODES
1, 0.000000, 0.000000, 24.000000
2, 0.000000, 0.000000, 30.000000
3, 60.000000, 0.000000, 30.000000
4, 60.000000, 0.000000, 24.000000
5, 36.000000, 0.000000, 24.000000
6, 24.000000, 0.000000, 24.000000
7, 0.000000, 100.000000, 24.000000
8, 0.000000, 100.000000, 30.000000
9, 60.000000, 100.000000, 30.000000
10, 60.000000, 100.000000, 24.000000
11, 24.000000, 100.000000, 24.000000
12, 24.000000, 0.000000, 0.000000
13, 36.000000, 0.000000, 0.000000
14, 36.000000, 100.000000, 24.000000
15, 24.000000, 100.000000, 0.000000
16, 36.000000, 100.000000, 0.000000
17, 0.000000, 0.000000, 27.000000
18, 5.454545, 0.000000, 30.000000
19, 10.909091, 0.000000, 30.000000
20, 16.363636, 0.000000, 30.000000
21, 21.818182, 0.000000, 30.000000
22, 27.272728, 0.000000, 30.000000
23, 32.727272, 0.000000, 30.000000
24, 38.181820, 0.000000, 30.000000
25, 43.636364, 0.000000, 30.000000
26, 49.090908, 0.000000, 30.000000
27, 54.545456, 0.000000, 30.000000
28, 60.000000, 0.000000, 27.000000
29, 40.799999, 0.000000, 24.000000
30, 45.599998, 0.000000, 24.000000
31, 50.400002, 0.000000, 24.000000
32, 55.200001, 0.000000, 24.000000
33, 28.000000, 0.000000, 24.000000
34, 32.000000, 0.000000, 24.000000
35, 4.800000, 0.000000, 24.000000
36, 9.600000, 0.000000, 24.000000
37, 14.400000, 0.000000, 24.000000
38, 19.200001, 0.000000, 24.000000
39, 0.000000, 100.000000, 27.000000
40, 0.000000, 94.444443, 30.000000
41, 0.000000, 88.888885, 30.000000
42, 0.000000, 83.333336, 30.000000
43, 0.000000, 77.777779, 30.000000
44, 0.000000, 72.222221, 30.000000
45, 0.000000, 66.666664, 30.000000
46, 0.000000, 61.111111, 30.000000
47, 0.000000, 55.555557, 30.000000
48, 0.000000, 50.000000, 30.000000
49, 0.000000, 44.444443, 30.000000
50, 0.000000, 38.888889, 30.000000
51, 0.000000, 33.333332, 30.000000
52, 0.000000, 27.777779, 30.000000
53, 0.000000, 22.222221, 30.000000
54, 0.000000, 16.666666, 30.000000
55, 0.000000, 11.111111, 30.000000
56, 0.000000, 5.555555, 30.000000
57, 0.000000, 94.444443, 24.000000
58, 0.000000, 88.888885, 24.000000
59, 0.000000, 83.333336, 24.000000
60, 0.000000, 77.777779, 24.000000
61, 0.000000, 72.222221, 24.000000
62, 0.000000, 66.666664, 24.000000
63, 0.000000, 61.111111, 24.000000
64, 0.000000, 55.555557, 24.000000
65, 0.000000, 50.000000, 24.000000
66, 0.000000, 44.444443, 24.000000
67, 0.000000, 38.888889, 24.000000
68, 0.000000, 33.333332, 24.000000
69, 0.000000, 27.777779, 24.000000
70, 0.000000, 22.222221, 24.000000
71, 0.000000, 16.666666, 24.000000
72, 0.000000, 11.111111, 24.000000
73, 0.000000, 5.555555, 24.000000
74, 60.000000, 5.555555, 30.000000
75, 60.000000, 11.111111, 30.000000
76, 60.000000, 16.666666, 30.000000
77, 60.000000, 22.222221, 30.000000
78, 60.000000, 27.777779, 30.000000
79, 60.000000, 33.333332, 30.000000
80, 60.000000, 38.888889, 30.000000
81, 60.000000, 44.444443, 30.000000
82, 60.000000, 50.000000, 30.000000
83, 60.000000, 55.555557, 30.000000
84, 60.000000, 61.111111, 30.000000
85, 60.000000, 66.666664, 30.000000
86, 60.000000, 72.222221, 30.000000
87, 60.000000, 77.777779, 30.000000
88, 60.000000, 83.333336, 30.000000
89, 60.000000, 88.888885, 30.000000
90, 60.000000, 94.444443, 30.000000
91, 60.000000, 100.000000, 27.000000
92, 60.000000, 5.555555, 24.000000
93, 60.000000, 11.111111, 24.000000
94, 60.000000, 16.666666, 24.000000
95, 60.000000, 22.222221, 24.000000
96, 60.000000, 27.777779, 24.000000
97, 60.000000, 33.333332, 24.000000
98, 60.000000, 38.888889, 24.000000
99, 60.000000, 44.444443, 24.000000
100, 60.000000, 50.000000, 24.000000
101, 60.000000, 55.555557, 24.000000
102, 60.000000, 61.111111, 24.000000
103, 60.000000, 66.666664, 24.000000
104, 60.000000, 72.222221, 24.000000
105, 60.000000, 77.777779, 24.000000
106, 60.000000, 83.333336, 24.000000
107, 60.000000, 88.888885, 24.000000
108, 60.000000, 94.444443, 24.000000
109, 24.000000, 94.444443, 24.000000
110, 24.000000, 88.888885, 24.000000
111, 24.000000, 83.333336, 24.000000
112, 24.000000, 77.777779, 24.000000
113, 24.000000, 72.222221, 24.000000
114, 24.000000, 66.666664, 24.000000
115, 24.000000, 61.111111, 24.000000
116, 24.000000, 55.555557, 24.000000
117, 24.000000, 50.000000, 24.000000
118, 24.000000, 44.444443, 24.000000
119, 24.000000, 38.888889, 24.000000
120, 24.000000, 33.333332, 24.000000
121, 24.000000, 27.777779, 24.000000
122, 24.000000, 22.222221, 24.000000
123, 24.000000, 16.666666, 24.000000
124, 24.000000, 11.111111, 24.000000
125, 24.000000, 5.555555, 24.000000
126, 19.200001, 100.000000, 24.000000
127, 14.400000, 100.000000, 24.000000
128, 9.600000, 100.000000, 24.000000
129, 4.800000, 100.000000, 24.000000
130, 24.000000, 0.000000, 4.800000
131, 24.000000, 0.000000, 9.600000
132, 24.000000, 0.000000, 14.400000
133, 24.000000, 0.000000, 19.200001
134, 36.000000, 0.000000, 4.800000
135, 36.000000, 0.000000, 9.600000
136, 36.000000, 0.000000, 14.400000
137, 36.000000, 0.000000, 19.200001
138, 28.000000, 0.000000, 0.000000
139, 32.000000, 0.000000, 0.000000
140, 36.000000, 5.555555, 24.000000
141, 36.000000, 11.111111, 24.000000
142, 36.000000, 16.666666, 24.000000
143, 36.000000, 22.222221, 24.000000
144, 36.000000, 27.777779, 24.000000
145, 36.000000, 33.333332, 24.000000
146, 36.000000, 38.888889, 24.000000
147, 36.000000, 44.444443, 24.000000
148, 36.000000, 50.000000, 24.000000
149, 36.000000, 55.555557, 24.000000
150, 36.000000, 61.111111, 24.000000
151, 36.000000, 66.666664, 24.000000
152, 36.000000, 72.222221, 24.000000
153, 36.000000, 77.777779, 24.000000
154, 36.000000, 83.333336, 24.000000
155, 36.000000, 88.888885, 24.000000
156, 36.000000, 94.444443, 24.000000
157, 55.200001, 100.000000, 24.000000
158, 50.400002, 100.000000, 24.000000
159, 45.599998, 100.000000, 24.000000
160, 40.799999, 100.000000, 24.000000
161, 54.545456, 100.000000, 30.000000
162, 49.090908, 100.000000, 30.000000
163, 43.636364, 100.000000, 30.000000
164, 38.181820, 100.000000, 30.000000
165, 32.727272, 100.000000, 30.000000
166, 27.272728, 100.000000, 30.000000
167, 21.818182, 100.000000, 30.000000
168, 16.363636, 100.000000, 30.000000
169, 10.909091, 100.000000, 30.000000
170, 5.454545, 100.000000, 30.000000
171, 32.000000, 100.000000, 24.000000
172, 28.000000, 100.000000, 24.000000
173, 24.000000, 100.000000, 4.800000
174, 24.000000, 100.000000, 9.600000
175, 24.000000, 100.000000, 14.400000
176, 24.000000, 100.000000, 19.200001
177, 24.000000, 94.444443, 0.000000
178, 24.000000, 88.888885, 0.000000
179, 24.000000, 83.333336, 0.000000
180, 24.000000, 77.777779, 0.000000
181, 24.000000, 72.222221, 0.000000
182, 24.000000, 66.666664, 0.000000
183, 24.000000, 61.111111, 0.000000
184, 24.000000, 55.555557, 0.000000
185, 24.000000, 50.000000, 0.000000
186, 24.000000, 44.444443, 0.000000
187, 24.000000, 38.888889, 0.000000
188, 24.000000, 33.333332, 0.000000
189, 24.000000, 27.777779, 0.000000
190, 24.000000, 22.222221, 0.000000
191, 24.000000, 16.666666, 0.000000
192, 24.000000, 11.111111, 0.000000
193, 24.000000, 5.555555, 0.000000
194, 36.000000, 100.000000, 4.800000
195, 36.000000, 100.000000, 9.600000
196, 36.000000, 100.000000, 14.400000
197, 36.000000, 100.000000, 19.200001
198, 36.000000, 5.555555, 0.000000
199, 36.000000, 11.111111, 0.000000
200, 36.000000, 16.666666, 0.000000
201, 36.000000, 22.222221, 0.000000
202, 36.000000, 27.777779, 0.000000
203, 36.000000, 33.333332, 0.000000
204, 36.000000, 38.888889, 0.000000
205, 36.000000, 44.444443, 0.000000
206, 36.000000, 50.000000, 0.000000
207, 36.000000, 55.555557, 0.000000
208, 36.000000, 61.111111, 0.000000
209, 36.000000, 66.666664, 0.000000
210, 36.000000, 72.222221, 0.000000
211, 36.000000, 77.777779, 0.000000
212, 36.000000, 83.333336, 0.000000
213, 36.000000, 88.888885, 0.000000
214, 36.000000, 94.444443, 0.000000
215, 32.000000, 100.000000, 0.000000
216, 28.000000, 100.000000, 0.000000
217, 30.000000, 0.000000, 26.933884
218, 34.551514, 0.000000, 26.909641
219, 25.448484, 0.000000, 26.909641
220, 21.480642, 0.000000, 26.757620
221, 38.519356, 0.000000, 26.757620
222, 7.702563, 0.000000, 26.966993
223, 2.992851, 0.000000, 26.994499
224, 52.297436, 0.000000, 26.966993
225, 57.007149, 0.000000, 26.994499
226, 11.925313, 0.000000, 26.755552
227, 48.074688, 0.000000, 26.755552
228, 0.000000, 63.888889, 27.000000
229, 0.000000, 41.666668, 27.000000
230, 0.000000, 91.666664, 27.000000
231, 0.000000, 96.759262, 27.000000
232, 0.000000, 69.444443, 27.000000
233, 0.000000, 47.222221, 27.000000
234, 0.000000, 36.111111, 27.000000
235, 0.000000, 52.777779, 27.000000
236, 0.000000, 30.555555, 27.000000
237, 0.000000, 86.111115, 27.000000
238, 0.000000, 75.000000, 27.000000
239, 0.000000, 58.333332, 27.000000
240, 0.000000, 25.000000, 27.000000
241, 0.000000, 19.444445, 27.000000
242, 0.000000, 13.888889, 27.000000
243, 0.000000, 8.333333, 27.000000
244, 0.000000, 3.240741, 27.000000
245, 0.000000, 80.555557, 27.000000
246, 60.000000, 58.333332, 27.000000
247, 60.000000, 52.777779, 27.000000
248, 60.000000, 75.000000, 27.000000
249, 60.000000, 8.333333, 27.000000
250, 60.000000, 3.240741, 27.000000
251, 60.000000, 47.222221, 27.000000
252, 60.000000, 13.888889, 27.000000
253, 60.000000, 19.444445, 27.000000
254, 60.000000, 30.555555, 27.000000
255, 60.000000, 25.000000, 27.000000
256, 60.000000, 36.111111, 27.000000
257, 60.000000, 41.666668, 27.000000
258, 60.000000, 63.888889, 27.000000
259, 60.000000, 69.444443, 27.000000
260, 60.000000, 80.555557, 27.000000
261, 60.000000, 86.111115, 27.000000
262, 60.000000, 91.666664, 27.000000
263, 60.000000, 96.759262, 27.000000
264, 12.000000, 95.843079, 24.000000
265, 12.021165, 3.288608, 24.000000
266, 4.824291, 69.454819, 24.000000
267, 19.188747, 47.222221, 24.000000
268, 4.811387, 36.111343, 24.000000
269, 4.802330, 80.561646, 24.000000
270, 4.823761, 58.337379, 24.000000
271, 4.805570, 19.405005, 24.000000
272, 19.188747, 63.888889, 24.000000
273, 19.188747, 30.555555, 24.000000
274, 19.188747, 75.000000, 24.000000
275, 18.493105, 14.450421, 24.000000
276, 18.506607, 85.530418, 24.000000
277, 4.811219, 47.223869, 24.000000
278, 4.936158, 91.893028, 24.000000
279, 4.134320, 8.226097, 24.000000
280, 4.817500, 86.139069, 24.000000
281, 9.464654, 83.118591, 24.000000
282, 9.517471, 77.764679, 24.000000
283, 14.614448, 80.421722, 24.000000
284, 10.228972, 88.620186, 24.000000
285, 4.663265, 13.852652, 24.000000
286, 9.418215, 16.822695, 24.000000
287, 9.612371, 22.165501, 24.000000
288, 14.387364, 19.285873, 24.000000
289, 14.479018, 24.812927, 24.000000
290, 9.565019, 27.741838, 24.000000
291, 9.396935, 11.065119, 24.000000
292, 19.188747, 91.666664, 24.000000
293, 18.681831, 8.302882, 24.000000
294, 4.797089, 75.005753, 24.000000
295, 9.539801, 72.241508, 24.000000
296, 9.559136, 66.688614, 24.000000
297, 14.452793, 69.477287, 24.000000
298, 4.813206, 63.898922, 24.000000
299, 9.554741, 61.125183, 24.000000
300, 9.621222, 55.557747, 24.000000
301, 14.469318, 58.326275, 24.000000
302, 14.421940, 51.853302, 24.000000
303, 9.569724, 49.893669, 24.000000
304, 4.811252, 41.666668, 24.000000
305, 9.622232, 38.888855, 24.000000
306, 9.542123, 33.331955, 24.000000
307, 14.402643, 35.189236, 24.000000
308, 14.433555, 41.666317, 24.000000
309, 4.812059, 30.556953, 24.000000
310, 4.799170, 24.978216, 24.000000
311, 9.541544, 44.427532, 24.000000
312, 4.804321, 52.761372, 24.000000
313, 16.353807, 3.964498, 24.000000
314, 7.382167, 96.145927, 24.000000
315, 7.916441, 4.901929, 24.000000
316, 16.638651, 96.112419, 24.000000
317, 14.440779, 11.420681, 24.000000
318, 15.184088, 88.675011, 24.000000
319, 20.061960, 80.412651, 24.000000
320, 19.288965, 20.131521, 24.000000
321, 13.431102, 47.012608, 24.000000
322, 19.372778, 36.662697, 24.000000
323, 13.616899, 75.002480, 24.000000
324, 20.199017, 41.776913, 24.000000
325, 13.435511, 30.326302, 24.000000
326, 19.383787, 53.328259, 24.000000
327, 20.166058, 69.451012, 24.000000
328, 20.191347, 25.100000, 24.000000
329, 20.208370, 58.442017, 24.000000
330, 13.444947, 63.901249, 24.000000
331, 13.597970, 85.035789, 24.000000
332, 13.526198, 15.155789, 24.000000
333, 9.789459, 93.054298, 24.000000
334, 3.423665, 96.496681, 24.000000
335, 3.363633, 3.671952, 24.000000
336, 13.135159, 7.157287, 24.000000
337, 20.447128, 3.564587, 24.000000
338, 20.605480, 96.444710, 24.000000
339, 13.998800, 92.454514, 24.000000
340, 29.947536, 0.000000, 20.550035
341, 29.947536, 0.000000, 3.449965
342, 32.070435, 0.000000, 12.000000
343, 32.014061, 0.000000, 7.496152
344, 32.014061, 0.000000, 16.503847
345, 27.378374, 0.000000, 17.270882
346, 27.378374, 0.000000, 6.729119
347, 27.554337, 0.000000, 12.000000
348, 33.192318, 0.000000, 20.850777
349, 33.192318, 0.000000, 3.149223
350, 26.754316, 0.000000, 20.971403
351, 26.754316, 0.000000, 3.028597
352, 48.000000, 4.156922, 24.000000
353, 47.978836, 96.711395, 24.000000
354, 55.188747, 58.333332, 24.000000
355, 40.954750, 47.168221, 24.000000
356, 55.181019, 69.422150, 24.000000
357, 55.197670, 19.438356, 24.000000
358, 55.175709, 30.545181, 24.000000
359, 55.188747, 80.555557, 24.000000
360, 41.549507, 64.454536, 24.000000
361, 40.811253, 25.000000, 24.000000
362, 55.177471, 41.664066, 24.000000
363, 40.811253, 36.111111, 24.000000
364, 40.811253, 75.000000, 24.000000
365, 41.493393, 14.469580, 24.000000
366, 41.505985, 85.549530, 24.000000
367, 55.865681, 91.773903, 24.000000
368, 55.063843, 8.106974, 24.000000
369, 55.182499, 13.860928, 24.000000
370, 50.535347, 16.881409, 24.000000
371, 50.482529, 22.235321, 24.000000
372, 45.385551, 19.578276, 24.000000
373, 49.771027, 11.379813, 24.000000
374, 55.335789, 86.140778, 24.000000
375, 50.579964, 83.169579, 24.000000
376, 50.351944, 77.873802, 24.000000
377, 45.380787, 80.496864, 24.000000
378, 50.602608, 88.932785, 24.000000
379, 40.811253, 8.333333, 24.000000
380, 41.318039, 91.697113, 24.000000
381, 55.176178, 75.000549, 24.000000
382, 50.450031, 72.203438, 24.000000
383, 50.618416, 66.862114, 24.000000
384, 45.370747, 69.527298, 24.000000
385, 55.202911, 24.994246, 24.000000
386, 50.460197, 27.758490, 24.000000
387, 50.440865, 33.311390, 24.000000
388, 45.547207, 30.522711, 24.000000
389, 55.187000, 36.101318, 24.000000
390, 50.445499, 38.875099, 24.000000
391, 50.440926, 44.438690, 24.000000
392, 45.530682, 41.673725, 24.000000
393, 55.184780, 47.219574, 24.000000
394, 49.718437, 50.589104, 24.000000
395, 40.934296, 58.427608, 24.000000
396, 45.831219, 60.576794, 24.000000
397, 45.622505, 55.555557, 24.000000
398, 40.726940, 53.007465, 24.000000
399, 55.148502, 52.881187, 24.000000
400, 55.301064, 63.923077, 24.000000
401, 52.617832, 3.854073, 24.000000
402, 43.361347, 3.887578, 24.000000
403, 43.646179, 96.035500, 24.000000
404, 52.083492, 95.097771, 24.000000
405, 45.558838, 88.578812, 24.000000
406, 44.815910, 11.324989, 24.000000
407, 39.938038, 19.587349, 24.000000
408, 39.939606, 80.431503, 24.000000
409, 50.818211, 61.143097, 24.000000
410, 46.472954, 75.020279, 24.000000
411, 39.946301, 69.574142, 24.000000
412, 46.383102, 24.997524, 24.000000
413, 39.833942, 30.548986, 24.000000
414, 50.589298, 56.060791, 24.000000
415, 46.298977, 47.041519, 24.000000
416, 39.859337, 41.657280, 24.000000
417, 46.555099, 36.098808, 24.000000
418, 46.402031, 14.964210, 24.000000
419, 46.473381, 84.843819, 24.000000
420, 44.717400, 50.862511, 24.000000
421, 50.210541, 6.945701, 24.000000
422, 56.636360, 96.328018, 24.000000
423, 56.576336, 3.503320, 24.000000
424, 46.864666, 92.842224, 24.000000
425, 39.552845, 96.435410, 24.000000
426, 39.394520, 3.555293, 24.000000
427, 46.655582, 64.855614, 24.000000
428, 46.001202, 7.545485, 24.000000
429, 29.443352, 94.922913, 30.000000
430, 29.567524, 5.273447, 30.000000
431, 4.813149, 63.891720, 30.000000
432, 4.811547, 47.220264, 30.000000
433, 55.188747, 36.111111, 30.000000
434, 55.188747, 52.777779, 30.000000
435, 4.816436, 30.584532, 30.000000
436, 54.996941, 68.686546, 30.000000
437, 55.229057, 19.849865, 30.000000
438, 4.807859, 80.560646, 30.000000
439, 55.227230, 80.891792, 30.000000
440, 4.808287, 19.520264, 30.000000
441, 19.196409, 5.074505, 30.000000
442, 41.158287, 5.044916, 30.000000
443, 40.909092, 95.276222, 30.000000
444, 19.129606, 95.106270, 30.000000
445, 4.683084, 91.439133, 30.000000
446, 55.321209, 8.558566, 30.000000
447, 4.741379, 8.637885, 30.000000
448, 55.458549, 91.185448, 30.000000
449, 4.782721, 86.073196, 30.000000
450, 9.599234, 83.330399, 30.000000
451, 9.609425, 77.797173, 30.000000
452, 14.398837, 80.568451, 30.000000
453, 14.406025, 75.037872, 30.000000
454, 19.193157, 77.808548, 30.000000
455, 19.199871, 72.277000, 30.000000
456, 23.990320, 75.056870, 30.000000
457, 23.996557, 69.515579, 30.000000
458, 28.789570, 72.298164, 30.000000
459, 28.796568, 66.752525, 30.000000
460, 24.008652, 63.974991, 30.000000
461, 28.806061, 61.209167, 30.000000
462, 24.014208, 58.430756, 30.000000
463, 28.811806, 55.666782, 30.000000
464, 24.020668, 52.884212, 30.000000
465, 28.819479, 50.115559, 30.000000
466, 24.022635, 47.334972, 30.000000
467, 28.825464, 44.562218, 30.000000
468, 24.033474, 41.785576, 30.000000
469, 28.833822, 39.015491, 30.000000
470, 24.038002, 36.237206, 30.000000
471, 28.837032, 33.470650, 30.000000
472, 24.047121, 30.696045, 30.000000
473, 28.842743, 27.936958, 30.000000
474, 33.604267, 58.445858, 30.000000
475, 33.624905, 41.791012, 30.000000
476, 33.629749, 30.705107, 30.000000
477, 33.634613, 25.177837, 30.000000
478, 24.055902, 25.166519, 30.000000
479, 33.587914, 69.531166, 30.000000
480, 33.584625, 75.075478, 30.000000
481, 38.417053, 27.944324, 30.000000
482, 38.420750, 22.421980, 30.000000
483, 19.244764, 38.990807, 30.000000
484, 19.228535, 55.626778, 30.000000
485, 38.376163, 72.307823, 30.000000
486, 38.367458, 77.838402, 30.000000
487, 24.024860, 80.672501, 30.000000
488, 33.630211, 19.678429, 30.000000
489, 19.260492, 27.921074, 30.000000
490, 19.275455, 22.395491, 30.000000
491, 43.206375, 25.184641, 30.000000
492, 42.747509, 19.924204, 30.000000
493, 43.203365, 30.713503, 30.000000
494, 42.878975, 75.078995, 30.000000
495, 42.818813, 80.604553, 30.000000
496, 43.124352, 69.545563, 30.000000
497, 38.314518, 83.360001, 30.000000
498, 47.998158, 27.948526, 30.000000
499, 24.067125, 19.645185, 30.000000
500, 19.284021, 16.874006, 30.000000
501, 14.411258, 69.503929, 30.000000
502, 14.458302, 25.145803, 30.000000
503, 14.459847, 30.653063, 30.000000
504, 24.068241, 14.132408, 30.000000
505, 43.131214, 86.025604, 30.000000
506, 14.390426, 86.099106, 30.000000
507, 47.707207, 33.486145, 30.000000
508, 43.152561, 36.251842, 30.000000
509, 47.649448, 39.030029, 30.000000
510, 43.131859, 41.800705, 30.000000
511, 47.634102, 44.578922, 30.000000
512, 43.118114, 47.351677, 30.000000
513, 47.817463, 50.129616, 30.000000
514, 43.142868, 52.901443, 30.000000
515, 47.657902, 55.680428, 30.000000
516, 43.121643, 58.451820, 30.000000
517, 47.914711, 61.231537, 30.000000
518, 38.380344, 50.123367, 30.000000
519, 47.863281, 82.969620, 30.000000
520, 47.440834, 88.806938, 30.000000
521, 47.120380, 73.210541, 30.000000
522, 38.329712, 89.717010, 30.000000
523, 33.601936, 86.113449, 30.000000
524, 19.281036, 11.237345, 30.000000
525, 14.524144, 14.090177, 30.000000
526, 24.067244, 8.629277, 30.000000
527, 29.039766, 11.344755, 30.000000
528, 33.778801, 9.125651, 30.000000
529, 52.799675, 41.806515, 30.000000
530, 52.784931, 58.460793, 30.000000
531, 14.541955, 8.606305, 30.000000
532, 52.690933, 86.145775, 30.000000
533, 51.946018, 31.588539, 30.000000
534, 52.678566, 25.337488, 30.000000
535, 52.118835, 63.810890, 30.000000
536, 9.696270, 11.320240, 30.000000
537, 9.062097, 5.235847, 30.000000
538, 4.833020, 14.018565, 30.000000
539, 9.676902, 16.835693, 30.000000
540, 9.561215, 22.377457, 30.000000
541, 9.580746, 88.826233, 30.000000
542, 14.395483, 91.620399, 30.000000
543, 19.200495, 89.142761, 30.000000
544, 24.123823, 92.021919, 30.000000
545, 24.169184, 86.523438, 30.000000
546, 28.796217, 89.645798, 30.000000
547, 8.990891, 94.852882, 30.000000
548, 55.216000, 13.966003, 30.000000
549, 50.432648, 11.168325, 30.000000
550, 51.019531, 5.140686, 30.000000
551, 45.879921, 8.357877, 30.000000
552, 45.728004, 13.724403, 30.000000
553, 41.394051, 10.533985, 30.000000
554, 4.810058, 75.014267, 30.000000
555, 4.821348, 69.460770, 30.000000
556, 9.619965, 66.686882, 30.000000
557, 9.617826, 61.119793, 30.000000
558, 14.421243, 63.922249, 30.000000
559, 19.229494, 83.469131, 30.000000
560, 28.765928, 83.390091, 30.000000
561, 28.788193, 77.867569, 30.000000
562, 28.852390, 22.412458, 30.000000
563, 28.870071, 16.896610, 30.000000
564, 37.846622, 17.178022, 30.000000
565, 55.453964, 74.930389, 30.000000
566, 50.501301, 77.777168, 30.000000
567, 33.570442, 80.607498, 30.000000
568, 33.627216, 36.242107, 30.000000
569, 50.589409, 16.398701, 30.000000
570, 4.808649, 36.113308, 30.000000
571, 4.810789, 41.663441, 30.000000
572, 9.621200, 44.448593, 30.000000
573, 9.622608, 49.997845, 30.000000
574, 14.436979, 47.264767, 30.000000
575, 14.429115, 52.819115, 30.000000
576, 9.618155, 38.879799, 30.000000
577, 9.616321, 55.569820, 30.000000
578, 48.650635, 67.530090, 30.000000
579, 43.264275, 64.126747, 30.000000
580, 4.809778, 58.337631, 30.000000
581, 4.810042, 52.780186, 30.000000
582, 55.996300, 46.341991, 30.000000
583, 33.594852, 63.990028, 30.000000
584, 9.648138, 33.383286, 30.000000
585, 47.438736, 22.755819, 30.000000
586, 35.454544, 95.276222, 30.000000
587, 46.749363, 94.560814, 30.000000
588, 19.249878, 33.449158, 30.000000
589, 19.213226, 66.732124, 30.000000
590, 38.413712, 33.467091, 30.000000
591, 38.389343, 66.787903, 30.000000
592, 9.613013, 72.250153, 30.000000
593, 14.463340, 19.619772, 30.000000
594, 14.441998, 36.178089, 30.000000
595, 38.394798, 61.245869, 30.000000
596, 38.409733, 39.015369, 30.000000
597, 38.380531, 55.678478, 30.000000
598, 33.603809, 52.903599, 30.000000
599, 33.610104, 47.345650, 30.000000
600, 38.396618, 44.575649, 30.000000
601, 14.411206, 58.372379, 30.000000
602, 19.216179, 61.176548, 30.000000
603, 19.252893, 44.548355, 30.000000
604, 19.231804, 50.079700, 30.000000
605, 14.434628, 41.716694, 30.000000
606, 9.648641, 27.870001, 30.000000
607, 4.781992, 25.075783, 30.000000
608, 33.338272, 14.345880, 30.000000
609, 51.723518, 95.441002, 30.000000
610, 35.596519, 4.557356, 30.000000
611, 43.465336, 91.050957, 30.000000
612, 33.431355, 90.916618, 30.000000
613, 24.384417, 3.795446, 30.000000
614, 14.020205, 3.846055, 30.000000
615, 46.157001, 3.708696, 30.000000
616, 13.957742, 96.315910, 30.000000
617, 24.545454, 96.502876, 30.000000
618, 4.057314, 95.916367, 30.000000
619, 55.942684, 4.083637, 30.000000
620, 4.057314, 4.083637, 30.000000
621, 55.942684, 95.916367, 30.000000
622, 38.059452, 7.984102, 30.000000
623, 56.873226, 86.111115, 30.000000
624, 46.236549, 77.928177, 30.000000
625, 51.719322, 72.328636, 30.000000
626, 56.362202, 63.143173, 30.000000
627, 56.926060, 58.333332, 30.000000
628, 56.967663, 25.148582, 30.000000
629, 56.358887, 30.075020, 30.000000
630, 50.900826, 52.881031, 30.000000
631, 51.532063, 47.877567, 30.000000
632, 56.934292, 41.666668, 30.000000
633, 51.058220, 36.404469, 30.000000
634, 37.467484, 12.207954, 30.000000
635, 51.047829, 91.335587, 30.000000
636, 41.869209, 15.005868, 30.000000
637, 46.609440, 17.773514, 30.000000
638, 50.945004, 20.442213, 30.000000
639, 51.570686, 81.946091, 30.000000
640, 30.000000, 100.000000, 26.933884
641, 25.448484, 100.000000, 26.909641
642, 34.551514, 100.000000, 26.909641
643, 38.519356, 100.000000, 26.757620
644, 21.480642, 100.000000, 26.757620
645, 52.297436, 100.000000, 26.966993
646, 57.007149, 100.000000, 26.994499
647, 7.702563, 100.000000, 26.966993
648, 2.992851, 100.000000, 26.994499
649, 48.074688, 100.000000, 26.755552
650, 11.925313, 100.000000, 26.755552
651, 24.000000, 95.843079, 12.000000
652, 24.000000, 4.156922, 12.000000
653, 24.000000, 69.454819, 19.175709
654, 24.000000, 47.222939, 19.183683
655, 24.000000, 36.111130, 19.187485
656, 24.000000, 80.561646, 19.197670
657, 24.000000, 58.336224, 19.177305
658, 24.000000, 25.228277, 19.387451
659, 24.000000, 63.888889, 4.811252
660, 24.000000, 41.666668, 4.811252
661, 24.000000, 75.000000, 4.811252
662, 24.000000, 31.141756, 5.469217
663, 24.000000, 52.777779, 4.811252
664, 24.000000, 19.438356, 4.802330
665, 24.000000, 14.469580, 18.506607
666, 24.000000, 85.530418, 5.493393
667, 24.000000, 91.893028, 19.063841
668, 24.000000, 8.106974, 4.936158
669, 24.000000, 86.139069, 19.182501
670, 24.000000, 83.118591, 14.535346
671, 24.000000, 77.764679, 14.482529
672, 24.000000, 80.421722, 9.385552
673, 24.000000, 88.620186, 13.771028
674, 24.000000, 13.860928, 4.817500
675, 24.000000, 16.881409, 9.464654
676, 24.000000, 22.838367, 10.314350
677, 24.000000, 19.408894, 14.381313
678, 24.000000, 11.379813, 10.228972
679, 24.000000, 91.666664, 4.811252
680, 24.000000, 8.333333, 19.188747
681, 24.000000, 75.005753, 19.202911
682, 24.000000, 72.241508, 14.460199
683, 24.000000, 66.688614, 14.440864
684, 24.000000, 69.477287, 9.547207
685, 24.000000, 63.898727, 19.186972
686, 24.000000, 61.124958, 14.445467
687, 24.000000, 55.562077, 14.440649
688, 24.000000, 58.326275, 9.530682
689, 24.000000, 52.781155, 19.190962
690, 24.000000, 50.002998, 14.451877
691, 24.000000, 44.443607, 14.452306
692, 24.000000, 47.208618, 9.544208
693, 24.000000, 41.666927, 19.198042
694, 24.000000, 38.887699, 14.460581
695, 24.000000, 33.555115, 14.519015
696, 24.000000, 36.328239, 9.258809
697, 24.000000, 30.630354, 19.245041
698, 24.000000, 27.931431, 14.024360
699, 24.000000, 25.140303, 4.920671
700, 24.000000, 3.887578, 16.638651
701, 24.000000, 3.854073, 7.382167
702, 24.000000, 96.145927, 16.617834
703, 24.000000, 96.112419, 7.361349
704, 24.000000, 88.675011, 8.815912
705, 24.000000, 11.324989, 15.184088
706, 24.000000, 20.030415, 19.341114
707, 24.000000, 80.412651, 3.938040
708, 24.000000, 75.002480, 10.383101
709, 24.000000, 27.780733, 9.144604
710, 24.000000, 36.271778, 3.907856
711, 24.000000, 41.706966, 10.505431
712, 24.000000, 69.451012, 3.833942
713, 24.000000, 47.219501, 3.833343
714, 24.000000, 52.775551, 10.555734
715, 24.000000, 58.331921, 3.830637
716, 24.000000, 63.901203, 10.555094
717, 24.000000, 14.841097, 13.565409
718, 24.000000, 85.035789, 10.402030
719, 24.000000, 31.696846, 10.394969
720, 24.000000, 23.461535, 15.253172
721, 24.000000, 6.945701, 9.789459
722, 24.000000, 93.054298, 14.210541
723, 24.000000, 96.496681, 20.576336
724, 24.000000, 3.503320, 3.423665
725, 24.000000, 3.555293, 20.605480
726, 24.000000, 96.444710, 3.394520
727, 24.000000, 7.545485, 13.998800
728, 24.000000, 92.454514, 10.001200
729, 36.000000, 4.156922, 12.000000
730, 36.000000, 95.843079, 12.000000
731, 36.000000, 52.777779, 19.188747
732, 36.000000, 63.888889, 19.188747
733, 36.000000, 19.438356, 19.197670
734, 36.000000, 31.141756, 18.530783
735, 36.000000, 41.666668, 19.188747
736, 36.000000, 75.000000, 19.188747
737, 36.000000, 58.336224, 4.822695
738, 36.000000, 69.454819, 4.824291
739, 36.000000, 25.228277, 4.612548
740, 36.000000, 47.222939, 4.816318
741, 36.000000, 36.111130, 4.812514
742, 36.000000, 80.561646, 4.802330
743, 36.000000, 85.530418, 18.506607
744, 36.000000, 14.469580, 5.493393
745, 36.000000, 8.106974, 19.063841
746, 36.000000, 91.893028, 4.936158
747, 36.000000, 13.860928, 19.182501
748, 36.000000, 16.881409, 14.535346
749, 36.000000, 22.838367, 13.685650
750, 36.000000, 19.408894, 9.618687
751, 36.000000, 11.379813, 13.771028
752, 36.000000, 86.139069, 4.817500
753, 36.000000, 83.118591, 9.464654
754, 36.000000, 77.764679, 9.517471
755, 36.000000, 80.421722, 14.614448
756, 36.000000, 88.620186, 10.228972
757, 36.000000, 8.333333, 4.811252
758, 36.000000, 91.666664, 19.188747
759, 36.000000, 75.005753, 4.797089
760, 36.000000, 72.241508, 9.539801
761, 36.000000, 66.688614, 9.559136
762, 36.000000, 69.477287, 14.452793
763, 36.000000, 63.898727, 4.813028
764, 36.000000, 61.124958, 9.554533
765, 36.000000, 55.562077, 9.559351
766, 36.000000, 58.326275, 14.469318
767, 36.000000, 52.781155, 4.809038
768, 36.000000, 50.002998, 9.548123
769, 36.000000, 44.443607, 9.547694
770, 36.000000, 47.208618, 14.455792
771, 36.000000, 41.666927, 4.801958
772, 36.000000, 38.887699, 9.539419
773, 36.000000, 33.555115, 9.480985
774, 36.000000, 36.328239, 14.741191
775, 36.000000, 30.630354, 4.754960
776, 36.000000, 27.931431, 9.975640
777, 36.000000, 25.140303, 19.079329
778, 36.000000, 3.887578, 7.361349
779, 36.000000, 3.854073, 16.617834
780, 36.000000, 96.112419, 16.638651
781, 36.000000, 96.145927, 7.382167
782, 36.000000, 11.324989, 8.815912
783, 36.000000, 88.675011, 15.184088
784, 36.000000, 20.030415, 4.658887
785, 36.000000, 80.412651, 20.061960
786, 36.000000, 75.002480, 13.616899
787, 36.000000, 27.780733, 14.855396
788, 36.000000, 36.271778, 20.092144
789, 36.000000, 41.706966, 13.494569
790, 36.000000, 69.451012, 20.166058
791, 36.000000, 47.219501, 20.166658
792, 36.000000, 52.775551, 13.444266
793, 36.000000, 58.331921, 20.169363
794, 36.000000, 63.901203, 13.444906
795, 36.000000, 14.841097, 10.434591
796, 36.000000, 85.035789, 13.597970
797, 36.000000, 31.696846, 13.605031
798, 36.000000, 23.461535, 8.746828
799, 36.000000, 93.054298, 9.789459
800, 36.000000, 6.945701, 14.210541
801, 36.000000, 96.496681, 3.423665
802, 36.000000, 3.503320, 20.576336
803, 36.000000, 3.555293, 3.394520
804, 36.000000, 96.444710, 20.605480
805, 36.000000, 92.454514, 13.998800
806, 36.000000, 7.545485, 10.001200
807, 30.180279, 96.333992, 0.000000
808, 30.180279, 3.666005, 0.000000
809, 31.188747, 69.444443, 0.000000
810, 31.188747, 58.333332, 0.000000
811, 28.811253, 41.666668, 0.000000
812, 31.010479, 18.650793, 0.000000
813, 27.975138, 85.142120, 0.000000
814, 28.396250, 31.481482, 0.000000
815, 28.811253, 75.000000, 0.000000
816, 28.811253, 52.777779, 0.000000
817, 31.188747, 47.222221, 0.000000
818, 28.811253, 63.888889, 0.000000
819, 28.122972, 13.781834, 0.000000
820, 31.579418, 36.205593, 0.000000
821, 31.675528, 80.417130, 0.000000
822, 30.925726, 25.812548, 0.000000
823, 28.299686, 8.444929, 0.000000
824, 28.278568, 91.401352, 0.000000
825, 32.903709, 7.574045, 0.000000
826, 32.900192, 92.400337, 0.000000
827, 33.416798, 3.359121, 0.000000
828, 26.639996, 3.317435, 0.000000
829, 26.636978, 96.660606, 0.000000
830, 33.416096, 96.635757, 0.000000
831, 27.057699, 69.444443, 0.000000
832, 27.057699, 58.333332, 0.000000
833, 32.942303, 41.666668, 0.000000
834, 32.757595, 30.742592, 0.000000
835, 32.942303, 52.777779, 0.000000
836, 32.942303, 63.888889, 0.000000
837, 28.131050, 22.222221, 0.000000
838, 27.057699, 47.222221, 0.000000
839, 27.166914, 36.185486, 0.000000
840, 32.309330, 13.043180, 0.000000
841, 32.942303, 75.000000, 0.000000
842, 32.532066, 86.529182, 0.000000
843, 27.292383, 80.334076, 0.000000
844, 30.052464, 100.000000, 20.550035
845, 30.052464, 100.000000, 3.449965
846, 27.929565, 100.000000, 12.000000
847, 27.985939, 100.000000, 7.496152
848, 27.985939, 100.000000, 16.503847
849, 32.621624, 100.000000, 17.270882
850, 32.621624, 100.000000, 6.729119
851, 32.445663, 100.000000, 12.000000
852, 26.807680, 100.000000, 20.850777
853, 26.807680, 100.000000, 3.149223
854, 33.245686, 100.000000, 20.971403
855, 33.245686, 100.000000, 3.028597
856, 30.000000, 5.657778, 22.854336
857, 30.000000, 94.342224, 22.854336
858, 30.000000, 93.572594, 12.000000
859, 30.000000, 6.427410, 12.000000
860, 29.714470, 5.725884, 5.838066
861, 30.288010, 94.290604, 5.850477
862, 30.000000, 75.000000, 22.405695
863, 30.000000, 41.666668, 22.402449
864, 30.000000, 83.066742, 12.000000
865, 30.000000, 52.777779, 22.397724
866, 29.839539, 13.801439, 8.064746
867, 30.160461, 13.801439, 15.935254
868, 29.908821, 61.114685, 20.788286
869, 30.187403, 67.074287, 17.391005
870, 29.948307, 33.387619, 20.823400
871, 30.000000, 25.000000, 22.524496
872, 29.952284, 83.354698, 20.786655
873, 30.149965, 52.785686, 7.995544
874, 30.151453, 63.908073, 8.000571
875, 30.176277, 74.996788, 7.968775
876, 29.698994, 89.300865, 17.008425
877, 30.158123, 41.667973, 7.986517
878, 30.061073, 25.936850, 7.359990
879, 30.011690, 25.476791, 13.839626
880, 30.271339, 31.116228, 10.985669
881, 29.809626, 74.997589, 15.833268
882, 29.832844, 52.785271, 15.798580
883, 29.825588, 41.667671, 15.810262
884, 29.839409, 35.501781, 6.367902
885, 30.263140, 87.951973, 7.260823
886, 30.000000, 13.888889, 22.675875
887, 30.000000, 68.843094, 24.090158
888, 29.870476, 80.975197, 6.084391
889, 29.990431, 20.048218, 17.173458
890, 30.287693, 61.473934, 14.512244
891, 30.102699, 47.229042, 18.421455
892, 30.479372, 47.223244, 24.800188
893, 29.668098, 19.646929, 10.756369
894, 29.736292, 35.590736, 15.121387
895, 30.446226, 69.461075, 11.220631
896, 30.444931, 47.223175, 11.214699
897, 30.556248, 19.474886, 24.834545
898, 30.656481, 94.813576, 17.366461
899, 29.343519, 5.186423, 17.366461
900, 29.665493, 58.347935, 5.802079
901, 30.774298, 36.840286, 25.187969
902, 30.886339, 57.611084, 25.142439
903, 28.604414, 30.281815, 16.195778
904, 30.818300, 79.867653, 25.133495
905, 29.518324, 69.798904, 5.523830

*ELEMENT, TYPE=C3D4, ELSET=ALL_ELEMENTS
1, 473, 870, 476, 871
2, 687, 882, 873, 890
3, 155, 110, 857, 872
4, 471, 476, 473, 870
5, 740, 873, 817, 896
6, 740, 817, 877, 896
7, 765, 873, 882, 890
8, 121, 120, 473, 870
9, 110, 155, 546, 872
10, 120, 471, 473, 870
11, 546, 155, 110, 857
12, 121, 870, 473, 871
13, 114, 461, 115, 887
14, 583, 868, 461, 887
15, 857, 872, 110, 876
16, 476, 870, 144, 871
17, 155, 872, 857, 876
18, 765, 873, 890, 900
19, 461, 868, 115, 887
20, 800, 867, 859, 899
21, 114, 459, 461, 887
22, 864, 872, 656, 881
23, 171, 642, 640, 857
24, 218, 34, 217, 856
25, 523, 546, 155, 872
26, 671, 864, 656, 881
27, 834, 878, 775, 884
28, 782, 860, 859, 866
29, 114, 115, 868, 887
30, 523, 560, 546, 872
31, 806, 859, 782, 860
32, 583, 461, 459, 887
33, 471, 476, 870, 901
34, 834, 814, 878, 884
35, 583, 461, 868, 902
36, 745, 886, 867, 899
37, 859, 867, 705, 899
38, 688, 687, 873, 890
39, 671, 875, 864, 881
40, 784, 878, 812, 893
41, 858, 756, 876, 885
42, 864, 875, 754, 881
43, 862, 872, 785, 881
44, 673, 858, 876, 885
45, 145, 144, 476, 870
46, 110, 546, 560, 872
47, 765, 890, 764, 900
48, 145, 870, 476, 901
49, 583, 150, 868, 887
50, 656, 671, 670, 864
51, 878, 880, 775, 884
52, 867, 886, 680, 899
53, 727, 859, 705, 899
54, 678, 859, 721, 860
55, 840, 860, 757, 866
56, 788, 863, 883, 894
57, 745, 856, 886, 899
58, 800, 745, 867, 899
59, 788, 870, 863, 894
60, 793, 882, 868, 890
61, 865, 868, 793, 882
62, 823, 860, 840, 866
63, 656, 872, 862, 881
64, 772, 877, 884, 894
65, 800, 751, 859, 867
66, 688, 890, 873, 900
67, 583, 151, 150, 887
68, 664, 837, 878, 893
69, 657, 868, 865, 882
70, 782, 859, 751, 866
71, 705, 859, 678, 867
72, 656, 864, 670, 872
73, 110, 560, 111, 872
74, 859, 866, 678, 867
75, 751, 866, 859, 867
76, 218, 140, 34, 856
77, 765, 882, 766, 890
78, 655, 863, 870, 894
79, 33, 219, 217, 430
80, 784, 812, 866, 893
81, 429, 640, 172, 641
82, 864, 876, 756, 885
83, 655, 883, 863, 894
84, 783, 858, 756, 876
85, 868, 882, 657, 890
86, 859, 860, 678, 866
87, 755, 872, 864, 881
88, 877, 883, 694, 894
89, 767, 817, 740, 873
90, 772, 883, 877, 894
91, 771, 740, 817, 877
92, 862, 869, 653, 881
93, 523, 155, 154, 872
94, 856, 680, 886, 899
95, 704, 858, 673, 885
96, 583, 868, 150, 902
97, 523, 872, 154, 904
98, 814, 662, 878, 884
99, 713, 838, 816, 873
100, 790, 869, 862, 881
101, 825, 757, 840, 860
102, 673, 876, 864, 885
103, 151, 868, 150, 887
104, 713, 811, 838, 877
105, 523, 560, 872, 904
106, 812, 878, 837, 893
107, 528, 856, 527, 886
108, 708, 875, 671, 881
109, 429, 172, 109, 641
110, 838, 817, 816, 873
111, 687, 657, 882, 890
112, 662, 880, 878, 884
113, 825, 840, 823, 860
114, 755, 785, 872, 881
115, 171, 156, 642, 857
116, 219, 33, 125, 856
117, 668, 860, 823, 866
118, 767, 835, 817, 873
119, 771, 817, 833, 877
120, 642, 429, 640, 857
121, 701, 859, 346, 860
122, 811, 817, 838, 877
123, 664, 866, 812, 893
124, 773, 772, 884, 894
125, 458, 112, 561, 862
126, 467, 469, 118, 863
127, 458, 113, 112, 862
128, 468, 469, 118, 467
129, 459, 460, 114, 461
130, 704, 673, 718, 885
131, 119, 118, 469, 863
132, 464, 463, 465, 116
133, 469, 118, 119, 468
134, 461, 460, 114, 115
135, 773, 884, 880, 894
136, 757, 860, 782, 866
137, 653, 869, 862, 887
138, 463, 465, 116, 865
139, 714, 873, 687, 882
140, 458, 561, 112, 456
141, 458, 112, 113, 456
142, 787, 879, 777, 903
143, 833, 771, 877, 884
144, 473, 472, 471, 120
145, 528, 141, 856, 886
146, 694, 877, 711, 883
147, 120, 473, 472, 121
148, 116, 465, 464, 117
149, 664, 674, 819, 866
150, 777, 879, 871, 903
151, 680, 705, 867, 899
152, 823, 819, 674, 866
153, 117, 116, 465, 865
154, 789, 883, 772, 894
155, 480, 862, 152, 887
156, 786, 754, 875, 881
157, 458, 862, 480, 887
158, 219, 430, 33, 856
159, 217, 430, 218, 856
160, 612, 155, 546, 857
161, 656, 862, 681, 881
162, 796, 864, 743, 876
163, 672, 864, 671, 875
164, 800, 745, 751, 867
165, 681, 862, 653, 881
166, 693, 863, 655, 883
167, 478, 473, 562, 871
168, 673, 864, 718, 885
169, 478, 121, 473, 871
170, 664, 812, 837, 893
171, 784, 798, 878, 893
172, 862, 869, 790, 887
173, 696, 884, 877, 894
174, 562, 122, 478, 871
175, 122, 121, 478, 871
176, 734, 871, 870, 903
177, 670, 872, 864, 876
178, 657, 865, 689, 882
179, 823, 840, 819, 866
180, 119, 655, 863, 901
181, 696, 877, 694, 894
182, 765, 873, 792, 882
183, 471, 870, 120, 901
184, 172, 640, 429, 857
185, 112, 862, 656, 904
186, 657, 116, 865, 902
187, 685, 114, 868, 887
188, 754, 755, 864, 881
189, 217, 33, 430, 856
190, 789, 877, 772, 883
191, 668, 823, 674, 866
192, 655, 870, 863, 901
193, 766, 882, 793, 890
194, 764, 890, 874, 900
195, 480, 152, 479, 887
196, 841, 875, 759, 888
197, 461, 115, 868, 902
198, 683, 890, 716, 895
199, 458, 480, 479, 887
200, 734, 777, 871, 903
201, 708, 672, 671, 875
202, 833, 877, 811, 884
203, 795, 866, 867, 893
204, 728, 858, 704, 885
205, 728, 861, 858, 885
206, 816, 817, 835, 873
207, 862, 872, 656, 904
208, 657, 865, 868, 902
209, 692, 713, 873, 896
210, 692, 877, 713, 896
211, 685, 868, 869, 887
212, 799, 858, 861, 885
213, 864, 872, 743, 876
214, 716, 890, 874, 895
215, 694, 696, 711, 877
216, 109, 172, 429, 857
217, 811, 833, 817, 877
218, 822, 784, 739, 878
219, 668, 678, 721, 860
220, 664, 819, 812, 866
221, 846, 848, 651, 858
222, 846, 651, 847, 858
223, 342, 729, 343, 859
224, 729, 342, 344, 859
225, 754, 875, 864, 888
226, 805, 858, 783, 876
227, 697, 870, 121, 871
228, 717, 867, 866, 893
229, 758, 155, 857, 876
230, 805, 756, 783, 858
231, 704, 728, 673, 858
232, 705, 727, 678, 859
233, 806, 751, 782, 859
234, 886, 889, 706, 897
235, 757, 806, 782, 860
236, 863, 870, 788, 901
237, 669, 872, 670, 876
238, 785, 872, 862, 904
239, 701, 347, 346, 859
240, 754, 786, 755, 881
241, 124, 527, 856, 886
242, 678, 860, 668, 866
243, 871, 879, 658, 903
244, 669, 110, 872, 876
245, 702, 722, 651, 858
246, 779, 800, 729, 859
247, 799, 730, 781, 858
248, 721, 652, 701, 859
249, 734, 787, 777, 903
250, 714, 688, 687, 873
251, 836, 874, 763, 905
252, 697, 870, 871, 903
253, 795, 866, 751, 867
254, 678, 866, 717, 867
255, 642, 156, 429, 857
256, 430, 140, 218, 856
257, 662, 699, 814, 878
258, 875, 881, 708, 895
259, 851, 781, 730, 858
260, 347, 701, 652, 859
261, 816, 663, 713, 873
262, 784, 866, 750, 893
263, 504, 123, 563, 886
264, 702, 651, 848, 858
265, 344, 779, 729, 859
266, 747, 867, 745, 886
267, 713, 660, 811, 877
268, 658, 879, 871, 889
269, 683, 869, 890, 895
270, 793, 868, 865, 902
271, 718, 885, 864, 888
272, 815, 875, 841, 888
273, 768, 873, 740, 896
274, 827, 349, 803, 860
275, 740, 877, 769, 896
276, 682, 653, 869, 881
277, 738, 836, 763, 905
278, 123, 886, 706, 897
279, 504, 563, 527, 886
280, 784, 812, 744, 866
281, 795, 782, 751, 866
282, 705, 678, 717, 867
283, 743, 872, 155, 876
284, 833, 811, 820, 884
285, 777, 871, 879, 889
286, 682, 708, 881, 895
287, 835, 873, 767, 900
288, 343, 729, 778, 859
289, 847, 651, 703, 858
290, 836, 763, 874, 900
291, 721, 859, 701, 860
292, 795, 867, 748, 893
293, 346, 859, 343, 860
294, 765, 766, 764, 890
295, 765, 792, 766, 882
296, 526, 430, 125, 856
297, 786, 881, 875, 895
298, 653, 862, 113, 887
299, 430, 610, 218, 140
300, 682, 881, 869, 895
301, 527, 430, 526, 856
302, 612, 523, 546, 155
303, 790, 862, 736, 881
304, 785, 736, 862, 881
305, 657, 687, 686, 890
306, 835, 767, 737, 900
307, 799, 858, 781, 861
308, 667, 857, 110, 876
309, 469, 467, 475, 863
310, 747, 867, 886, 889
311, 480, 458, 561, 862
312, 836, 737, 763, 900
313, 465, 865, 598, 892
314, 429, 642, 586, 156
315, 467, 475, 863, 892
316, 722, 858, 702, 898
317, 800, 859, 779, 899
318, 709, 879, 878, 880
319, 788, 863, 735, 883
320, 734, 144, 870, 871
321, 560, 111, 872, 904
322, 115, 462, 116, 902
323, 463, 598, 465, 865
324, 148, 598, 865, 892
325, 709, 878, 662, 880
326, 808, 349, 827, 860
327, 855, 830, 801, 861
328, 147, 863, 475, 892
329, 793, 731, 865, 882
330, 744, 840, 757, 866
331, 755, 743, 796, 864
332, 462, 115, 461, 902
333, 778, 859, 806, 860
334, 658, 720, 879, 889
335, 343, 859, 778, 860
336, 109, 429, 546, 857
337, 863, 891, 118, 892
338, 699, 822, 814, 878
339, 818, 874, 836, 905
340, 654, 118, 863, 891
341, 110, 109, 546, 857
342, 702, 858, 848, 898
343, 344, 779, 859, 899
344, 728, 703, 858, 861
345, 665, 706, 886, 889
346, 834, 775, 741, 884
347, 672, 864, 875, 888
348, 691, 883, 711, 896
349, 874, 890, 794, 895
350, 666, 885, 718, 888
351, 711, 883, 877, 896
352, 738, 809, 836, 905
353, 696, 880, 884, 894
354, 695, 880, 719, 894
355, 789, 772, 774, 894
356, 703, 847, 858, 861
357, 680, 867, 665, 886
358, 113, 862, 458, 887
359, 788, 883, 774, 894
360, 706, 889, 871, 897
361, 480, 153, 152, 862
362, 714, 882, 690, 896
363, 110, 560, 545, 111
364, 714, 873, 882, 896
365, 759, 875, 841, 905
366, 470, 120, 119, 901
367, 786, 875, 760, 895
368, 654, 863, 693, 891
369, 467, 863, 118, 892
370, 141, 745, 856, 886
371, 784, 744, 750, 866
372, 799, 756, 858, 885
373, 783, 796, 743, 876
374, 654, 118, 891, 892
375, 775, 880, 773, 884
376, 706, 871, 122, 897
377, 797, 880, 787, 903
378, 560, 546, 110, 545
379, 703, 651, 728, 858
380, 778, 729, 806, 859
381, 681, 656, 112, 862
382, 119, 655, 693, 863
383, 118, 693, 654, 863
384, 117, 891, 865, 892
385, 113, 653, 681, 862
386, 470, 471, 120, 901
387, 835, 816, 873, 900
388, 147, 146, 475, 863
389, 473, 477, 562, 871
390, 654, 865, 117, 891
391, 475, 469, 863, 901
392, 480, 862, 561, 904
393, 141, 140, 528, 856
394, 836, 874, 818, 900
395, 268, 576, 571, 570
396, 561, 862, 112, 904
397, 654, 689, 865, 891
398, 119, 863, 469, 901
399, 123, 504, 124, 886
400, 790, 762, 869, 881
401, 798, 879, 878, 893
402, 679, 861, 728, 885
403, 295, 556, 501, 592
404, 787, 880, 879, 903
405, 679, 728, 704, 885
406, 784, 750, 798, 893
407, 759, 841, 738, 905
408, 688, 874, 890, 900
409, 598, 865, 463, 902
410, 690, 891, 691, 896
411, 689, 657, 116, 865
412, 654, 891, 117, 892
413, 116, 463, 865, 902
414, 475, 863, 146, 901
415, 463, 116, 462, 902
416, 124, 856, 680, 886
417, 268, 306, 576, 570
418, 854, 804, 171, 857
419, 33, 350, 725, 856
420, 773, 880, 797, 894
421, 810, 835, 737, 900
422, 680, 727, 705, 899
423, 742, 752, 821, 888
424, 617, 429, 109, 641
425, 869, 794, 890, 895
426, 556, 295, 501, 296
427, 477, 562, 871, 897
428, 306, 584, 576, 570
429, 784, 798, 739, 878
430, 855, 807, 830, 861
431, 752, 885, 842, 888
432, 527, 124, 504, 886
433, 432, 571, 304, 311
434, 432, 304, 277, 311
435, 743, 864, 755, 872
436, 810, 737, 836, 900
437, 834, 741, 820, 884
438, 699, 664, 837, 878
439, 682, 869, 683, 895
440, 555, 298, 296, 431
441, 298, 555, 296, 266
442, 268, 306, 570, 435
443, 557, 556, 299, 431
444, 528, 430, 527, 856
445, 877, 883, 789, 896
446, 312, 432, 277, 303
447, 556, 592, 295, 555
448, 826, 746, 861, 885
449, 555, 295, 294, 554
450, 477, 871, 143, 897
451, 572, 571, 311, 576
452, 431, 270, 299, 580
453, 296, 556, 555, 431
454, 697, 871, 658, 903
455, 294, 266, 295, 555
456, 664, 878, 676, 893
457, 219, 125, 430, 856
458, 670, 864, 673, 876
459, 306, 268, 309, 435
460, 117, 865, 465, 892
461, 117, 654, 689, 865
462, 298, 270, 299, 431
463, 432, 571, 311, 572
464, 722, 876, 858, 898
465, 822, 834, 814, 878
466, 234, 268, 229, 570
467, 840, 812, 819, 866
468, 480, 153, 862, 904
469, 432, 229, 233, 304
470, 571, 229, 268, 570
471, 571, 229, 304, 268
472, 304, 233, 432, 277
473, 299, 557, 431, 580
474, 803, 825, 827, 860
475, 747, 886, 733, 889
476, 432, 571, 229, 304
477, 581, 239, 270, 235
478, 738, 763, 874, 905
479, 457, 113, 458, 887
480, 556, 296, 299, 431
481, 759, 875, 742, 888
482, 811, 877, 660, 884
483, 580, 239, 270, 581
484, 639, 375, 374, 359
485, 287, 440, 310, 271
486, 239, 270, 228, 580
487, 592, 295, 555, 554
488, 341, 349, 808, 860
489, 556, 295, 296, 555
490, 298, 299, 296, 431
491, 232, 228, 298, 431
492, 270, 431, 228, 580
493, 555, 232, 298, 431
494, 723, 852, 857, 898
495, 348, 856, 802, 899
496, 792, 882, 873, 896
497, 431, 270, 228, 298
498, 270, 312, 581, 235
499, 238, 294, 245, 554
500, 298, 266, 232, 555
501, 452, 331, 506, 559
502, 570, 306, 584, 435
503, 540, 440, 310, 287
504, 312, 581, 235, 233
505, 733, 889, 886, 897
506, 266, 294, 238, 555
507, 238, 232, 266, 555
508, 581, 312, 432, 233
509, 294, 238, 555, 554
510, 294, 269, 245, 554
511, 269, 438, 245, 554
512, 266, 296, 295, 555
513, 312, 432, 233, 277
514, 374, 439, 639, 359
515, 826, 861, 824, 885
516, 570, 234, 268, 435
517, 744, 757, 782, 866
518, 680, 705, 665, 867
519, 148, 598, 149, 865
520, 234, 309, 268, 435
521, 234, 236, 309, 435
522, 694, 883, 655, 894
523, 237, 245, 269, 449
524, 657, 689, 687, 882
525, 466, 118, 117, 892
526, 845, 853, 807, 861
527, 306, 606, 584, 435
528, 815, 841, 821, 888
529, 109, 429, 544, 546
530, 717, 866, 675, 893
531, 794, 761, 874, 895
532, 245, 438, 269, 449
533, 269, 282, 438, 554
534, 451, 282, 592, 554
535, 677, 867, 717, 893
536, 303, 432, 277, 311
537, 282, 269, 294, 554
538, 311, 303, 432, 572
539, 661, 843, 707, 888
540, 775, 878, 776, 880
541, 682, 681, 653, 881
542, 573, 432, 303, 572
543, 773, 774, 772, 894
544, 282, 451, 438, 554
545, 607, 290, 309, 435
546, 665, 886, 867, 889
547, 466, 467, 118, 892
548, 732, 869, 868, 887
549, 310, 607, 440, 540
550, 487, 112, 111, 904
551, 295, 592, 282, 554
552, 241, 310, 240, 440
553, 309, 236, 240, 607
554, 656, 681, 671, 881
555, 114, 113, 457, 887
556, 294, 295, 282, 554
557, 666, 824, 679, 885
558, 470, 119, 469, 901
559, 309, 310, 290, 607
560, 310, 309, 240, 607
561, 351, 341, 828, 860
562, 606, 290, 607, 435
563, 212, 821, 742, 752
564, 685, 114, 115, 868
565, 440, 241, 310, 271
566, 440, 540, 539, 287
567, 767, 740, 768, 873
568, 740, 771, 769, 877
569, 732, 868, 151, 887
570, 612, 429, 156, 857
571, 763, 737, 764, 874
572, 693, 655, 694, 883
573, 438, 281, 269, 449
574, 420, 512, 514, 398
575, 737, 767, 765, 873
576, 290, 502, 606, 540
577, 844, 857, 852, 898
578, 340, 856, 348, 899
579, 571, 305, 268, 304
580, 666, 813, 824, 885
581, 719, 709, 662, 880
582, 719, 880, 696, 894
583, 152, 862, 790, 887
584, 738, 763, 761, 874
585, 309, 236, 607, 435
586, 840, 744, 812, 866
587, 760, 759, 738, 875
588, 758, 743, 155, 876
589, 528, 140, 430, 856
590, 242, 241, 538, 271
591, 822, 775, 834, 878
592, 300, 557, 580, 577
593, 769, 877, 789, 896
594, 580, 300, 577, 581
595, 438, 450, 281, 449
596, 149, 865, 598, 902
597, 172, 723, 852, 857
598, 34, 802, 348, 856
599, 146, 863, 788, 901
600, 156, 155, 612, 857
601, 305, 571, 268, 576
602, 430, 125, 219, 613
603, 580, 300, 581, 270
604, 581, 312, 300, 573
605, 719, 880, 662, 884
606, 581, 300, 577, 573
607, 607, 240, 310, 440
608, 791, 891, 863, 892
609, 734, 894, 797, 903
610, 540, 593, 539, 287
611, 737, 874, 763, 900
612, 842, 885, 813, 888
613, 665, 706, 123, 886
614, 730, 851, 858, 898
615, 347, 859, 652, 899
616, 654, 117, 118, 892
617, 452, 450, 281, 451
618, 295, 501, 323, 592
619, 863, 883, 693, 891
620, 607, 310, 290, 540
621, 575, 577, 300, 573
622, 676, 664, 699, 878
623, 270, 312, 300, 581
624, 737, 767, 873, 900
625, 487, 561, 112, 904
626, 117, 465, 466, 892
627, 742, 759, 754, 875
628, 785, 862, 153, 904
629, 347, 343, 346, 859
630, 286, 440, 539, 287
631, 754, 742, 875, 888
632, 685, 683, 869, 890
633, 691, 654, 693, 891
634, 855, 845, 807, 861
635, 709, 698, 879, 880
636, 799, 861, 746, 885
637, 122, 562, 499, 897
638, 738, 874, 761, 905
639, 685, 686, 683, 890
640, 147, 791, 863, 892
641, 792, 873, 768, 896
642, 285, 242, 538, 271
643, 305, 304, 571, 311
644, 306, 576, 305, 268
645, 654, 690, 689, 891
646, 791, 865, 891, 892
647, 557, 300, 580, 299
648, 847, 851, 858, 861
649, 287, 286, 440, 271
650, 453, 451, 452, 323
651, 697, 120, 121, 870
652, 299, 300, 580, 270
653, 571, 305, 311, 576
654, 734, 777, 144, 871
655, 691, 693, 883, 891
656, 440, 538, 241, 271
657, 540, 310, 290, 287
658, 764, 874, 737, 900
659, 562, 122, 871, 897
660, 789, 774, 883, 894
661, 114, 457, 459, 887
662, 689, 882, 865, 891
663, 664, 675, 866, 893
664, 486, 485, 480, 153
665, 511, 510, 512, 415
666, 737, 873, 765, 900
667, 474, 461, 583, 902
668, 485, 152, 480, 153
669, 607, 290, 606, 540
670, 797, 894, 880, 903
671, 303, 300, 312, 573
672, 685, 657, 686, 868
673, 690, 882, 689, 891
674, 463, 462, 461, 902
675, 753, 885, 752, 888
676, 518, 514, 512, 398
677, 253, 548, 357, 252
678, 592, 453, 501, 323
679, 809, 738, 841, 905
680, 815, 841, 875, 905
681, 759, 738, 875, 905
682, 639, 532, 439, 374
683, 538, 440, 286, 271
684, 123, 122, 499, 897
685, 376, 566, 381, 359
686, 591, 152, 479, 485
687, 451, 450, 281, 438
688, 563, 608, 886, 897
689, 791, 148, 865, 892
690, 268, 229, 67, 234
691, 235, 581, 48, 233
692, 304, 229, 67, 268
693, 233, 229, 66, 304
694, 269, 280, 237, 449
695, 66, 233, 304, 277
696, 432, 48, 581, 233
697, 64, 270, 239, 235
698, 234, 229, 50, 570
699, 49, 432, 229, 233
700, 362, 256, 98, 257
701, 661, 875, 815, 888
702, 581, 47, 239, 235
703, 229, 571, 50, 570
704, 49, 432, 571, 229
705, 228, 46, 239, 580
706, 47, 239, 580, 581
707, 871, 889, 733, 897
708, 69, 309, 236, 240
709, 389, 256, 98, 362
710, 590, 596, 146, 568
711, 63, 270, 228, 239
712, 236, 309, 68, 234
713, 691, 891, 883, 896
714, 309, 268, 68, 234
715, 270, 64, 312, 235
716, 232, 266, 61, 238
717, 294, 61, 266, 238
718, 753, 754, 864, 888
719, 294, 245, 60, 238
720, 95, 253, 255, 385
721, 63, 270, 298, 228
722, 46, 228, 431, 580
723, 45, 228, 232, 431
724, 238, 245, 43, 554
725, 690, 882, 891, 896
726, 260, 105, 248, 359
727, 228, 298, 62, 232
728, 254, 256, 97, 389
729, 44, 232, 238, 555
730, 851, 846, 847, 858
731, 343, 347, 342, 859
732, 245, 438, 43, 554
733, 411, 152, 591, 485
734, 309, 69, 310, 240
735, 451, 281, 282, 438
736, 259, 248, 104, 381
737, 60, 269, 245, 294
738, 253, 95, 357, 385
739, 555, 45, 232, 431
740, 555, 238, 44, 554
741, 760, 875, 738, 905
742, 253, 357, 94, 252
743, 245, 269, 59, 237
744, 65, 312, 235, 233
745, 642, 640, 429, 165
746, 266, 62, 298, 232
747, 358, 254, 97, 389
748, 233, 65, 312, 277
749, 479, 151, 583, 887
750, 532, 639, 375, 374
751, 234, 51, 236, 435
752, 858, 876, 805, 898
753, 558, 556, 501, 330
754, 538, 440, 539, 286
755, 658, 697, 121, 871
756, 356, 259, 104, 381
757, 673, 858, 722, 876
758, 864, 885, 753, 888
759, 260, 623, 261, 374
760, 566, 519, 639, 376
761, 51, 234, 570, 435
762, 375, 639, 519, 376
763, 269, 282, 281, 438
764, 811, 839, 820, 884
765, 70, 310, 240, 241
766, 146, 147, 475, 596
767, 381, 248, 105, 359
768, 676, 878, 709, 879
769, 730, 858, 805, 898
770, 727, 652, 859, 899
771, 599, 598, 148, 892
772, 351, 828, 724, 860
773, 826, 842, 746, 885
774, 237, 42, 245, 449
775, 686, 687, 688, 890
776, 544, 110, 109, 546
777, 726, 829, 853, 861
778, 600, 475, 147, 596
779, 358, 433, 254, 389
780, 479, 583, 459, 887
781, 433, 256, 254, 389
782, 42, 438, 245, 449
783, 457, 458, 459, 887
784, 657, 686, 868, 890
785, 142, 886, 608, 897
786, 172, 171, 640, 857
787, 217, 34, 33, 856
788, 241, 70, 310, 271
789, 879, 889, 720, 893
790, 280, 269, 281, 449
791, 376, 639, 566, 359
792, 815, 843, 661, 888
793, 685, 868, 686, 890
794, 123, 499, 563, 897
795, 813, 885, 666, 888
796, 730, 780, 851, 898
797, 347, 652, 700, 899
798, 518, 600, 599, 148
799, 143, 871, 733, 897
800, 821, 752, 842, 888
801, 518, 597, 149, 598
802, 847, 850, 851, 861
803, 653, 683, 682, 869
804, 285, 538, 286, 271
805, 716, 688, 874, 890
806, 260, 261, 106, 374
807, 240, 53, 241, 440
808, 450, 281, 331, 452
809, 568, 145, 476, 901
810, 793, 865, 149, 902
811, 763, 738, 209, 836
812, 446, 249, 369, 252
813, 280, 237, 445, 230
814, 737, 835, 207, 767
815, 612, 546, 429, 857
816, 771, 833, 204, 741
817, 333, 339, 264, 542
818, 258, 259, 103, 400
819, 788, 734, 870, 894
820, 759, 742, 211, 841
821, 527, 563, 608, 886
822, 257, 362, 256, 632
823, 362, 389, 256, 632
824, 600, 147, 599, 148
825, 142, 733, 886, 897
826, 208, 763, 836, 737
827, 106, 260, 374, 359
828, 841, 759, 738, 210
829, 154, 153, 486, 567
830, 240, 236, 52, 607
831, 734, 797, 787, 903
832, 248, 565, 260, 359
833, 331, 450, 506, 541
834, 824, 861, 679, 885
835, 147, 146, 416, 596
836, 739, 775, 822, 878
837, 854, 857, 844, 898
838, 340, 350, 856, 899
839, 565, 381, 566, 359
840, 518, 149, 148, 598
841, 356, 103, 259, 400
842, 145, 590, 146, 568
843, 600, 147, 416, 596
844, 519, 532, 375, 419
845, 586, 612, 429, 156
846, 53, 240, 607, 440
847, 563, 886, 123, 897
848, 798, 776, 878, 879
849, 153, 486, 408, 154
850, 758, 876, 857, 898
851, 854, 804, 857, 898
852, 725, 856, 350, 899
853, 565, 248, 381, 359
854, 532, 519, 520, 419
855, 362, 390, 389, 529
856, 145, 481, 590, 476
857, 569, 370, 357, 548
858, 477, 143, 488, 897
859, 599, 147, 475, 892
860, 706, 658, 871, 889
861, 607, 236, 52, 435
862, 548, 369, 357, 252
863, 538, 539, 536, 286
864, 54, 242, 241, 538
865, 592, 282, 451, 323
866, 209, 738, 809, 836
867, 835, 207, 810, 737
868, 479, 151, 152, 591
869, 351, 724, 346, 860
870, 568, 476, 471, 901
871, 836, 810, 208, 737
872, 280, 237, 449, 445
873, 841, 738, 809, 210
874, 809, 818, 836, 905
875, 470, 469, 471, 901
876, 723, 848, 852, 898
877, 445, 449, 280, 541
878, 706, 122, 123, 897
879, 288, 539, 593, 287
880, 677, 889, 867, 893
881, 255, 253, 437, 385
882, 381, 625, 566, 376
883, 826, 824, 842, 885
884, 487, 111, 560, 904
885, 760, 738, 761, 895
886, 565, 248, 259, 381
887, 357, 437, 253, 385
888, 411, 152, 151, 591
889, 695, 719, 696, 894
890, 356, 565, 259, 381
891, 750, 744, 795, 866
892, 665, 717, 677, 867
893, 269, 280, 59, 237
894, 369, 94, 357, 252
895, 827, 825, 808, 860
896, 518, 597, 398, 149
897, 528, 610, 430, 140
898, 777, 879, 749, 889
899, 867, 889, 748, 893
900, 323, 592, 282, 295
901, 669, 667, 110, 876
902, 484, 602, 329, 601
903, 625, 381, 382, 376
904, 439, 566, 639, 359
905, 474, 583, 150, 902
906, 538, 241, 54, 440
907, 756, 805, 799, 858
908, 727, 721, 678, 859
909, 728, 722, 673, 858
910, 800, 751, 806, 859
911, 514, 515, 513, 420
912, 246, 101, 247, 399
913, 421, 428, 352, 551
914, 685, 869, 868, 890
915, 734, 870, 894, 903
916, 730, 805, 780, 898
917, 727, 700, 652, 899
918, 242, 538, 447, 285
919, 768, 740, 769, 896
920, 327, 589, 455, 501
921, 465, 598, 599, 892
922, 370, 369, 357, 548
923, 154, 567, 523, 904
924, 151, 583, 595, 591
925, 855, 801, 850, 861
926, 23, 217, 430, 218
927, 777, 733, 871, 889
928, 325, 502, 606, 290
929, 821, 212, 842, 752
930, 330, 602, 558, 301
931, 437, 628, 255, 385
932, 749, 879, 798, 893
933, 286, 291, 538, 285
934, 572, 321, 574, 605
935, 465, 467, 466, 892
936, 669, 656, 670, 872
937, 453, 592, 451, 323
938, 101, 246, 354, 399
939, 477, 144, 143, 871
940, 764, 737, 765, 900
941, 814, 699, 662, 189
942, 738, 761, 895, 905
943, 330, 557, 556, 299
944, 256, 79, 433, 254
945, 328, 502, 490, 489
946, 669, 670, 673, 876
947, 603, 483, 605, 324
948, 242, 447, 243, 279
949, 413, 481, 590, 145
950, 760, 738, 895, 905
951, 172, 109, 723, 857
952, 34, 140, 802, 856
953, 141, 747, 745, 886
954, 819, 192, 823, 674
955, 723, 667, 702, 898
956, 802, 745, 779, 899
957, 548, 357, 437, 253
958, 149, 398, 518, 148
959, 558, 589, 272, 330
960, 776, 879, 787, 880
961, 762, 869, 881, 895
962, 820, 204, 833, 741
963, 585, 386, 412, 498
964, 667, 722, 702, 898
965, 745, 800, 779, 899
966, 566, 624, 519, 376
967, 829, 807, 853, 861
968, 279, 242, 447, 285
969, 691, 690, 654, 891
970, 357, 371, 437, 385
971, 349, 343, 803, 860
972, 842, 752, 746, 885
973, 249, 93, 369, 252
974, 237, 280, 58, 230
975, 556, 296, 330, 299
976, 822, 739, 784, 201
977, 593, 525, 288, 500
978, 667, 876, 722, 898
979, 445, 237, 41, 230
980, 75, 249, 446, 252
981, 553, 622, 634, 379
982, 835, 810, 816, 900
983, 288, 286, 539, 287
984, 743, 755, 785, 872
985, 566, 439, 565, 359
986, 627, 246, 247, 399
987, 795, 750, 866, 893
988, 253, 76, 548, 252
989, 814, 839, 710, 884
990, 178, 666, 824, 679
991, 558, 272, 602, 330
992, 276, 506, 331, 559
993, 325, 606, 584, 306
994, 562, 477, 488, 897
995, 829, 726, 824, 861
996, 288, 525, 332, 500
997, 629, 433, 254, 358
998, 371, 585, 386, 412
999, 548, 446, 369, 252
1000, 655, 894, 870, 903
1001, 499, 562, 563, 897
1002, 291, 447, 538, 285
1003, 836, 818, 810, 900
1004, 742, 821, 211, 841
1005, 723, 857, 667, 898
1006, 802, 856, 745, 899
1007, 246, 627, 354, 399
1008, 532, 375, 419, 378
1009, 283, 331, 452, 559
1010, 437, 569, 357, 548
1011, 573, 303, 321, 572
1012, 300, 302, 575, 573
1013, 824, 813, 666, 178
1014, 775, 203, 834, 741
1015, 549, 446, 369, 548
1016, 820, 834, 203, 741
1017, 606, 503, 502, 325
1018, 341, 351, 346, 860
1019, 506, 450, 331, 452
1020, 830, 826, 801, 861
1021, 419, 520, 532, 378
1022, 847, 726, 853, 861
1023, 724, 828, 823, 860
1024, 559, 452, 319, 454
1025, 189, 814, 699, 822
1026, 141, 608, 142, 886
1027, 756, 753, 864, 885
1028, 854, 171, 844, 857
1029, 340, 350, 33, 856
1030, 667, 857, 876, 898
1031, 659, 874, 818, 905
1032, 439, 260, 565, 359
1033, 530, 400, 354, 409
1034, 878, 879, 776, 880
1035, 445, 280, 278, 541
1036, 874, 895, 761, 905
1037, 673, 670, 718, 864
1038, 796, 756, 753, 864
1039, 369, 368, 446, 549
1040, 449, 237, 41, 445
1041, 719, 696, 880, 884
1042, 302, 300, 303, 573
1043, 788, 735, 774, 883
1044, 716, 683, 686, 890
1045, 530, 400, 409, 535
1046, 303, 311, 321, 572
1047, 552, 418, 636, 637
1048, 785, 755, 736, 881
1049, 747, 142, 733, 886
1050, 577, 301, 557, 601
1051, 702, 848, 723, 898
1052, 477, 144, 481, 482
1053, 622, 610, 140, 426
1054, 433, 389, 390, 529
1055, 843, 815, 821, 888
1056, 143, 777, 733, 871
1057, 445, 278, 333, 541
1058, 247, 251, 82, 434
1059, 389, 433, 362, 529
1060, 446, 368, 421, 549
1061, 382, 383, 356, 625
1062, 747, 751, 745, 867
1063, 674, 678, 668, 866
1064, 100, 393, 251, 247
1065, 587, 403, 649, 353
1066, 790, 736, 762, 881
1067, 341, 808, 828, 860
1068, 360, 151, 595, 591
1069, 606, 325, 290, 306
1070, 816, 663, 873, 900
1071, 291, 538, 536, 286
1072, 845, 855, 850, 861
1073, 447, 55, 242, 243
1074, 243, 72, 242, 279
1075, 262, 261, 367, 107
1076, 599, 475, 467, 892
1077, 376, 375, 639, 359
1078, 649, 645, 609, 353
1079, 774, 773, 797, 894
1080, 387, 498, 533, 507
1081, 433, 256, 389, 632
1082, 602, 601, 558, 301
1083, 818, 874, 659, 900
1084, 453, 274, 455, 323
1085, 569, 357, 370, 638
1086, 793, 766, 731, 882
1087, 352, 401, 550, 224
1088, 814, 710, 662, 884
1089, 665, 867, 677, 889
1090, 369, 368, 249, 446
1091, 278, 280, 445, 230
1092, 400, 626, 530, 354
1093, 675, 674, 664, 866
1094, 248, 565, 87, 260
1095, 454, 274, 453, 323
1096, 575, 577, 601, 301
1097, 275, 332, 525, 500
1098, 556, 558, 557, 330
1099, 418, 372, 636, 637
1100, 576, 308, 572, 605
1101, 547, 333, 264, 542
1102, 603, 321, 574, 267
1103, 494, 495, 624, 377
1104, 658, 879, 698, 903
1105, 615, 428, 402, 551
1106, 597, 595, 150, 474
1107, 477, 144, 482, 143
1108, 400, 530, 626, 535
1109, 663, 832, 715, 900
1110, 547, 264, 314, 647
1111, 698, 658, 720, 879
1112, 505, 366, 611, 405
1113, 426, 140, 622, 379
1114, 677, 720, 889, 893
1115, 550, 421, 352, 551
1116, 486, 497, 154, 567
1117, 371, 638, 437, 534
1118, 72, 242, 279, 285
1119, 716, 686, 688, 890
1120, 149, 597, 150, 474
1121, 794, 874, 764, 890
1122, 284, 280, 281, 541
1123, 321, 574, 573, 572
1124, 261, 374, 367, 107
1125, 145, 734, 144, 870
1126, 498, 386, 387, 533
1127, 595, 516, 395, 579
1128, 660, 713, 692, 877
1129, 484, 575, 601, 301
1130, 501, 295, 297, 296
1131, 832, 659, 715, 900
1132, 814, 834, 820, 884
1133, 366, 380, 611, 405
1134, 663, 692, 713, 873
1135, 308, 605, 594, 483
1136, 436, 259, 258, 400
1137, 122, 706, 658, 871
1138, 605, 576, 308, 594
1139, 486, 497, 408, 154
1140, 550, 446, 421, 549
1141, 624, 410, 494, 377
1142, 668, 823, 192, 674
1143, 742, 753, 752, 888
1144, 273, 503, 325, 489
1145, 659, 831, 712, 905
1146, 539, 536, 286, 332
1147, 503, 606, 584, 325
1148, 748, 889, 749, 893
1149, 386, 385, 358, 534
1150, 878, 879, 676, 893
1151, 849, 851, 780, 898
1152, 347, 700, 345, 899
1153, 542, 339, 264, 616
1154, 356, 259, 436, 400
1155, 488, 142, 608, 897
1156, 498, 585, 386, 534
1157, 493, 491, 481, 361
1158, 561, 487, 560, 904
1159, 385, 371, 437, 534
1160, 773, 775, 776, 880
1161, 145, 144, 481, 476
1162, 610, 622, 442, 426
1163, 547, 445, 333, 541
1164, 564, 488, 482, 143
1165, 804, 156, 171, 857
1166, 725, 125, 33, 856
1167, 778, 806, 757, 860
1168, 407, 564, 482, 143
1169, 313, 337, 441, 220
1170, 548, 75, 446, 252
1171, 709, 719, 698, 880
1172, 255, 629, 96, 385
1173, 638, 569, 357, 437
1174, 379, 634, 553, 365
1175, 695, 894, 655, 903
1176, 79, 629, 433, 254
1177, 393, 251, 247, 434
1178, 316, 542, 339, 292
1179, 362, 433, 389, 632
1180, 111, 669, 110, 872
1181, 707, 843, 813, 888
1182, 283, 452, 451, 323
1183, 786, 762, 881, 895
1184, 813, 842, 824, 885
1185, 699, 662, 709, 878
1186, 358, 96, 629, 385
1187, 560, 523, 567, 904
1188, 628, 629, 255, 385
1189, 538, 55, 242, 447
1190, 508, 493, 388, 507
1191, 585, 371, 386, 534
1192, 172, 852, 844, 857
1193, 340, 34, 348, 856
1194, 124, 680, 665, 886
1195, 825, 803, 757, 860
1196, 402, 442, 615, 551
1197, 355, 512, 420, 398
1198, 433, 389, 633, 390
1199, 100, 393, 247, 399
1200, 383, 427, 409, 535
1201, 264, 128, 314, 647
1202, 401, 352, 31, 224
1203, 679, 824, 726, 861
1204, 479, 152, 151, 887
1205, 728, 679, 703, 861
1206, 357, 371, 638, 437
1207, 374, 532, 448, 378
1208, 538, 536, 447, 291
1209, 390, 391, 509, 529
1210, 615, 352, 428, 551
1211, 413, 493, 481, 361
1212, 706, 720, 658, 889
1213, 778, 803, 343, 860
1214, 626, 102, 246, 354
1215, 786, 754, 760, 875
1216, 663, 816, 832, 900
1217, 775, 773, 741, 884
1218, 534, 358, 386, 533
1219, 684, 875, 708, 895
1220, 615, 550, 352, 551
1221, 676, 879, 720, 893
1222, 854, 849, 804, 898
1223, 725, 350, 345, 899
1224, 548, 437, 76, 253
1225, 536, 539, 525, 332
1226, 565, 381, 625, 566
1227, 426, 622, 442, 379
1228, 155, 743, 154, 872
1229, 562, 122, 499, 478
1230, 718, 864, 672, 888
1231, 791, 735, 863, 891
1232, 596, 510, 508, 363
1233, 506, 541, 542, 318
1234, 390, 633, 433, 529
1235, 102, 626, 400, 354
1236, 223, 620, 222, 335
1237, 646, 621, 645, 422
1238, 636, 553, 406, 552
1239, 473, 478, 472, 121
1240, 301, 577, 557, 300
1241, 818, 659, 832, 900
1242, 317, 536, 525, 332
1243, 291, 279, 447, 285
1244, 282, 283, 451, 323
1245, 172, 844, 171, 857
1246, 340, 33, 34, 856
1247, 655, 870, 697, 903
1248, 146, 568, 475, 901
1249, 380, 403, 611, 424
1250, 659, 818, 831, 905
1251, 822, 784, 812, 201
1252, 595, 150, 583, 151
1253, 587, 611, 403, 424
1254, 760, 895, 875, 905
1255, 290, 289, 502, 540
1256, 358, 389, 387, 533
1257, 365, 634, 564, 142
1258, 469, 119, 470, 468
1259, 368, 93, 369, 249
1260, 280, 278, 58, 230
1261, 805, 876, 758, 898
1262, 597, 595, 395, 150
1263, 653, 113, 114, 887
1264, 417, 508, 388, 507
1265, 466, 468, 118, 467
1266, 758, 805, 783, 876
1267, 481, 413, 144, 145
1268, 542, 264, 547, 616
1269, 799, 746, 756, 885
1270, 516, 397, 514, 395
1271, 732, 793, 868, 890
1272, 290, 289, 540, 287
1273, 339, 333, 284, 542
1274, 423, 225, 619, 224
1275, 618, 334, 648, 647
1276, 847, 703, 726, 861
1277, 460, 461, 462, 115
1278, 813, 666, 707, 888
1279, 463, 464, 462, 116
1280, 510, 596, 416, 363
1281, 364, 485, 486, 153
1282, 407, 492, 636, 365
1283, 575, 577, 301, 300
1284, 143, 564, 488, 142
1285, 460, 114, 457, 459
1286, 731, 791, 865, 891
1287, 514, 397, 515, 420
1288, 300, 557, 301, 299
1289, 381, 356, 565, 625
1290, 725, 33, 6, 350
1291, 804, 171, 14, 854
1292, 848, 844, 852, 898
1293, 348, 344, 340, 899
1294, 593, 540, 289, 287
1295, 478, 472, 121, 489
1296, 485, 364, 152, 153
1297, 260, 565, 87, 439
1298, 512, 355, 518, 398
1299, 589, 114, 457, 460
1300, 115, 462, 460, 602
1301, 501, 295, 323, 297
1302, 383, 436, 356, 625
1303, 116, 464, 462, 484
1304, 716, 874, 684, 895
1305, 150, 395, 597, 149
1306, 436, 565, 259, 356
1307, 122, 490, 499, 478
1308, 486, 495, 364, 408
1309, 305, 308, 576, 594
1310, 292, 338, 444, 109
1311, 483, 470, 119, 468
1312, 352, 428, 402, 615
1313, 749, 889, 879, 893
1314, 457, 113, 455, 456
1315, 141, 634, 622, 379
1316, 391, 511, 509, 529
1317, 314, 334, 618, 647
1318, 619, 401, 423, 224
1319, 367, 374, 448, 378
1320, 346, 724, 701, 860
1321, 735, 883, 863, 891
1322, 678, 675, 717, 866
1323, 795, 751, 748, 867
1324, 788, 774, 734, 894
1325, 623, 261, 88, 260
1326, 261, 89, 262, 623
1327, 724, 823, 668, 860
1328, 457, 458, 113, 456
1329, 472, 470, 471, 120
1330, 156, 380, 425, 443
1331, 468, 118, 603, 466
1332, 349, 341, 343, 860
1333, 265, 537, 614, 336
1334, 364, 494, 495, 486
1335, 284, 278, 280, 541
1336, 629, 358, 385, 534
1337, 117, 465, 464, 466
1338, 666, 704, 718, 885
1339, 519, 495, 505, 419
1340, 331, 283, 276, 559
1341, 368, 369, 373, 549
1342, 122, 490, 478, 328
1343, 113, 455, 327, 457
1344, 770, 789, 883, 896
1345, 535, 427, 409, 517
1346, 434, 247, 393, 399
1347, 795, 748, 750, 893
1348, 480, 567, 153, 904
1349, 315, 279, 447, 291
1350, 792, 770, 882, 896
1351, 226, 222, 537, 265
1352, 356, 381, 382, 625
1353, 224, 550, 352, 227
1354, 114, 327, 589, 457
1355, 329, 116, 462, 484
1356, 109, 338, 444, 617
1357, 398, 514, 397, 395
1358, 510, 511, 392, 415
1359, 609, 635, 587, 424
1360, 275, 288, 332, 500
1361, 366, 505, 495, 419
1362, 710, 839, 187, 660
1363, 698, 879, 880, 903
1364, 143, 407, 564, 142
1365, 355, 600, 518, 148
1366, 635, 609, 404, 424
1367, 661, 815, 875, 905
1368, 464, 604, 117, 466
1369, 315, 447, 537, 291
1370, 119, 324, 483, 468
1371, 472, 470, 120, 588
1372, 574, 302, 321, 573
1373, 614, 226, 265, 313
1374, 492, 636, 564, 407
1375, 594, 503, 307, 588
1376, 301, 557, 330, 299
1377, 696, 660, 877, 884
1378, 540, 289, 502, 593
1379, 536, 537, 447, 291
1380, 731, 865, 882, 891
1381, 604, 575, 302, 574
1382, 753, 742, 754, 888
1383, 637, 370, 372, 638
1384, 770, 891, 882, 896
1385, 616, 542, 339, 316
1386, 328, 478, 121, 489
1387, 433, 389, 387, 633
1388, 513, 415, 512, 420
1389, 574, 575, 302, 573
1390, 647, 547, 264, 650
1391, 844, 849, 854, 898
1392, 340, 345, 350, 899
1393, 682, 684, 708, 895
1394, 770, 883, 891, 896
1395, 631, 399, 394, 630
1396, 389, 358, 433, 533
1397, 821, 842, 813, 888
1398, 850, 801, 781, 861
1399, 141, 622, 528, 140
1400, 616, 339, 264, 316
1401, 521, 410, 384, 494
1402, 307, 503, 584, 325
1403, 698, 676, 709, 879
1404, 109, 429, 617, 544
1405, 421, 373, 428, 551
1406, 847, 853, 845, 861
1407, 319, 112, 487, 454
1408, 590, 146, 596, 363
1409, 247, 434, 627, 399
1410, 462, 115, 329, 602
1411, 360, 411, 591, 496
1412, 316, 444, 542, 292
1413, 109, 110, 667, 857
1414, 141, 745, 140, 856
1415, 714, 692, 873, 896
1416, 585, 372, 491, 412
1417, 682, 708, 671, 881
1418, 172, 11, 109, 641
1419, 218, 5, 34, 140
1420, 711, 877, 692, 896
1421, 785, 736, 153, 862
1422, 787, 749, 777, 879
1423, 593, 289, 502, 490
1424, 586, 642, 429, 165
1425, 600, 416, 355, 510
1426, 600, 355, 147, 148
1427, 789, 769, 772, 877
1428, 448, 262, 89, 623
1429, 762, 794, 869, 895
1430, 248, 86, 565, 259
1431, 411, 364, 485, 496
1432, 399, 631, 434, 630
1433, 736, 790, 152, 862
1434, 493, 590, 508, 363
1435, 383, 400, 436, 535
1436, 503, 584, 594, 307
1437, 768, 792, 765, 873
1438, 254, 96, 629, 358
1439, 797, 776, 787, 880
1440, 672, 875, 661, 888
1441, 276, 111, 545, 559
1442, 498, 387, 388, 507
1443, 794, 761, 764, 874
1444, 590, 493, 413, 363
1445, 355, 512, 600, 510
1446, 640, 429, 166, 641
1447, 491, 412, 388, 498
1448, 575, 484, 326, 301
1449, 530, 354, 399, 414
1450, 278, 284, 333, 541
1451, 372, 491, 492, 585
1452, 603, 324, 118, 468
1453, 542, 616, 444, 316
1454, 831, 181, 712, 661
1455, 231, 230, 334, 618
1456, 423, 250, 249, 619
1457, 368, 373, 421, 549
1458, 735, 788, 146, 863
1459, 283, 331, 281, 452
1460, 564, 636, 634, 365
1461, 322, 308, 594, 483
1462, 623, 439, 532, 374
1463, 360, 595, 395, 579
1464, 532, 635, 448, 378
1465, 151, 595, 150, 360
1466, 798, 749, 776, 879
1467, 426, 442, 221, 402
1468, 715, 663, 184, 832
1469, 500, 275, 123, 504
1470, 380, 156, 522, 443
1471, 317, 336, 536, 291
1472, 217, 219, 22, 430
1473, 254, 629, 96, 255
1474, 112, 561, 487, 456
1475, 832, 183, 715, 659
1476, 246, 627, 626, 354
1477, 193, 828, 823, 724
1478, 514, 513, 512, 420
1479, 377, 519, 624, 376
1480, 695, 719, 880, 903
1481, 364, 485, 496, 494
1482, 772, 741, 773, 884
1483, 659, 831, 182, 712
1484, 388, 493, 491, 498
1485, 774, 797, 734, 894
1486, 337, 313, 38, 220
1487, 564, 634, 608, 142
1488, 696, 710, 660, 884
1489, 683, 716, 684, 895
1490, 147, 791, 735, 863
1491, 320, 288, 593, 490
1492, 614, 265, 336, 313
1493, 336, 537, 536, 291
1494, 492, 636, 372, 637
1495, 474, 149, 598, 902
1496, 404, 609, 645, 353
1497, 531, 614, 313, 441
1498, 804, 758, 857, 898
1499, 680, 856, 725, 899
1500, 454, 112, 487, 456
1501, 532, 448, 623, 374
1502, 666, 679, 704, 885
1503, 536, 291, 286, 332
1504, 684, 895, 874, 905
1505, 536, 531, 336, 317
1506, 308, 321, 572, 605
1507, 691, 711, 692, 896
1508, 257, 99, 362, 582
1509, 584, 307, 325, 306
1510, 712, 831, 661, 905
1511, 302, 303, 321, 573
1512, 443, 611, 403, 587
1513, 388, 386, 387, 498
1514, 611, 403, 380, 443
1515, 372, 636, 365, 418
1516, 563, 488, 608, 897
1517, 406, 379, 428, 551
1518, 123, 499, 504, 563
1519, 371, 372, 370, 638
1520, 661, 707, 843, 180
1521, 542, 541, 284, 318
1522, 246, 247, 83, 627
1523, 446, 421, 368, 550
1524, 815, 809, 841, 905
1525, 714, 690, 692, 896
1526, 257, 256, 80, 632
1527, 629, 358, 534, 533
1528, 379, 406, 553, 551
1529, 757, 803, 778, 860
1530, 421, 401, 368, 550
1531, 88, 623, 260, 439
1532, 82, 251, 582, 434
1533, 308, 321, 311, 572
1534, 579, 578, 427, 496
1535, 289, 593, 288, 490
1536, 770, 883, 735, 891
1537, 731, 882, 770, 891
1538, 264, 650, 616, 316
1539, 718, 672, 666, 888
1540, 348, 802, 137, 779
1541, 480, 479, 152, 485
1542, 496, 521, 384, 494
1543, 357, 371, 370, 638
1544, 224, 352, 31, 227
1545, 264, 128, 647, 650
1546, 655, 697, 695, 903
1547, 153, 480, 486, 567
1548, 109, 444, 292, 544
1549, 436, 356, 400, 383
1550, 333, 314, 278, 547
1551, 698, 880, 719, 903
1552, 545, 543, 276, 559
1553, 445, 333, 278, 547
1554, 610, 23, 430, 218
1555, 674, 819, 191, 664
1556, 148, 731, 791, 865
1557, 731, 149, 793, 865
1558, 531, 614, 336, 313
1559, 541, 284, 333, 542
1560, 475, 146, 596, 568
1561, 875, 895, 684, 905
1562, 552, 569, 418, 637
1563, 599, 148, 147, 892
1564, 316, 644, 444, 338
1565, 826, 213, 746, 842
1566, 131, 652, 347, 701
1567, 195, 730, 851, 781
1568, 258, 626, 436, 400
1569, 363, 590, 146, 145
1570, 184, 663, 816, 832
1571, 415, 511, 631, 513
1572, 726, 703, 679, 861
1573, 102, 626, 258, 400
1574, 807, 826, 830, 861
1575, 183, 832, 818, 659
1576, 831, 182, 818, 659
1577, 880, 894, 695, 903
1578, 619, 368, 401, 550
1579, 632, 362, 433, 529
1580, 430, 526, 125, 613
1581, 293, 337, 125, 441
1582, 259, 85, 436, 258
1583, 387, 389, 433, 533
1584, 383, 427, 535, 578
1585, 585, 637, 372, 638
1586, 181, 831, 815, 661
1587, 508, 510, 509, 392
1588, 109, 723, 11, 172
1589, 140, 5, 34, 802
1590, 543, 110, 545, 276
1591, 297, 272, 589, 330
1592, 319, 283, 452, 559
1593, 379, 141, 634, 365
1594, 330, 272, 602, 301
1595, 618, 278, 314, 547
1596, 399, 393, 631, 394
1597, 509, 417, 508, 392
1598, 147, 599, 475, 600
1599, 141, 608, 634, 142
1600, 601, 329, 484, 301
1601, 601, 602, 329, 301
1602, 244, 243, 620, 335
1603, 621, 263, 262, 422
1604, 348, 34, 5, 802
1605, 723, 852, 11, 172
1606, 672, 661, 707, 888
1607, 783, 743, 758, 876
1608, 482, 488, 477, 143
1609, 714, 687, 690, 882
1610, 691, 694, 711, 883
1611, 335, 620, 222, 315
1612, 499, 500, 123, 504
1613, 423, 368, 401, 619
1614, 314, 334, 278, 618
1615, 422, 621, 645, 404
1616, 391, 362, 393, 529
1617, 123, 320, 500, 499
1618, 541, 333, 547, 542
1619, 319, 452, 283, 454
1620, 323, 274, 455, 297
1621, 421, 373, 551, 549
1622, 542, 284, 339, 318
1623, 487, 111, 319, 559
1624, 513, 630, 394, 515
1625, 148, 599, 518, 598
1626, 196, 730, 780, 851
1627, 347, 652, 132, 700
1628, 706, 665, 677, 889
1629, 822, 699, 837, 878
1630, 653, 685, 683, 869
1631, 455, 327, 501, 297
1632, 776, 775, 739, 878
1633, 434, 393, 631, 399
1634, 113, 681, 112, 862
1635, 495, 494, 364, 377
1636, 536, 317, 291, 332
1637, 811, 187, 839, 660
1638, 474, 149, 597, 598
1639, 118, 119, 693, 863
1640, 428, 373, 406, 551
1641, 171, 14, 642, 156
1642, 125, 6, 33, 219
1643, 637, 569, 370, 638
1644, 603, 605, 308, 324
1645, 815, 661, 831, 905
1646, 313, 293, 531, 441
1647, 522, 156, 586, 443
1648, 156, 758, 155, 857
1649, 753, 754, 755, 864
1650, 670, 671, 672, 864
1651, 274, 454, 283, 323
1652, 680, 124, 125, 856
1653, 519, 532, 639, 375
1654, 659, 684, 874, 905
1655, 500, 524, 275, 504
1656, 327, 589, 501, 297
1657, 626, 246, 102, 258
1658, 551, 550, 421, 549
1659, 566, 410, 521, 624
1660, 455, 589, 327, 457
1661, 490, 478, 328, 489
1662, 382, 383, 625, 578
1663, 483, 308, 605, 324
1664, 497, 366, 154, 155
1665, 361, 493, 491, 388
1666, 508, 493, 363, 388
1667, 628, 629, 385, 534
1668, 553, 636, 406, 365
1669, 524, 124, 275, 504
1670, 177, 726, 824, 829
1671, 293, 531, 336, 313
1672, 308, 321, 603, 267
1673, 842, 213, 746, 752
1674, 633, 389, 387, 390
1675, 648, 334, 129, 647
1676, 225, 423, 32, 224
1677, 155, 497, 366, 522
1678, 510, 508, 363, 392
1679, 328, 289, 502, 489
1680, 520, 611, 424, 405
1681, 604, 326, 464, 117
1682, 151, 732, 150, 868
1683, 329, 462, 602, 484
1684, 582, 251, 393, 434
1685, 372, 371, 585, 638
1686, 368, 423, 249, 619
1687, 278, 334, 230, 618
1688, 322, 120, 470, 588
1689, 624, 566, 410, 376
1690, 523, 497, 154, 155
1691, 574, 302, 604, 267
1692, 273, 325, 289, 489
1693, 609, 587, 649, 353
1694, 633, 387, 433, 533
1695, 365, 141, 634, 142
1696, 493, 481, 590, 413
1697, 788, 870, 145, 901
1698, 688, 659, 874, 900
1699, 288, 593, 289, 287
1700, 160, 425, 403, 443
1701, 688, 873, 663, 900
1702, 318, 543, 506, 276
1703, 816, 810, 832, 900
1704, 324, 603, 483, 468
1705, 325, 289, 502, 290
1706, 403, 163, 587, 649
1707, 536, 531, 537, 336
1708, 436, 565, 356, 625
1709, 568, 145, 590, 476
1710, 578, 427, 535, 517
1711, 437, 628, 385, 534
1712, 514, 518, 597, 398
1713, 736, 786, 762, 881
1714, 479, 459, 458, 887
1715, 407, 636, 564, 365
1716, 781, 851, 195, 850
1717, 346, 131, 347, 701
1718, 367, 448, 635, 378
1719, 596, 416, 600, 510
1720, 635, 609, 448, 404
1721, 320, 122, 490, 499
1722, 336, 315, 537, 291
1723, 818, 832, 810, 900
1724, 815, 661, 843, 180
1725, 526, 293, 125, 441
1726, 661, 708, 684, 875
1727, 622, 610, 528, 140
1728, 664, 819, 191, 812
1729, 408, 495, 364, 377
1730, 275, 525, 317, 524
1731, 125, 337, 613, 441
1732, 111, 545, 110, 276
1733, 490, 289, 502, 328
1734, 273, 307, 503, 588
1735, 123, 275, 124, 504
1736, 492, 482, 361, 407
1737, 151, 479, 583, 591
1738, 256, 433, 80, 632
1739, 117, 689, 116, 865
1740, 332, 286, 539, 288
1741, 617, 444, 109, 544
1742, 569, 370, 418, 637
1743, 509, 392, 391, 390
1744, 145, 568, 146, 901
1745, 111, 487, 545, 559
1746, 786, 736, 755, 881
1747, 632, 257, 362, 582
1748, 492, 361, 491, 372
1749, 625, 383, 436, 578
1750, 315, 537, 222, 265
1751, 140, 141, 622, 379
1752, 818, 809, 831, 905
1753, 384, 364, 496, 494
1754, 776, 749, 787, 879
1755, 553, 442, 379, 551
1756, 629, 433, 358, 533
1757, 829, 824, 807, 861
1758, 364, 384, 410, 494
1759, 708, 661, 672, 875
1760, 694, 695, 696, 894
1761, 497, 495, 408, 366
1762, 415, 631, 511, 391
1763, 365, 492, 636, 372
1764, 677, 717, 675, 893
1765, 780, 849, 196, 851
1766, 132, 347, 700, 345
1767, 559, 319, 487, 454
1768, 551, 406, 553, 552
1769, 512, 511, 415, 513
1770, 777, 749, 733, 889
1771, 789, 735, 770, 883
1772, 144, 361, 481, 482
1773, 661, 875, 684, 905
1774, 434, 530, 399, 414
1775, 485, 591, 411, 496
1776, 529, 362, 393, 582
1777, 448, 609, 621, 404
1778, 372, 361, 491, 412
1779, 361, 413, 493, 388
1780, 634, 636, 553, 365
1781, 367, 635, 448, 404
1782, 660, 692, 711, 877
1783, 154, 153, 567, 904
1784, 633, 417, 387, 507
1785, 523, 497, 155, 522
1786, 564, 608, 488, 142
1787, 667, 723, 109, 857
1788, 745, 802, 140, 856
1789, 416, 510, 363, 392
1790, 418, 365, 406, 552
1791, 792, 770, 731, 882
1792, 722, 728, 651, 858
1793, 730, 799, 805, 858
1794, 729, 800, 806, 859
1795, 721, 727, 652, 859
1796, 388, 363, 508, 417
1797, 318, 339, 542, 292
1798, 625, 521, 382, 578
1799, 394, 415, 631, 513
1800, 823, 668, 193, 724
1801, 279, 620, 243, 335
1802, 626, 627, 530, 354
1803, 367, 621, 262, 422
1804, 784, 744, 812, 200
1805, 488, 143, 142, 897
1806, 20, 313, 441, 220
1807, 719, 662, 696, 884
1808, 377, 375, 519, 376
1809, 828, 808, 823, 860
1810, 684, 682, 683, 895
1811, 115, 460, 272, 602
1812, 748, 749, 750, 893
1813, 756, 752, 753, 885
1814, 692, 663, 714, 873
1815, 542, 543, 318, 292
1816, 482, 492, 564, 407
1817, 113, 274, 455, 456
1818, 677, 676, 720, 893
1819, 766, 792, 731, 882
1820, 392, 511, 509, 391
1821, 482, 361, 491, 492
1822, 659, 716, 688, 874
1823, 589, 272, 114, 460
1824, 659, 684, 716, 874
1825, 118, 267, 603, 466
1826, 410, 364, 494, 377
1827, 365, 407, 492, 372
1828, 668, 721, 701, 860
1829, 690, 691, 692, 896
1830, 154, 872, 785, 904
1831, 419, 495, 366, 377
1832, 657, 685, 115, 868
1833, 614, 226, 537, 265
1834, 663, 688, 714, 873
1835, 490, 500, 320, 499
1836, 517, 396, 414, 515
1837, 636, 406, 365, 552
1838, 801, 826, 746, 861
1839, 273, 121, 472, 489
1840, 156, 171, 14, 804
1841, 725, 6, 33, 125
1842, 401, 619, 550, 224
1843, 387, 417, 633, 390
1844, 500, 320, 593, 490
1845, 710, 839, 814, 188
1846, 257, 251, 99, 582
1847, 302, 575, 301, 300
1848, 531, 536, 525, 317
1849, 530, 409, 414, 517
1850, 732, 868, 869, 890
1851, 578, 384, 427, 496
1852, 597, 595, 516, 395
1853, 525, 531, 317, 524
1854, 848, 851, 849, 898
1855, 347, 345, 344, 899
1856, 464, 116, 326, 484
1857, 475, 568, 469, 901
1858, 470, 322, 483, 119
1859, 482, 144, 361, 143
1860, 274, 112, 454, 456
1861, 619, 446, 368, 550
1862, 434, 83, 247, 627
1863, 506, 542, 543, 318
1864, 305, 308, 594, 307
1865, 565, 86, 436, 259
1866, 484, 326, 604, 575
1867, 604, 267, 117, 466
1868, 227, 550, 352, 615
1869, 547, 314, 618, 647
1870, 591, 579, 360, 496
1871, 791, 770, 735, 891
1872, 230, 334, 57, 231
1873, 250, 92, 423, 249
1874, 731, 770, 791, 891
1875, 393, 362, 99, 582
1876, 517, 414, 530, 515
1877, 746, 799, 781, 861
1878, 786, 760, 762, 895
1879, 664, 676, 675, 893
1880, 588, 322, 594, 483
1881, 789, 774, 735, 883
1882, 156, 586, 612, 522
1883, 423, 401, 32, 224
1884, 314, 129, 334, 647
1885, 424, 611, 380, 405
1886, 635, 404, 378, 424
1887, 618, 445, 278, 547
1888, 732, 869, 794, 890
1889, 419, 519, 495, 377
1890, 367, 448, 621, 404
1891, 155, 156, 612, 522
1892, 520, 635, 378, 424
1893, 364, 411, 384, 496
1894, 676, 699, 709, 878
1895, 660, 711, 696, 877
1896, 396, 414, 409, 517
1897, 273, 472, 120, 588
1898, 765, 767, 768, 873
1899, 732, 766, 793, 890
1900, 412, 361, 491, 388
1901, 177, 824, 726, 679
1902, 750, 749, 798, 893
1903, 761, 763, 764, 874
1904, 529, 391, 631, 582
1905, 477, 481, 144, 476
1906, 326, 575, 301, 302
1907, 506, 331, 318, 276
1908, 444, 543, 292, 544
1909, 219, 22, 430, 613
1910, 418, 636, 365, 552
1911, 383, 409, 400, 535
1912, 662, 710, 814, 188
1913, 358, 387, 386, 533
1914, 574, 321, 302, 267
1915, 25, 221, 442, 402
1916, 650, 547, 264, 616
1917, 690, 687, 689, 882
1918, 421, 352, 401, 550
1919, 493, 413, 363, 388
1920, 812, 744, 840, 200
1921, 529, 393, 391, 582
1922, 404, 367, 635, 378
1923, 676, 698, 720, 879
1924, 417, 363, 508, 392
1925, 320, 593, 288, 500
1926, 403, 587, 424, 353
1927, 121, 122, 478, 328
1928, 814, 820, 839, 884
1929, 434, 530, 414, 630
1930, 507, 417, 508, 509
1931, 308, 594, 307, 322
1932, 320, 123, 122, 499
1933, 400, 626, 436, 535
1934, 416, 355, 510, 392
1935, 634, 622, 528, 141
1936, 317, 531, 293, 524
1937, 412, 491, 585, 498
1938, 335, 279, 620, 315
1939, 114, 113, 327, 457
1940, 422, 367, 621, 404
1941, 762, 761, 794, 895
1942, 314, 333, 264, 547
1943, 758, 156, 804, 857
1944, 725, 680, 125, 856
1945, 754, 759, 760, 875
1946, 283, 319, 276, 559
1947, 507, 633, 417, 509
1948, 279, 447, 620, 315
1949, 849, 780, 804, 898
1950, 725, 345, 700, 899
1951, 769, 771, 772, 877
1952, 561, 567, 480, 904
1953, 391, 415, 631, 394
1954, 635, 520, 587, 424
1955, 320, 289, 288, 490
1956, 265, 315, 537, 336
1957, 120, 697, 655, 870
1958, 470, 322, 588, 483
1959, 604, 464, 326, 484
1960, 324, 119, 118, 468
1961, 608, 634, 528, 141
1962, 116, 462, 115, 329
1963, 509, 633, 417, 390
1964, 365, 564, 407, 142
1965, 770, 769, 789, 896
1966, 425, 586, 156, 443
1967, 487, 545, 560, 111
1968, 325, 307, 503, 273
1969, 681, 682, 671, 881
1970, 792, 768, 770, 896
1971, 276, 319, 111, 559
1972, 110, 292, 543, 544
1973, 626, 436, 85, 258
1974, 595, 150, 474, 583
1975, 644, 444, 168, 316
1976, 613, 526, 125, 441
1977, 395, 398, 597, 149
1978, 694, 691, 693, 883
1979, 414, 399, 434, 630
1980, 379, 553, 406, 365
1981, 621, 609, 645, 404
1982, 313, 614, 20, 441
1983, 659, 712, 684, 905
1984, 617, 166, 429, 641
1985, 622, 553, 442, 379
1986, 222, 35, 223, 335
1987, 422, 645, 646, 157
1988, 441, 526, 293, 524
1989, 378, 419, 520, 405
1990, 386, 498, 534, 533
1991, 361, 492, 407, 372
1992, 121, 122, 658, 871
1993, 521, 384, 382, 578
1994, 843, 821, 813, 888
1995, 163, 443, 403, 587
1996, 474, 598, 463, 902
1997, 313, 20, 38, 220
1998, 505, 520, 419, 405
1999, 328, 273, 289, 489
2000, 667, 673, 722, 876
2001, 371, 385, 386, 534
2002, 823, 808, 825, 860
2003, 414, 394, 630, 515
2004, 497, 505, 366, 522
2005, 393, 631, 391, 582
2006, 782, 795, 744, 866
2007, 717, 665, 705, 867
2008, 293, 275, 317, 524
2009, 446, 368, 249, 619
2010, 230, 445, 278, 618
2011, 515, 517, 396, 516
2012, 402, 442, 25, 615
2013, 324, 308, 603, 267
2014, 589, 327, 272, 297
2015, 589, 272, 460, 602
2016, 531, 614, 537, 336
2017, 272, 114, 460, 115
2018, 327, 455, 274, 297
2019, 156, 155, 380, 522
2020, 338, 316, 644, 126
2021, 426, 221, 29, 402
2022, 470, 120, 322, 119
2023, 113, 112, 274, 456
2024, 272, 329, 602, 301
2025, 267, 604, 603, 466
2026, 746, 752, 756, 885
2027, 111, 112, 487, 319
2028, 371, 585, 638, 534
2029, 326, 116, 464, 117
2030, 495, 497, 505, 366
2031, 338, 644, 444, 617
2032, 588, 273, 472, 489
2033, 579, 360, 595, 591
2034, 611, 587, 520, 424
2035, 125, 124, 293, 526
2036, 526, 124, 293, 524
2037, 495, 408, 366, 377
2038, 283, 319, 454, 274
2039, 595, 395, 150, 360
2040, 495, 486, 497, 408
2041, 254, 78, 629, 255
2042, 292, 110, 109, 544
2043, 515, 396, 397, 516
2044, 542, 444, 543, 292
2045, 520, 505, 611, 405
2046, 617, 109, 644, 641
2047, 610, 442, 221, 426
2048, 589, 272, 602, 558
2049, 519, 505, 520, 419
2050, 274, 455, 454, 453
2051, 403, 425, 380, 443
2052, 146, 788, 145, 901
2053, 118, 117, 267, 466
2054, 143, 733, 142, 897
2055, 149, 474, 150, 902
2056, 265, 226, 37, 313
2057, 159, 649, 403, 353
2058, 724, 668, 701, 860
2059, 603, 574, 604, 267
2060, 688, 663, 715, 900
2061, 380, 155, 366, 522
2062, 695, 694, 655, 894
2063, 656, 669, 111, 872
2064, 222, 226, 36, 265
2065, 645, 649, 158, 353
2066, 733, 749, 748, 889
2067, 454, 455, 274, 456
2068, 275, 320, 288, 500
2069, 276, 543, 506, 559
2070, 110, 543, 292, 276
2071, 535, 436, 383, 578
2072, 152, 790, 151, 887
2073, 329, 326, 484, 301
2074, 688, 715, 659, 900
2075, 402, 426, 442, 379
2076, 338, 444, 316, 292
2077, 483, 322, 308, 324
2078, 122, 320, 490, 328
2079, 472, 120, 121, 273
2080, 360, 384, 411, 496
2081, 218, 610, 221, 140
2082, 503, 273, 588, 489
2083, 251, 393, 99, 582
2084, 616, 168, 444, 316
2085, 424, 378, 520, 405
2086, 514, 515, 397, 516
2087, 78, 628, 629, 255
2088, 244, 73, 243, 335
2089, 263, 262, 422, 108
2090, 582, 393, 631, 434
2091, 454, 319, 112, 274
2092, 360, 411, 151, 591
2093, 543, 110, 544, 545
2094, 337, 613, 441, 220
2095, 781, 801, 746, 861
2096, 326, 604, 575, 302
2097, 374, 375, 532, 378
2098, 396, 397, 414, 515
2099, 293, 313, 337, 441
2100, 391, 390, 362, 529
2101, 644, 338, 109, 617
2102, 394, 414, 397, 515
2103, 322, 594, 307, 588
2104, 650, 264, 127, 316
2105, 543, 318, 292, 276
2106, 825, 199, 840, 757
2107, 243, 447, 620, 279
2108, 695, 698, 719, 903
2109, 275, 293, 124, 524
2110, 125, 219, 613, 220
2111, 150, 868, 793, 902
2112, 327, 274, 455, 113
2113, 509, 633, 390, 529
2114, 490, 320, 289, 328
2115, 443, 403, 160, 163
2116, 524, 275, 525, 500
2117, 124, 526, 527, 504
2118, 344, 348, 137, 779
2119, 403, 163, 649, 159
2120, 780, 805, 758, 898
2121, 680, 700, 727, 899
2122, 537, 620, 447, 315
2123, 425, 160, 643, 443
2124, 600, 512, 355, 518
2125, 734, 145, 788, 870
2126, 154, 785, 153, 904
2127, 707, 843, 179, 813
2128, 620, 537, 222, 315
2129, 272, 327, 589, 114
2130, 621, 262, 448, 367
2131, 124, 665, 123, 886
2132, 517, 578, 427, 579
2133, 123, 320, 275, 500
2134, 494, 521, 410, 624
2135, 116, 329, 326, 484
2136, 831, 809, 815, 905
2137, 140, 610, 221, 426
2138, 744, 840, 199, 757
2139, 147, 148, 791, 892
2140, 355, 518, 398, 148
2141, 522, 611, 380, 443
2142, 372, 418, 370, 637
2143, 667, 669, 673, 876
2144, 179, 666, 707, 813
2145, 329, 115, 272, 602
2146, 626, 84, 246, 258
2147, 361, 491, 481, 482
2148, 324, 483, 322, 119
2149, 523, 154, 497, 567
2150, 672, 707, 666, 888
2151, 138, 351, 341, 828
2152, 531, 336, 317, 293
2153, 675, 678, 674, 866
2154, 748, 751, 747, 867
2155, 529, 632, 362, 582
2156, 696, 662, 710, 884
2157, 613, 337, 125, 220
2158, 364, 485, 494, 486
2159, 603, 324, 267, 118
2160, 377, 624, 410, 376
2161, 739, 798, 776, 878
2162, 743, 785, 154, 872
2163, 643, 586, 425, 443
2164, 121, 273, 328, 489
2165, 520, 635, 532, 378
2166, 804, 780, 758, 898
2167, 700, 680, 725, 899
2168, 855, 807, 215, 830
2169, 596, 508, 590, 363
2170, 346, 343, 341, 860
2171, 168, 644, 316, 126
2172, 221, 25, 29, 402
2173, 383, 382, 384, 578
2174, 144, 777, 143, 871
2175, 642, 586, 156, 643
2176, 402, 25, 30, 615
2177, 525, 317, 332, 275
2178, 546, 544, 110, 545
2179, 394, 415, 513, 420
2180, 514, 397, 420, 398
2181, 315, 222, 36, 265
2182, 404, 645, 158, 353
2183, 498, 388, 493, 507
2184, 153, 736, 152, 862
2185, 845, 853, 216, 807
2186, 697, 658, 698, 903
2187, 631, 511, 391, 529
2188, 599, 467, 465, 892
2189, 712, 661, 684, 905
2190, 425, 156, 586, 643
2191, 850, 847, 845, 861
2192, 364, 486, 408, 153
2193, 808, 139, 827, 349
2194, 645, 161, 621, 646
2195, 152, 411, 364, 485
2196, 81, 251, 257, 582
2197, 147, 735, 146, 863
2198, 773, 776, 797, 880
2199, 524, 526, 124, 504
2200, 807, 845, 855, 215
2201, 355, 512, 415, 420
2202, 677, 720, 706, 889
2203, 142, 747, 141, 886
2204, 249, 250, 74, 619
2205, 231, 40, 230, 618
2206, 278, 334, 57, 230
2207, 92, 368, 423, 249
2208, 90, 621, 263, 262
2209, 732, 794, 766, 890
2210, 410, 384, 382, 521
2211, 175, 174, 846, 651
2212, 729, 342, 135, 136
2213, 441, 293, 531, 524
2214, 11, 644, 109, 641
2215, 221, 5, 218, 140
2216, 807, 824, 826, 861
2217, 393, 391, 631, 394
2218, 147, 416, 355, 600
2219, 755, 796, 753, 864
2220, 670, 672, 718, 864
2221, 366, 408, 497, 154
2222, 243, 620, 56, 244
2223, 388, 412, 386, 498
2224, 414, 394, 399, 630
2225, 563, 562, 488, 897
2226, 766, 794, 764, 890
2227, 535, 409, 530, 517
2228, 794, 732, 762, 869
2229, 146, 416, 596, 363
2230, 371, 372, 585, 412
2231, 808, 341, 139, 349
2232, 149, 731, 148, 865
2233, 407, 482, 361, 143
2234, 516, 517, 396, 579
2235, 205, 817, 740, 206
2236, 26, 550, 224, 227
2237, 207, 208, 810, 737
2238, 210, 738, 809, 209
2239, 461, 474, 463, 902
2240, 417, 388, 387, 507
2241, 517, 427, 396, 579
2242, 627, 84, 246, 626
2243, 197, 804, 854, 849
2244, 725, 133, 345, 350
2245, 326, 604, 267, 117
2246, 169, 547, 647, 650
2247, 222, 19, 226, 537
2248, 699, 837, 189, 822
2249, 519, 624, 495, 377
2250, 351, 130, 346, 724
2251, 194, 850, 855, 801
2252, 578, 521, 384, 496
2253, 469, 568, 471, 901
2254, 803, 198, 827, 825
2255, 120, 322, 273, 588
2256, 630, 530, 414, 515
2257, 156, 14, 642, 643
2258, 219, 125, 6, 220
2259, 533, 633, 387, 507
2260, 155, 612, 523, 522
2261, 830, 214, 801, 826
2262, 790, 762, 732, 869
2263, 427, 396, 409, 517
2264, 326, 604, 302, 267
2265, 637, 372, 492, 585
2266, 366, 505, 419, 405
2267, 363, 413, 590, 145
2268, 511, 509, 510, 392
2269, 354, 530, 409, 414
2270, 279, 243, 73, 335
2271, 422, 262, 367, 108
2272, 140, 221, 5, 426
2273, 11, 644, 338, 109
2274, 273, 322, 307, 588
2275, 392, 509, 417, 390
2276, 649, 645, 162, 609
2277, 443, 160, 643, 163
2278, 227, 30, 25, 615
2279, 632, 81, 257, 582
2280, 150, 793, 149, 902
2281, 516, 396, 397, 395
2282, 619, 225, 27, 224
2283, 648, 170, 618, 647
2284, 225, 250, 423, 619
2285, 648, 231, 334, 618
2286, 664, 191, 837, 812
2287, 360, 396, 427, 579
2288, 223, 244, 620, 335
2289, 621, 646, 263, 422
2290, 162, 587, 649, 609
2291, 664, 837, 190, 699
2292, 26, 550, 227, 615
2293, 341, 138, 828, 808
2294, 511, 392, 415, 391
2295, 620, 222, 18, 223
2296, 335, 222, 35, 315
2297, 157, 422, 645, 404
2298, 481, 413, 361, 144
2299, 853, 829, 216, 807
2300, 169, 547, 650, 616
2301, 760, 761, 762, 895
2302, 820, 203, 204, 741
2303, 677, 675, 676, 893
2304, 19, 614, 226, 537
2305, 560, 567, 561, 904
2306, 701, 346, 130, 724
2307, 850, 194, 781, 801
2308, 419, 375, 519, 377
2309, 770, 768, 769, 896
2310, 849, 844, 848, 898
2311, 340, 344, 345, 899
2312, 20, 38, 37, 313
2313, 163, 403, 160, 159
2314, 427, 383, 384, 578
2315, 446, 249, 74, 619
2316, 40, 445, 230, 618
2317, 732, 793, 150, 868
2318, 133, 345, 700, 725
2319, 849, 197, 804, 780
2320, 442, 221, 24, 610
2321, 821, 211, 212, 742
2322, 14, 156, 425, 643
2323, 125, 337, 6, 220
2324, 447, 620, 56, 243
2325, 90, 621, 262, 448
2326, 630, 394, 631, 513
2327, 825, 803, 198, 757
2328, 29, 25, 30, 402
2329, 316, 127, 168, 126
2330, 161, 609, 645, 621
2331, 166, 429, 640, 165
2332, 699, 837, 190, 189
2333, 443, 643, 586, 164
2334, 167, 444, 644, 617
2335, 801, 214, 746, 826
2336, 550, 619, 27, 224
2337, 27, 26, 550, 224
2338, 441, 613, 21, 220
2339, 668, 823, 193, 192
2340, 547, 618, 170, 647
2341, 547, 170, 169, 647
2342, 698, 695, 697, 903
2343, 22, 23, 217, 430
2344, 537, 222, 18, 620
2345, 18, 19, 222, 537
2346, 184, 816, 663, 185
2347, 183, 818, 182, 659
2348, 138, 341, 139, 808
2349, 661, 815, 181, 180
2350, 811, 186, 187, 660
2351, 739, 822, 202, 201
2352, 813, 179, 666, 178
2353, 643, 642, 586, 164
2354, 163, 587, 649, 162
2355, 189, 662, 814, 188
2356, 807, 216, 845, 215
2357, 221, 24, 25, 442
2358, 201, 784, 812, 200
2359, 67, 68, 268, 234
2360, 67, 66, 229, 304
2361, 66, 65, 233, 277
2362, 362, 98, 99, 257
2363, 50, 49, 571, 229
2364, 49, 48, 432, 233
2365, 234, 50, 51, 570
2366, 43, 42, 438, 245
2367, 97, 96, 254, 358
2368, 266, 61, 62, 232
2369, 239, 46, 47, 580
2370, 581, 48, 47, 235
2371, 63, 64, 270, 239
2372, 43, 44, 238, 554
2373, 232, 44, 45, 555
2374, 259, 104, 103, 356
2375, 68, 69, 309, 236
2376, 16, 855, 830, 801
2377, 62, 63, 298, 228
2378, 98, 97, 256, 389
2379, 228, 45, 46, 431
2380, 51, 52, 236, 435
2381, 246, 102, 101, 354
2382, 294, 60, 61, 238
2383, 96, 95, 255, 385
2384, 260, 106, 105, 359
2385, 837, 190, 191, 664
2386, 71, 70, 241, 271
2387, 64, 65, 312, 235
2388, 248, 105, 104, 381
2389, 41, 42, 237, 449
2390, 357, 94, 95, 253
2391, 59, 60, 269, 245
2392, 310, 69, 70, 240
2393, 21, 20, 441, 220
2394, 53, 54, 241, 440
2395, 744, 840, 200, 199
2396, 242, 54, 55, 538
2397, 240, 52, 53, 607
2398, 168, 167, 444, 644
2399, 250, 4, 28, 225
2400, 231, 7, 39, 648
2401, 646, 10, 91, 263
2402, 244, 17, 1, 223
2403, 645, 162, 609, 161
2404, 8, 231, 648, 618
2405, 9, 621, 646, 263
2406, 225, 3, 250, 619
2407, 244, 620, 2, 223
2408, 767, 835, 207, 206
2409, 836, 209, 763, 208
2410, 771, 833, 205, 204
2411, 841, 211, 759, 210
2412, 258, 103, 102, 400
2413, 41, 40, 445, 230
2414, 74, 75, 249, 446
2415, 834, 202, 203, 775
2416, 247, 101, 100, 399
2417, 137, 344, 779, 136
2418, 175, 702, 848, 176
2419, 195, 194, 781, 850
2420, 701, 346, 131, 130
2421, 31, 32, 401, 224
2422, 129, 314, 128, 647
2423, 13, 803, 827, 349
2424, 56, 55, 447, 243
2425, 250, 28, 3, 225
2426, 39, 8, 231, 648
2427, 646, 91, 9, 263
2428, 244, 2, 17, 223
2429, 242, 72, 71, 285
2430, 374, 261, 106, 107
2431, 222, 36, 35, 315
2432, 158, 157, 645, 404
2433, 132, 652, 347, 131
2434, 851, 196, 730, 195
2435, 165, 586, 642, 164
2436, 164, 443, 643, 163
2437, 134, 778, 343, 135
2438, 703, 173, 174, 847
2439, 780, 849, 197, 196
2440, 345, 700, 132, 133
2441, 278, 57, 58, 230
2442, 368, 92, 93, 249
2443, 16, 830, 214, 801
2444, 548, 76, 75, 252
2445, 621, 161, 9, 646
2446, 260, 87, 88, 439
2447, 433, 80, 79, 256
2448, 369, 93, 94, 252
2449, 58, 59, 280, 237
2450, 610, 221, 24, 218
2451, 13, 803, 198, 827
2452, 77, 76, 437, 253
2453, 262, 89, 90, 448
2454, 746, 214, 213, 826
2455, 86, 85, 436, 259
2456, 178, 824, 177, 679
2457, 247, 82, 83, 434
2458, 99, 100, 393, 251
2459, 250, 3, 74, 619
2460, 231, 8, 40, 618
2461, 9, 90, 621, 263
2462, 215, 16, 855, 830
2463, 620, 2, 56, 244
2464, 263, 646, 10, 422
2465, 223, 1, 244, 335
2466, 819, 191, 192, 674
2467, 213, 842, 212, 752
2468, 351, 12, 130, 724
2469, 855, 16, 194, 801
2470, 14, 197, 804, 854
2471, 6, 133, 725, 350
2472, 250, 423, 4, 225
2473, 231, 334, 7, 648
2474, 139, 13, 827, 349
2475, 24, 23, 610, 218
2476, 825, 198, 199, 757
2477, 12, 351, 828, 724
2478, 27, 3, 225, 619
2479, 170, 8, 648, 618
2480, 334, 7, 57, 231
2481, 423, 4, 92, 250
2482, 852, 11, 176, 723
2483, 5, 348, 802, 137
2484, 620, 18, 2, 223
2485, 15, 726, 853, 173
2486, 13, 803, 349, 134
2487, 244, 1, 73, 335
2488, 422, 10, 263, 108
2489, 423, 32, 4, 225
2490, 334, 129, 7, 648
2491, 21, 22, 219, 613
2492, 613, 219, 21, 220
2493, 15, 726, 829, 853
2494, 12, 828, 193, 724
2495, 73, 72, 243, 279
2496, 167, 166, 617, 641
2497, 107, 367, 262, 108
2498, 707, 843, 180, 179
2499, 565, 87, 86, 248
2500, 614, 20, 19, 226
2501, 15, 726, 177, 829
2502, 227, 25, 26, 615
2503, 710, 839, 188, 187
2504, 616, 650, 169, 168
2505, 617, 644, 167, 641
2506, 264, 127, 128, 650
2507, 352, 30, 31, 227
2508, 35, 1, 223, 335
2509, 422, 646, 10, 157
2510, 251, 81, 82, 582
2511, 183, 715, 184, 832
2512, 713, 838, 186, 185
2513, 831, 181, 182, 712
2514, 85, 84, 626, 258
2515, 12, 351, 138, 828
2516, 829, 216, 15, 853
2517, 629, 79, 78, 254
2518, 261, 88, 89, 623
2519, 628, 78, 77, 255
2520, 83, 84, 246, 627
2521, 257, 80, 81, 632
2522, 37, 36, 226, 265
2523, 158, 649, 159, 353
2524, 337, 38, 6, 220
2525, 425, 160, 14, 643
2526, 338, 644, 11, 126
2527, 221, 29, 5, 426
2528, 476, 871, 477, 473
2529, 477, 871, 476, 144
2530, 838, 877, 896, 713
2531, 896, 877, 838, 817
2532, 896, 873, 838, 713
2533, 838, 873, 896, 817
2534, 876, 796, 756, 783
2535, 876, 756, 796, 864
2536, 767, 817, 206, 740
2537, 206, 817, 767, 835
2538, 771, 817, 205, 833
2539, 205, 817, 771, 740
2540, 901, 655, 120, 119
2541, 901, 120, 655, 870
2542, 878, 812, 822, 784
2543, 878, 822, 812, 837
2544, 902, 657, 115, 868
2545, 902, 115, 657, 116
2546, 526, 856, 124, 527
2547, 124, 856, 526, 125
2548, 887, 685, 653, 869
2549, 887, 653, 685, 114
2550, 886, 528, 608, 527
2551, 886, 608, 528, 141
2552, 656, 904, 111, 112
2553, 111, 904, 656, 872
2554, 741, 833, 884, 771
2555, 741, 884, 833, 820
2556, 861, 851, 781, 850
2557, 861, 781, 851, 858
2558, 884, 771, 772, 741
2559, 884, 772, 771, 877
2560, 742, 841, 888, 821
2561, 888, 841, 742, 759
2562, 651, 848, 175, 702
2563, 175, 848, 651, 846
2564, 729, 344, 136, 779
2565, 729, 136, 344, 342
2566, 242, 271, 71, 241
2567, 71, 271, 242, 285
2568, 858, 848, 851, 846
2569, 858, 851, 848, 898
2570, 859, 344, 347, 342
2571, 859, 347, 344, 899
2572, 887, 732, 790, 151
2573, 887, 790, 732, 869
2574, 343, 729, 135, 778
2575, 135, 729, 343, 342
2576, 847, 651, 174, 703
2577, 174, 651, 847, 846
2578, 889, 747, 748, 733
2579, 889, 748, 747, 867
2580, 374, 439, 260, 623
2581, 260, 439, 374, 359
2582, 306, 307, 594, 584
2583, 594, 307, 306, 305
2584, 594, 576, 306, 584
2585, 306, 576, 594, 305
2586, 573, 312, 432, 581
2587, 573, 432, 312, 303
2588, 370, 548, 549, 369
2589, 549, 548, 370, 569
2590, 549, 373, 370, 369
2591, 816, 713, 185, 838
2592, 816, 185, 713, 663
2593, 395, 514, 597, 398
2594, 395, 597, 514, 516
2595, 374, 623, 367, 448
2596, 374, 367, 623, 261
2597, 262, 367, 623, 448
2598, 262, 623, 367, 261
2599, 541, 281, 331, 450
2600, 541, 331, 281, 284
2601, 811, 713, 186, 660
2602, 186, 713, 811, 838
2603, 255, 437, 77, 628
2604, 255, 77, 437, 253
2605, 420, 515, 394, 397
2606, 420, 394, 515, 513
2607, 435, 290, 306, 606
2608, 435, 306, 290, 309
2609, 541, 331, 318, 506
2610, 541, 318, 331, 284
2611, 402, 551, 379, 442
2612, 379, 551, 402, 428
2613, 415, 510, 355, 392
2614, 415, 355, 510, 512
2615, 625, 376, 410, 566
2616, 410, 376, 625, 382
2617, 410, 521, 625, 566
2618, 625, 521, 410, 382
2619, 822, 775, 202, 834
2620, 202, 775, 822, 739
2621, 311, 576, 308, 572
2622, 308, 576, 311, 305
2623, 502, 325, 489, 289
2624, 489, 325, 502, 503
2625, 449, 281, 541, 450
2626, 449, 541, 281, 280
2627, 525, 288, 539, 593
2628, 539, 288, 525, 332
2629, 660, 839, 884, 710
2630, 660, 884, 839, 811
2631, 366, 611, 522, 505
2632, 522, 611, 366, 380
2633, 395, 579, 396, 360
2634, 396, 579, 395, 516
2635, 296, 501, 330, 297
2636, 296, 330, 501, 556
2637, 627, 399, 530, 354
2638, 530, 399, 627, 434
2639, 847, 726, 173, 853
2640, 847, 173, 726, 703
2641, 343, 803, 134, 349
2642, 343, 134, 803, 778
2643, 323, 452, 454, 283
2644, 323, 454, 452, 453
2645, 348, 779, 899, 802
2646, 899, 779, 348, 344
2647, 848, 723, 176, 702
2648, 176, 723, 848, 852
2649, 283, 451, 281, 282
2650, 281, 451, 283, 452
2651, 330, 501, 589, 297
2652, 330, 589, 501, 558
2653, 323, 501, 455, 453
2654, 323, 455, 501, 297
2655, 609, 424, 353, 404
2656, 353, 424, 609, 587
2657, 558, 301, 557, 330
2658, 557, 301, 558, 601
2659, 605, 321, 603, 308
2660, 605, 603, 321, 574
2661, 427, 496, 360, 579
2662, 360, 496, 427, 384
2663, 313, 226, 20, 614
2664, 313, 20, 226, 37
2665, 615, 30, 352, 227
2666, 615, 352, 30, 402
2667, 650, 316, 168, 616
2668, 168, 316, 650, 127
2669, 418, 552, 549, 569
2670, 418, 370, 549, 373
2671, 549, 370, 418, 569
2672, 549, 418, 406, 552
2673, 406, 418, 549, 373
2674, 406, 551, 549, 552
2675, 549, 551, 406, 373

*NSET, NSET=CONSTRAINT_1
5, 6, 12, 13, 33, 34, 130, 131, 132, 133, 134, 135, 136, 137, 138, 139
340, 341, 342, 343, 344, 345, 346, 347, 348, 349, 350, 351

*NSET, NSET=CONSTRAINT_2
11, 14, 15, 16, 171, 172, 173, 174, 175, 176, 194, 195, 196, 197, 215, 216
844, 845, 846, 847, 848, 849, 850, 851, 852, 853, 854, 855

*NSET, NSET=LOAD_1
465

*MATERIAL, NAME=STRUCTURAL_STEEL
*ELASTIC
200000.000000, 0.300000

*SOLID SECTION, ELSET=ALL_ELEMENTS, MATERIAL=STRUCTURAL_STEEL

*BOUNDARY
CONSTRAINT_1, 1, 3

*BOUNDARY
CONSTRAINT_2, 1, 3

*STEP, NLGEOM=NO
*STATIC
0.1, 1.0

*CLOAD
LOAD_1, 3, -15000.000000

*NODE FILE
U, RF
*EL FILE
S, E

*END STEP
