*HEADING
T-beam on roller supports with self-weight gravity only. Left end pinned, right end roller (x free). Self-weight dominates over concentrated loading.

*NODE, NSET=ALL_NODES
1, 0.000000, 0.000000, 24.000000
2, 0.000000, 0.000000, 30.000000
3, 60.000000, 0.000000, 30.000000
4, 60.000000, 0.000000, 24.000000
5, 36.000000, 0.000000, 24.000000
6, 24.000000, 0.000000, 24.000000
7, 0.000000, 150.000000, 24.000000
8, 0.000000, 150.000000, 30.000000
9, 60.000000, 150.000000, 30.000000
10, 60.000000, 150.000000, 24.000000
11, 24.000000, 150.000000, 24.000000
12, 24.000000, 0.000000, 0.000000
13, 36.000000, 0.000000, 0.000000
14, 36.000000, 150.000000, 24.000000
15, 24.000000, 150.000000, 0.000000
16, 36.000000, 150.000000, 0.000000
17, 6.666667, 0.000000, 30.000000
18, 13.333333, 0.000000, 30.000000
19, 20.000000, 0.000000, 30.000000
20, 26.666666, 0.000000, 30.000000
21, 33.333332, 0.000000, 30.000000
22, 40.000000, 0.000000, 30.000000
23, 46.666668, 0.000000, 30.000000
24, 53.333332, 0.000000, 30.000000
25, 42.000000, 0.000000, 24.000000
26, 48.000000, 0.000000, 24.000000
27, 54.000000, 0.000000, 24.000000
28, 30.000000, 0.000000, 24.000000
29, 6.000000, 0.000000, 24.000000
30, 12.000000, 0.000000, 24.000000
31, 18.000000, 0.000000, 24.000000
32, 0.000000, 143.478256, 30.000000
33, 0.000000, 136.956528, 30.000000
34, 0.000000, 130.434784, 30.000000
35, 0.000000, 123.913040, 30.000000
36, 0.000000, 117.391304, 30.000000
37, 0.000000, 110.869568, 30.000000
38, 0.000000, 104.347824, 30.000000
39, 0.000000, 97.826088, 30.000000
40, 0.000000, 91.304344, 30.000000
41, 0.000000, 84.782608, 30.000000
42, 0.000000, 78.260872, 30.000000
43, 0.000000, 71.739128, 30.000000
44, 0.000000, 65.217392, 30.000000
45, 0.000000, 58.695652, 30.000000
46, 0.000000, 52.173912, 30.000000
47, 0.000000, 45.652172, 30.000000
48, 0.000000, 39.130436, 30.000000
49, 0.000000, 32.608696, 30.000000
50, 0.000000, 26.086956, 30.000000
51, 0.000000, 19.565218, 30.000000
52, 0.000000, 13.043478, 30.000000
53, 0.000000, 6.521739, 30.000000
54, 0.000000, 143.478256, 24.000000
55, 0.000000, 136.956528, 24.000000
56, 0.000000, 130.434784, 24.000000
57, 0.000000, 123.913040, 24.000000
58, 0.000000, 117.391304, 24.000000
59, 0.000000, 110.869568, 24.000000
60, 0.000000, 104.347824, 24.000000
61, 0.000000, 97.826088, 24.000000
62, 0.000000, 91.304344, 24.000000
63, 0.000000, 84.782608, 24.000000
64, 0.000000, 78.260872, 24.000000
65, 0.000000, 71.739128, 24.000000
66, 0.000000, 65.217392, 24.000000
67, 0.000000, 58.695652, 24.000000
68, 0.000000, 52.173912, 24.000000
69, 0.000000, 45.652172, 24.000000
70, 0.000000, 39.130436, 24.000000
71, 0.000000, 32.608696, 24.000000
72, 0.000000, 26.086956, 24.000000
73, 0.000000, 19.565218, 24.000000
74, 0.000000, 13.043478, 24.000000
75, 0.000000, 6.521739, 24.000000
76, 60.000000, 6.521739, 30.000000
77, 60.000000, 13.043478, 30.000000
78, 60.000000, 19.565218, 30.000000
79, 60.000000, 26.086956, 30.000000
80, 60.000000, 32.608696, 30.000000
81, 60.000000, 39.130436, 30.000000
82, 60.000000, 45.652172, 30.000000
83, 60.000000, 52.173912, 30.000000
84, 60.000000, 58.695652, 30.000000
85, 60.000000, 65.217392, 30.000000
86, 60.000000, 71.739128, 30.000000
87, 60.000000, 78.260872, 30.000000
88, 60.000000, 84.782608, 30.000000
89, 60.000000, 91.304344, 30.000000
90, 60.000000, 97.826088, 30.000000
91, 60.000000, 104.347824, 30.000000
92, 60.000000, 110.869568, 30.000000
93, 60.000000, 117.391304, 30.000000
94, 60.000000, 123.913040, 30.000000
95, 60.000000, 130.434784, 30.000000
96, 60.000000, 136.956528, 30.000000
97, 60.000000, 143.478256, 30.000000
98, 60.000000, 6.521739, 24.000000
99, 60.000000, 13.043478, 24.000000
100, 60.000000, 19.565218, 24.000000
101, 60.000000, 26.086956, 24.000000
102, 60.000000, 32.608696, 24.000000
103, 60.000000, 39.130436, 24.000000
104, 60.000000, 45.652172, 24.000000
105, 60.000000, 52.173912, 24.000000
106, 60.000000, 58.695652, 24.000000
107, 60.000000, 65.217392, 24.000000
108, 60.000000, 71.739128, 24.000000
109, 60.000000, 78.260872, 24.000000
110, 60.000000, 84.782608, 24.000000
111, 60.000000, 91.304344, 24.000000
112, 60.000000, 97.826088, 24.000000
113, 60.000000, 104.347824, 24.000000
114, 60.000000, 110.869568, 24.000000
115, 60.000000, 117.391304, 24.000000
116, 60.000000, 123.913040, 24.000000
117, 60.000000, 130.434784, 24.000000
118, 60.000000, 136.956528, 24.000000
119, 60.000000, 143.478256, 24.000000
120, 24.000000, 143.478256, 24.000000
121, 24.000000, 136.956528, 24.000000
122, 24.000000, 130.434784, 24.000000
123, 24.000000, 123.913040, 24.000000
124, 24.000000, 117.391304, 24.000000
125, 24.000000, 110.869568, 24.000000
126, 24.000000, 104.347824, 24.000000
127, 24.000000, 97.826088, 24.000000
128, 24.000000, 91.304344, 24.000000
129, 24.000000, 84.782608, 24.000000
130, 24.000000, 78.260872, 24.000000
131, 24.000000, 71.739128, 24.000000
132, 24.000000, 65.217392, 24.000000
133, 24.000000, 58.695652, 24.000000
134, 24.000000, 52.173912, 24.000000
135, 24.000000, 45.652172, 24.000000
136, 24.000000, 39.130436, 24.000000
137, 24.000000, 32.608696, 24.000000
138, 24.000000, 26.086956, 24.000000
139, 24.000000, 19.565218, 24.000000
140, 24.000000, 13.043478, 24.000000
141, 24.000000, 6.521739, 24.000000
142, 18.000000, 150.000000, 24.000000
143, 12.000000, 150.000000, 24.000000
144, 6.000000, 150.000000, 24.000000
145, 24.000000, 0.000000, 6.000000
146, 24.000000, 0.000000, 12.000000
147, 24.000000, 0.000000, 18.000000
148, 36.000000, 0.000000, 6.000000
149, 36.000000, 0.000000, 12.000000
150, 36.000000, 0.000000, 18.000000
151, 30.000000, 0.000000, 0.000000
152, 36.000000, 6.521739, 24.000000
153, 36.000000, 13.043478, 24.000000
154, 36.000000, 19.565218, 24.000000
155, 36.000000, 26.086956, 24.000000
156, 36.000000, 32.608696, 24.000000
157, 36.000000, 39.130436, 24.000000
158, 36.000000, 45.652172, 24.000000
159, 36.000000, 52.173912, 24.000000
160, 36.000000, 58.695652, 24.000000
161, 36.000000, 65.217392, 24.000000
162, 36.000000, 71.739128, 24.000000
163, 36.000000, 78.260872, 24.000000
164, 36.000000, 84.782608, 24.000000
165, 36.000000, 91.304344, 24.000000
166, 36.000000, 97.826088, 24.000000
167, 36.000000, 104.347824, 24.000000
168, 36.000000, 110.869568, 24.000000
169, 36.000000, 117.391304, 24.000000
170, 36.000000, 123.913040, 24.000000
171, 36.000000, 130.434784, 24.000000
172, 36.000000, 136.956528, 24.000000
173, 36.000000, 143.478256, 24.000000
174, 54.000000, 150.000000, 24.000000
175, 48.000000, 150.000000, 24.000000
176, 42.000000, 150.000000, 24.000000
177, 53.333332, 150.000000, 30.000000
178, 46.666668, 150.000000, 30.000000
179, 40.000000, 150.000000, 30.000000
180, 33.333332, 150.000000, 30.000000
181, 26.666666, 150.000000, 30.000000
182, 20.000000, 150.000000, 30.000000
183, 13.333333, 150.000000, 30.000000
184, 6.666667, 150.000000, 30.000000
185, 30.000000, 150.000000, 24.000000
186, 24.000000, 150.000000, 6.000000
187, 24.000000, 150.000000, 12.000000
188, 24.000000, 150.000000, 18.000000
189, 24.000000, 143.478256, 0.000000
190, 24.000000, 136.956528, 0.000000
191, 24.000000, 130.434784, 0.000000
192, 24.000000, 123.913040, 0.000000
193, 24.000000, 117.391304, 0.000000
194, 24.000000, 110.869568, 0.000000
195, 24.000000, 104.347824, 0.000000
196, 24.000000, 97.826088, 0.000000
197, 24.000000, 91.304344, 0.000000
198, 24.000000, 84.782608, 0.000000
199, 24.000000, 78.260872, 0.000000
200, 24.000000, 71.739128, 0.000000
201, 24.000000, 65.217392, 0.000000
202, 24.000000, 58.695652, 0.000000
203, 24.000000, 52.173912, 0.000000
204, 24.000000, 45.652172, 0.000000
205, 24.000000, 39.130436, 0.000000
206, 24.000000, 32.608696, 0.000000
207, 24.000000, 26.086956, 0.000000
208, 24.000000, 19.565218, 0.000000
209, 24.000000, 13.043478, 0.000000
210, 24.000000, 6.521739, 0.000000
211, 36.000000, 150.000000, 6.000000
212, 36.000000, 150.000000, 12.000000
213, 36.000000, 150.000000, 18.000000
214, 36.000000, 6.521739, 0.000000
215, 36.000000, 13.043478, 0.000000
216, 36.000000, 19.565218, 0.000000
217, 36.000000, 26.086956, 0.000000
218, 36.000000, 32.608696, 0.000000
219, 36.000000, 39.130436, 0.000000
220, 36.000000, 45.652172, 0.000000
221, 36.000000, 52.173912, 0.000000
222, 36.000000, 58.695652, 0.000000
223, 36.000000, 65.217392, 0.000000
224, 36.000000, 71.739128, 0.000000
225, 36.000000, 78.260872, 0.000000
226, 36.000000, 84.782608, 0.000000
227, 36.000000, 91.304344, 0.000000
228, 36.000000, 97.826088, 0.000000
229, 36.000000, 104.347824, 0.000000
230, 36.000000, 110.869568, 0.000000
231, 36.000000, 117.391304, 0.000000
232, 36.000000, 123.913040, 0.000000
233, 36.000000, 130.434784, 0.000000
234, 36.000000, 136.956528, 0.000000
235, 36.000000, 143.478256, 0.000000
236, 30.000000, 150.000000, 0.000000
237, 56.833332, 0.000000, 27.000000
238, 3.166667, 0.000000, 27.000000
239, 0.000000, 140.217392, 27.000000
240, 0.000000, 120.652176, 27.000000
241, 0.000000, 114.130432, 27.000000
242, 0.000000, 101.086960, 27.000000
243, 0.000000, 94.565216, 27.000000
244, 0.000000, 81.521736, 27.000000
245, 0.000000, 75.000000, 27.000000
246, 0.000000, 68.478264, 27.000000
247, 0.000000, 48.913044, 27.000000
248, 0.000000, 61.956520, 27.000000
249, 0.000000, 55.434784, 27.000000
250, 0.000000, 127.173912, 27.000000
251, 0.000000, 107.608696, 27.000000
252, 0.000000, 88.043480, 27.000000
253, 0.000000, 42.391304, 27.000000
254, 0.000000, 146.739136, 27.000000
255, 0.000000, 133.695648, 27.000000
256, 0.000000, 29.347826, 27.000000
257, 0.000000, 16.304348, 27.000000
258, 0.000000, 22.826086, 27.000000
259, 0.000000, 3.260870, 27.000000
260, 0.000000, 35.869564, 27.000000
261, 0.000000, 9.782609, 27.000000
262, 60.000000, 35.869564, 27.000000
263, 60.000000, 48.913044, 27.000000
264, 60.000000, 68.478264, 27.000000
265, 60.000000, 75.000000, 27.000000
266, 60.000000, 81.521736, 27.000000
267, 60.000000, 101.086960, 27.000000
268, 60.000000, 29.347826, 27.000000
269, 60.000000, 42.391304, 27.000000
270, 60.000000, 55.434784, 27.000000
271, 60.000000, 61.956520, 27.000000
272, 60.000000, 16.304348, 27.000000
273, 60.000000, 3.260870, 27.000000
274, 60.000000, 9.782609, 27.000000
275, 60.000000, 22.826086, 27.000000
276, 60.000000, 88.043480, 27.000000
277, 60.000000, 94.565216, 27.000000
278, 60.000000, 107.608696, 27.000000
279, 60.000000, 146.739136, 27.000000
280, 60.000000, 120.652176, 27.000000
281, 60.000000, 127.173912, 27.000000
282, 60.000000, 133.695648, 27.000000
283, 60.000000, 140.217392, 27.000000
284, 60.000000, 114.130432, 27.000000
285, 6.077405, 35.911594, 24.000000
286, 17.662270, 16.331179, 24.000000
287, 5.754232, 126.981102, 24.000000
288, 6.164832, 107.279686, 24.000000
289, 17.677839, 49.302902, 24.000000
290, 5.647992, 88.043480, 24.000000
291, 5.647992, 61.956520, 24.000000
292, 5.835930, 74.896103, 24.000000
293, 17.970499, 29.349676, 24.000000
294, 5.662774, 22.799686, 24.000000
295, 17.661232, 133.634689, 24.000000
296, 18.251358, 113.766327, 24.000000
297, 17.725605, 101.036888, 24.000000
298, 18.178082, 68.488113, 24.000000
299, 18.158617, 81.507423, 24.000000
300, 6.002266, 9.555407, 24.000000
301, 6.002266, 140.444595, 24.000000
302, 5.725472, 49.211464, 24.000000
303, 14.862932, 145.305710, 24.000000
304, 14.862932, 4.694296, 24.000000
305, 5.703583, 133.701385, 24.000000
306, 11.850231, 136.584198, 24.000000
307, 11.530615, 130.337402, 24.000000
308, 11.371849, 123.807976, 24.000000
309, 17.585474, 127.134888, 24.000000
310, 17.889437, 120.372810, 24.000000
311, 12.342188, 116.793373, 24.000000
312, 12.275100, 110.499702, 24.000000
313, 6.121389, 120.137840, 24.000000
314, 5.686183, 16.249168, 24.000000
315, 11.845347, 13.388956, 24.000000
316, 11.523054, 19.574547, 24.000000
317, 11.435511, 26.027739, 24.000000
318, 17.765223, 22.822552, 24.000000
319, 12.004682, 32.650780, 24.000000
320, 18.182991, 35.933002, 24.000000
321, 12.307472, 39.317348, 24.000000
322, 5.979298, 42.635036, 24.000000
323, 11.796535, 45.987953, 24.000000
324, 11.306202, 52.696396, 24.000000
325, 17.543072, 55.846016, 24.000000
326, 11.852966, 58.925743, 24.000000
327, 5.827583, 29.347342, 24.000000
328, 5.808298, 81.481316, 24.000000
329, 11.405902, 84.770012, 24.000000
330, 11.314303, 91.302246, 24.000000
331, 17.637133, 88.038643, 24.000000
332, 12.119559, 78.097908, 24.000000
333, 11.345193, 71.351410, 24.000000
334, 17.662170, 94.555717, 24.000000
335, 11.520100, 97.765739, 24.000000
336, 17.966908, 74.907478, 24.000000
337, 5.688398, 94.554810, 24.000000
338, 5.749311, 100.970261, 24.000000
339, 17.994139, 42.553970, 24.000000
340, 5.975982, 68.438744, 24.000000
341, 18.463032, 62.148819, 24.000000
342, 17.710411, 140.425018, 24.000000
343, 17.709862, 9.566267, 24.000000
344, 12.071014, 104.193497, 24.000000
345, 9.172051, 145.463516, 24.000000
346, 9.172051, 4.536486, 24.000000
347, 12.457269, 65.342476, 24.000000
348, 5.755439, 55.609947, 24.000000
349, 6.330002, 113.735474, 24.000000
350, 18.053846, 107.452301, 24.000000
351, 19.714560, 4.156460, 24.000000
352, 19.714668, 145.841797, 24.000000
353, 4.255091, 4.275646, 24.000000
354, 4.255091, 145.724350, 24.000000
355, 11.919579, 141.644608, 24.000000
356, 11.918491, 8.348283, 24.000000
357, 29.196152, 0.000000, 9.000000
358, 30.613905, 0.000000, 15.000000
359, 31.597906, 0.000000, 3.944710
360, 28.360735, 0.000000, 20.064243
361, 32.432747, 0.000000, 20.441889
362, 27.467892, 0.000000, 3.478873
363, 53.901295, 114.119713, 24.000000
364, 53.697552, 133.603104, 24.000000
365, 54.221886, 101.077774, 24.000000
366, 54.357891, 22.824318, 24.000000
367, 54.146980, 49.028976, 24.000000
368, 54.128010, 87.893806, 24.000000
369, 54.352009, 61.956520, 24.000000
370, 54.164040, 35.971207, 24.000000
371, 53.919250, 75.031166, 24.000000
372, 41.663334, 120.667473, 24.000000
373, 41.660133, 107.611931, 24.000000
374, 42.338684, 16.365313, 24.000000
375, 41.922169, 29.364290, 24.000000
376, 41.872433, 42.542324, 24.000000
377, 41.842937, 94.464973, 24.000000
378, 41.861858, 81.426949, 24.000000
379, 42.345451, 55.463406, 24.000000
380, 41.841381, 68.492577, 24.000000
381, 53.997734, 9.555407, 24.000000
382, 42.004475, 140.444778, 24.000000
383, 45.137066, 4.694296, 24.000000
384, 50.862938, 145.305923, 24.000000
385, 54.315105, 16.266186, 24.000000
386, 48.152870, 13.410395, 24.000000
387, 48.491604, 19.623863, 24.000000
388, 48.600273, 26.092524, 24.000000
389, 42.468525, 22.835073, 24.000000
390, 47.904945, 32.764034, 24.000000
391, 41.691620, 133.749115, 24.000000
392, 47.854206, 136.597122, 24.000000
393, 47.558224, 130.342316, 24.000000
394, 53.599430, 127.118652, 24.000000
395, 47.472885, 123.871170, 24.000000
396, 41.731010, 127.162987, 24.000000
397, 47.516888, 117.359703, 24.000000
398, 42.058651, 35.987080, 24.000000
399, 41.698055, 114.132637, 24.000000
400, 47.535152, 110.865379, 24.000000
401, 47.486359, 104.341110, 24.000000
402, 53.645306, 107.605026, 24.000000
403, 48.120384, 97.674614, 24.000000
404, 53.970467, 94.450500, 24.000000
405, 41.851635, 101.044426, 24.000000
406, 47.711525, 91.031113, 24.000000
407, 47.815582, 84.688210, 24.000000
408, 54.171192, 29.391289, 24.000000
409, 48.153862, 39.364578, 24.000000
410, 48.152588, 45.764313, 24.000000
411, 54.282967, 68.489838, 24.000000
412, 48.598057, 65.228737, 24.000000
413, 48.584454, 58.730938, 24.000000
414, 42.464737, 61.967186, 24.000000
415, 47.922920, 71.742416, 24.000000
416, 41.792583, 74.979019, 24.000000
417, 54.314434, 55.488609, 24.000000
418, 53.748417, 120.628929, 24.000000
419, 41.871983, 87.949699, 24.000000
420, 54.102913, 42.485279, 24.000000
421, 53.832031, 81.478142, 24.000000
422, 42.195606, 48.990295, 24.000000
423, 48.289917, 52.244423, 24.000000
424, 47.857372, 78.224319, 24.000000
425, 42.290020, 9.574206, 24.000000
426, 53.716175, 140.422577, 24.000000
427, 50.827950, 4.536486, 24.000000
428, 45.172428, 145.463806, 24.000000
429, 55.715824, 145.841354, 24.000000
430, 40.285416, 4.158048, 24.000000
431, 40.255356, 145.724396, 24.000000
432, 55.744907, 4.275646, 24.000000
433, 48.081127, 8.354157, 24.000000
434, 47.922043, 141.646835, 24.000000
435, 5.958020, 36.014122, 30.000000
436, 53.803276, 114.536224, 30.000000
437, 54.730392, 88.390587, 30.000000
438, 54.824089, 55.434784, 30.000000
439, 5.282086, 74.728027, 30.000000
440, 5.066651, 101.148056, 30.000000
441, 53.140293, 29.365637, 30.000000
442, 5.286238, 120.312874, 30.000000
443, 5.353557, 55.455132, 30.000000
444, 30.068937, 6.126717, 30.000000
445, 30.018435, 144.228287, 30.000000
446, 5.532269, 88.243912, 30.000000
447, 54.116066, 127.145874, 30.000000
448, 5.082891, 22.841206, 30.000000
449, 54.744640, 101.100174, 30.000000
450, 54.458038, 42.574951, 30.000000
451, 54.963455, 68.429810, 30.000000
452, 16.694044, 144.220108, 30.000000
453, 42.954987, 5.487878, 30.000000
454, 43.262840, 144.267609, 30.000000
455, 15.937724, 7.263321, 30.000000
456, 5.938222, 134.191345, 30.000000
457, 54.470108, 16.221380, 30.000000
458, 5.196861, 9.422107, 30.000000
459, 53.971626, 139.552872, 30.000000
460, 36.656269, 144.242889, 30.000000
461, 33.345547, 138.481308, 30.000000
462, 26.723967, 138.466721, 30.000000
463, 30.037050, 132.748825, 30.000000
464, 23.443346, 132.731339, 30.000000
465, 26.757851, 127.037216, 30.000000
466, 33.332043, 127.045563, 30.000000
467, 30.057247, 121.351784, 30.000000
468, 36.743309, 121.296333, 30.000000
469, 33.309010, 115.699059, 30.000000
470, 26.784201, 115.667961, 30.000000
471, 30.012053, 110.034920, 30.000000
472, 23.513800, 109.994797, 30.000000
473, 26.796570, 104.334305, 30.000000
474, 33.175621, 104.441223, 30.000000
475, 30.057077, 98.687408, 30.000000
476, 23.543289, 98.663025, 30.000000
477, 26.824608, 93.008896, 30.000000
478, 33.356270, 93.018196, 30.000000
479, 30.104509, 87.354820, 30.000000
480, 23.575321, 87.344933, 30.000000
481, 26.849226, 81.696388, 30.000000
482, 33.376514, 81.705185, 30.000000
483, 30.121098, 76.048569, 30.000000
484, 36.646748, 76.057335, 30.000000
485, 33.391487, 70.401581, 30.000000
486, 26.866493, 70.392570, 30.000000
487, 30.136757, 64.746971, 30.000000
488, 23.612513, 64.737617, 30.000000
489, 26.882406, 59.092827, 30.000000
490, 33.406139, 59.101723, 30.000000
491, 30.152374, 53.447865, 30.000000
492, 23.407061, 52.769073, 30.000000
493, 27.192490, 47.488548, 30.000000
494, 33.470894, 47.751091, 30.000000
495, 30.225765, 42.080814, 30.000000
496, 23.818953, 41.981594, 30.000000
497, 26.940454, 36.434898, 30.000000
498, 33.085323, 36.670013, 30.000000
499, 30.008789, 30.893270, 30.000000
500, 23.602461, 30.800724, 30.000000
501, 27.173759, 24.938105, 30.000000
502, 33.876102, 25.438663, 30.000000
503, 20.323086, 81.685936, 30.000000
504, 20.187988, 127.014931, 30.000000
505, 39.902901, 81.712418, 30.000000
506, 20.393110, 25.078104, 30.000000
507, 23.985861, 19.191759, 30.000000
508, 40.074535, 126.976997, 30.000000
509, 39.862507, 115.456505, 30.000000
510, 39.916195, 70.409706, 30.000000
511, 20.238031, 115.649376, 30.000000
512, 16.980293, 109.974434, 30.000000
513, 20.342472, 70.382690, 30.000000
514, 17.088936, 64.728287, 30.000000
515, 17.203947, 19.394585, 30.000000
516, 17.070074, 30.778934, 30.000000
517, 16.479378, 87.848953, 30.000000
518, 16.977167, 132.636597, 30.000000
519, 13.566763, 81.584930, 30.000000
520, 13.697803, 127.014137, 30.000000
521, 14.180466, 116.012848, 30.000000
522, 10.508133, 110.605133, 30.000000
523, 14.089105, 104.346939, 30.000000
524, 14.259729, 70.677338, 30.000000
525, 10.581474, 65.116638, 30.000000
526, 15.038483, 59.265411, 30.000000
527, 20.200920, 13.464159, 30.000000
528, 13.379465, 14.389432, 30.000000
529, 27.229061, 12.726643, 30.000000
530, 23.350552, 6.596807, 30.000000
531, 33.849457, 11.537462, 30.000000
532, 31.946133, 18.276218, 30.000000
533, 38.452293, 20.702532, 30.000000
534, 40.088409, 26.921219, 30.000000
535, 44.375885, 22.579855, 30.000000
536, 43.225899, 15.988412, 30.000000
537, 46.166676, 28.663853, 30.000000
538, 41.785854, 33.144878, 30.000000
539, 47.861271, 34.737221, 30.000000
540, 43.016586, 39.115459, 30.000000
541, 23.371202, 144.223236, 30.000000
542, 39.961544, 138.489792, 30.000000
543, 46.663345, 138.705612, 30.000000
544, 43.288754, 132.782822, 30.000000
545, 50.000069, 133.157059, 30.000000
546, 46.710789, 127.067551, 30.000000
547, 50.128765, 120.879318, 30.000000
548, 43.323860, 121.096008, 30.000000
549, 46.429661, 115.086540, 30.000000
550, 42.485397, 109.670143, 30.000000
551, 48.928387, 108.933220, 30.000000
552, 45.047081, 103.661682, 30.000000
553, 36.677357, 5.767330, 30.000000
554, 14.197253, 25.295527, 30.000000
555, 10.827371, 30.677208, 30.000000
556, 13.785167, 36.449162, 30.000000
557, 9.503396, 42.397919, 30.000000
558, 17.121637, 42.947979, 30.000000
559, 11.994646, 47.949734, 30.000000
560, 18.020023, 49.665028, 30.000000
561, 20.389791, 36.565548, 30.000000
562, 49.426716, 6.289671, 30.000000
563, 10.049883, 144.503265, 30.000000
564, 12.347345, 138.011139, 30.000000
565, 36.673244, 132.754227, 30.000000
566, 20.323154, 104.325882, 30.000000
567, 17.015867, 98.641792, 30.000000
568, 17.066917, 121.386589, 30.000000
569, 19.982727, 138.393753, 30.000000
570, 36.585136, 98.668846, 30.000000
571, 39.886246, 92.907349, 30.000000
572, 20.302498, 92.990166, 30.000000
573, 43.171646, 76.064674, 30.000000
574, 46.514816, 81.600616, 30.000000
575, 49.451817, 76.034050, 30.000000
576, 43.027905, 87.244598, 30.000000
577, 36.634777, 87.360886, 30.000000
578, 45.807205, 92.443024, 30.000000
579, 17.071896, 76.026863, 30.000000
580, 20.826817, 59.180073, 30.000000
581, 36.660820, 64.755363, 30.000000
582, 39.929329, 59.109722, 30.000000
583, 43.099350, 64.812042, 30.000000
584, 45.943882, 58.886749, 30.000000
585, 42.834278, 53.428593, 30.000000
586, 45.959961, 70.664383, 30.000000
587, 54.195786, 36.278122, 30.000000
588, 6.763267, 127.117477, 30.000000
589, 54.906319, 94.708908, 30.000000
590, 6.608478, 81.432350, 30.000000
591, 5.464735, 94.608810, 30.000000
592, 10.738706, 91.411491, 30.000000
593, 54.527119, 48.943653, 30.000000
594, 49.437256, 46.266502, 30.000000
595, 55.008060, 61.922966, 30.000000
596, 54.352009, 22.826086, 30.000000
597, 53.544533, 81.561996, 30.000000
598, 23.596245, 76.038422, 30.000000
599, 36.622578, 53.442642, 30.000000
600, 23.515373, 121.351311, 30.000000
601, 6.420775, 15.595945, 30.000000
602, 39.790936, 48.408100, 30.000000
603, 37.203217, 42.237961, 30.000000
604, 4.997615, 114.032188, 30.000000
605, 5.690124, 48.490505, 30.000000
606, 5.036155, 68.420746, 30.000000
607, 10.101704, 5.498300, 30.000000
608, 49.851479, 144.629547, 30.000000
609, 36.331364, 110.061646, 30.000000
610, 5.511845, 140.151901, 30.000000
611, 54.518444, 10.070882, 30.000000
612, 49.237167, 12.973655, 30.000000
613, 10.959476, 98.403923, 30.000000
614, 10.897892, 20.615728, 30.000000
615, 49.138493, 52.969021, 30.000000
616, 4.991421, 61.979980, 30.000000
617, 54.895863, 107.608696, 30.000000
618, 49.196857, 65.064507, 30.000000
619, 42.609955, 98.457695, 30.000000
620, 4.908828, 107.619530, 30.000000
621, 49.139904, 98.052994, 30.000000
622, 39.758228, 10.900423, 30.000000
623, 39.335384, 104.325104, 30.000000
624, 14.293266, 53.202160, 30.000000
625, 5.009464, 29.204876, 30.000000
626, 11.204651, 76.335495, 30.000000
627, 36.219048, 31.733629, 30.000000
628, 49.166214, 19.067364, 30.000000
629, 55.127937, 74.855881, 30.000000
630, 11.254156, 121.782959, 30.000000
631, 11.150957, 131.902451, 30.000000
632, 48.878571, 86.923988, 30.000000
633, 55.617550, 133.449417, 30.000000
634, 48.791950, 40.586536, 30.000000
635, 10.585118, 86.104324, 30.000000
636, 55.795185, 120.652176, 30.000000
637, 4.105652, 42.391304, 30.000000
638, 49.440216, 24.500559, 30.000000
639, 4.740839, 145.262787, 30.000000
640, 55.089920, 4.945880, 30.000000
641, 50.430473, 103.886772, 30.000000
642, 38.363789, 36.949375, 30.000000
643, 4.788929, 4.748811, 30.000000
644, 55.211071, 145.251190, 30.000000
645, 43.782764, 44.546970, 30.000000
646, 37.446404, 15.481009, 30.000000
647, 9.261786, 52.814369, 30.000000
648, 15.366590, 93.930779, 30.000000
649, 9.650666, 58.258579, 30.000000
650, 8.880570, 104.714424, 30.000000
651, 45.164318, 49.125492, 30.000000
652, 44.627655, 10.486014, 30.000000
653, 9.245321, 116.549202, 30.000000
654, 9.272819, 71.055649, 30.000000
655, 18.771578, 54.572903, 30.000000
656, 9.154016, 25.947693, 30.000000
657, 50.743656, 91.875458, 30.000000
658, 10.207306, 10.433821, 30.000000
659, 22.204391, 46.756599, 30.000000
660, 50.923897, 71.601318, 30.000000
661, 51.063961, 58.695652, 30.000000
662, 3.166667, 150.000000, 27.000000
663, 56.833332, 150.000000, 27.000000
664, 24.000000, 35.855251, 5.841383
665, 24.000000, 16.369869, 18.136660
666, 24.000000, 107.316055, 17.495083
667, 24.000000, 126.981102, 18.245768
668, 24.000000, 48.913044, 18.352009
669, 24.000000, 88.171753, 17.751360
670, 24.000000, 62.027126, 17.933168
671, 24.000000, 75.000000, 18.352009
672, 24.000000, 29.277224, 17.933168
673, 24.000000, 22.785599, 5.906065
674, 24.000000, 113.766327, 5.748642
675, 24.000000, 133.634689, 6.338768
676, 24.000000, 101.095589, 5.692627
677, 24.000000, 55.463390, 5.962468
678, 24.000000, 81.539146, 5.839547
679, 24.000000, 68.478264, 5.647992
680, 24.000000, 9.547700, 5.995449
681, 24.000000, 140.444595, 17.997734
682, 24.000000, 145.305710, 9.137068
683, 24.000000, 4.694507, 14.862926
684, 24.000000, 133.701385, 18.296417
685, 24.000000, 136.584198, 12.149769
686, 24.000000, 130.337402, 12.469385
687, 24.000000, 123.807976, 12.628151
688, 24.000000, 127.134888, 6.414526
689, 24.000000, 120.372810, 6.110563
690, 24.000000, 116.793373, 11.657812
691, 24.000000, 110.509483, 11.518538
692, 24.000000, 120.137840, 17.878611
693, 24.000000, 16.255827, 5.865399
694, 24.000000, 13.408354, 12.195258
695, 24.000000, 42.391304, 18.352009
696, 24.000000, 45.641502, 12.487827
697, 24.000000, 39.119125, 12.591673
698, 24.000000, 52.205509, 12.076430
699, 24.000000, 42.379360, 6.382647
700, 24.000000, 32.507530, 11.850390
701, 24.000000, 48.919308, 6.151562
702, 24.000000, 58.748779, 11.906700
703, 24.000000, 62.001469, 5.811128
704, 24.000000, 29.290506, 5.824575
705, 24.000000, 68.521355, 18.056467
706, 24.000000, 71.739128, 12.704017
707, 24.000000, 78.271851, 12.600973
708, 24.000000, 75.002411, 6.584629
709, 24.000000, 84.936386, 11.740270
710, 24.000000, 88.112572, 5.739681
711, 24.000000, 91.466286, 11.620938
712, 24.000000, 94.701218, 17.695856
713, 24.000000, 97.863487, 11.628778
714, 24.000000, 22.793915, 18.020576
715, 24.000000, 19.585428, 11.912261
716, 24.000000, 35.847771, 18.187149
717, 24.000000, 55.460670, 18.044718
718, 24.000000, 81.521736, 18.352009
719, 24.000000, 26.040033, 11.907840
720, 24.000000, 65.365608, 11.521492
721, 24.000000, 94.611397, 5.780338
722, 24.000000, 101.020737, 17.799849
723, 24.000000, 140.425018, 6.289589
724, 24.000000, 9.574776, 17.827612
725, 24.000000, 145.463516, 14.827949
726, 24.000000, 4.535448, 9.170908
727, 24.000000, 113.836273, 17.758341
728, 24.000000, 107.443085, 5.823196
729, 24.000000, 104.120140, 11.862865
730, 24.000000, 4.158205, 19.738108
731, 24.000000, 145.841797, 4.285331
732, 24.000000, 4.274754, 4.254279
733, 24.000000, 145.724350, 19.744909
734, 24.000000, 8.352157, 12.010430
735, 24.000000, 141.644608, 12.080421
736, 36.000000, 114.100708, 17.910105
737, 36.000000, 133.603104, 17.697552
738, 36.000000, 101.075409, 5.889184
739, 36.000000, 22.734470, 5.868097
740, 36.000000, 48.930454, 5.839547
741, 36.000000, 35.855251, 5.841383
742, 36.000000, 88.043480, 5.647992
743, 36.000000, 61.956520, 18.352009
744, 36.000000, 74.985687, 18.158617
745, 36.000000, 120.667252, 5.663207
746, 36.000000, 16.352034, 17.894497
747, 36.000000, 29.243927, 18.164070
748, 36.000000, 42.570023, 18.241917
749, 36.000000, 94.539963, 18.083302
750, 36.000000, 68.425148, 6.079767
751, 36.000000, 9.547702, 5.995423
752, 36.000000, 140.444778, 6.004475
753, 36.000000, 4.694509, 14.862926
754, 36.000000, 145.305923, 14.862939
755, 36.000000, 133.749115, 5.691621
756, 36.000000, 136.597122, 11.854205
757, 36.000000, 130.342316, 11.558226
758, 36.000000, 127.118652, 17.599432
759, 36.000000, 16.232054, 5.703195
760, 36.000000, 13.383588, 11.872358
761, 36.000000, 123.871132, 11.472863
762, 36.000000, 127.162941, 5.730986
763, 36.000000, 117.356209, 11.518237
764, 36.000000, 114.131287, 5.707646
765, 36.000000, 110.814987, 11.577419
766, 36.000000, 107.455765, 17.458706
767, 36.000000, 104.299957, 11.779723
768, 36.000000, 81.521736, 5.647992
769, 36.000000, 84.771935, 11.512173
770, 36.000000, 91.288994, 11.764270
771, 36.000000, 78.249557, 11.408327
772, 36.000000, 81.509796, 17.617353
773, 36.000000, 71.712173, 12.054982
774, 36.000000, 88.032944, 17.829515
775, 36.000000, 97.798927, 12.111299
776, 36.000000, 68.472870, 18.232027
777, 36.000000, 35.855888, 18.228142
778, 36.000000, 39.126751, 12.590902
779, 36.000000, 45.717270, 12.562632
780, 36.000000, 42.398983, 6.401062
781, 36.000000, 52.516975, 11.635331
782, 36.000000, 32.448769, 11.883267
783, 36.000000, 25.699236, 12.654807
784, 36.000000, 49.361809, 17.809219
785, 36.000000, 55.503860, 5.731153
786, 36.000000, 58.939022, 11.283985
787, 36.000000, 29.238895, 6.041259
788, 36.000000, 74.984772, 5.865178
789, 36.000000, 94.556206, 5.902124
790, 36.000000, 107.589836, 5.825662
791, 36.000000, 120.625175, 17.750107
792, 36.000000, 19.498875, 11.630117
793, 36.000000, 101.036774, 18.140741
794, 36.000000, 61.985909, 5.982769
795, 36.000000, 22.741041, 18.057249
796, 36.000000, 65.164108, 12.592389
797, 36.000000, 9.568693, 17.746889
798, 36.000000, 140.422577, 17.716175
799, 36.000000, 4.535451, 9.170903
800, 36.000000, 145.463806, 9.172428
801, 36.000000, 55.821190, 17.284138
802, 36.000000, 145.841354, 19.715822
803, 36.000000, 4.156988, 19.721962
804, 36.000000, 145.724396, 4.255355
805, 36.000000, 4.274755, 4.254275
806, 36.000000, 8.345988, 11.929700
807, 36.000000, 141.646835, 11.922044
808, 30.216007, 140.909210, 0.000000
809, 29.647991, 9.782609, 0.000000
810, 30.119183, 127.173912, 0.000000
811, 29.880817, 22.826086, 0.000000
812, 29.880817, 35.869564, 0.000000
813, 30.119183, 114.130432, 0.000000
814, 30.119183, 101.086960, 0.000000
815, 29.880817, 48.913044, 0.000000
816, 29.880817, 61.956520, 0.000000
817, 30.118423, 88.044952, 0.000000
818, 29.998514, 75.002899, 0.000000
819, 30.061050, 55.434784, 0.000000
820, 29.979889, 68.478745, 0.000000
821, 30.061050, 29.347826, 0.000000
822, 29.938950, 107.608696, 0.000000
823, 29.938860, 94.565392, 0.000000
824, 29.938950, 120.652176, 0.000000
825, 30.061050, 42.391304, 0.000000
826, 30.055864, 133.810959, 0.000000
827, 30.113235, 16.304348, 0.000000
828, 30.019489, 81.522469, 0.000000
829, 31.174950, 4.939916, 0.000000
830, 28.673590, 145.363403, 0.000000
831, 32.580570, 146.336609, 0.000000
832, 29.196152, 150.000000, 15.000000
833, 30.613905, 150.000000, 9.000000
834, 31.597906, 150.000000, 20.055290
835, 28.360735, 150.000000, 3.935756
836, 32.432747, 150.000000, 3.558111
837, 27.467892, 150.000000, 20.521128
838, 30.000000, 6.416962, 17.512718
839, 30.031366, 143.573883, 6.606822
840, 29.968784, 143.573471, 17.393612
841, 29.999998, 7.763684, 8.722981
842, 30.123747, 71.413216, 20.764589
843, 30.125298, 136.932663, 19.969320
844, 30.036633, 13.083116, 20.072279
845, 29.965338, 91.349281, 7.790825
846, 30.081961, 136.700592, 8.066999
847, 30.065639, 39.209045, 20.140598
848, 29.969326, 104.223511, 7.985782
849, 29.960667, 19.541300, 15.832252
850, 29.964941, 32.173729, 20.290733
851, 30.009087, 35.560089, 14.058923
852, 29.934689, 45.652172, 16.326536
853, 30.019819, 48.967442, 9.998638
854, 30.013075, 23.028515, 9.657583
855, 30.047941, 16.046904, 9.359894
856, 30.000000, 94.565216, 21.940178
857, 29.954548, 91.414459, 15.543550
858, 29.969940, 87.548546, 21.422112
859, 30.091562, 111.183800, 7.914081
860, 29.890474, 130.355774, 16.343321
861, 30.098686, 123.894493, 7.671722
862, 29.927418, 100.718262, 14.061407
863, 29.845057, 28.695269, 14.363555
864, 30.000000, 22.826086, 22.110237
865, 30.000000, 123.634796, 20.156609
866, 30.130123, 120.491859, 13.846727
867, 30.028688, 84.782608, 5.980978
868, 30.000000, 104.479866, 20.130583
869, 30.045563, 107.610077, 13.989248

*ELEMENT, TYPE=C3D4, ELSET=ALL_ELEMENTS
1, 769, 857, 709, 858
2, 823, 721, 845, 848
3, 169, 736, 124, 865
4, 677, 816, 703, 785
5, 787, 851, 704, 863
6, 169, 168, 124, 736
7, 677, 785, 786, 853
8, 819, 816, 677, 785
9, 163, 481, 482, 858
10, 700, 704, 851, 863
11, 762, 846, 810, 861
12, 727, 124, 736, 865
13, 134, 160, 717, 133
14, 727, 865, 736, 866
15, 823, 814, 721, 848
16, 717, 852, 698, 853
17, 718, 163, 130, 842
18, 481, 163, 130, 858
19, 727, 124, 125, 736
20, 133, 132, 487, 161
21, 697, 852, 778, 853
22, 721, 814, 676, 848
23, 786, 702, 677, 853
24, 772, 769, 709, 858
25, 736, 868, 727, 869
26, 470, 168, 169, 469
27, 824, 859, 745, 861
28, 718, 772, 163, 842
29, 168, 125, 124, 736
30, 810, 762, 755, 846
31, 702, 677, 703, 786
32, 168, 470, 471, 469
33, 133, 132, 161, 743
34, 794, 703, 816, 785
35, 717, 133, 160, 743
36, 720, 703, 750, 794
37, 670, 132, 743, 842
38, 133, 717, 670, 743
39, 132, 133, 670, 743
40, 161, 743, 132, 842
41, 130, 163, 718, 858
42, 720, 702, 703, 786
43, 688, 810, 846, 861
44, 160, 134, 717, 159
45, 773, 720, 679, 750
46, 706, 773, 707, 842
47, 702, 670, 717, 801
48, 720, 773, 796, 750
49, 161, 487, 133, 160
50, 771, 788, 708, 867
51, 718, 772, 709, 858
52, 124, 470, 168, 169
53, 772, 707, 709, 769
54, 159, 158, 135, 852
55, 727, 692, 865, 866
56, 133, 161, 160, 743
57, 818, 708, 788, 867
58, 481, 130, 129, 858
59, 163, 772, 718, 858
60, 703, 720, 786, 794
61, 818, 768, 828, 867
62, 664, 700, 704, 851
63, 773, 708, 771, 788
64, 686, 846, 757, 861
65, 826, 810, 755, 846
66, 720, 703, 679, 750
67, 782, 851, 787, 863
68, 163, 482, 164, 858
69, 824, 689, 859, 861
70, 134, 159, 135, 852
71, 818, 788, 768, 867
72, 707, 772, 771, 769
73, 717, 160, 159, 801
74, 705, 670, 720, 796
75, 679, 820, 818, 788
76, 768, 788, 771, 867
77, 133, 134, 160, 491
78, 721, 713, 845, 848
79, 717, 160, 801, 743
80, 775, 848, 845, 862
81, 750, 796, 720, 794
82, 125, 124, 470, 168
83, 471, 125, 470, 168
84, 801, 159, 717, 784
85, 786, 785, 781, 853
86, 845, 848, 713, 862
87, 675, 688, 810, 846
88, 706, 720, 679, 773
89, 757, 846, 762, 861
90, 774, 857, 769, 858
91, 859, 866, 690, 869
92, 765, 866, 859, 869
93, 671, 718, 130, 842
94, 707, 771, 708, 867
95, 709, 769, 707, 867
96, 708, 706, 679, 773
97, 826, 675, 810, 846
98, 718, 707, 709, 772
99, 696, 852, 697, 853
100, 699, 825, 780, 741
101, 670, 743, 786, 796
102, 704, 664, 741, 821
103, 741, 787, 704, 821
104, 727, 692, 124, 865
105, 771, 707, 769, 867
106, 773, 796, 776, 842
107, 789, 845, 775, 848
108, 493, 135, 159, 158
109, 741, 664, 812, 821
110, 736, 727, 866, 869
111, 744, 163, 772, 842
112, 796, 786, 720, 794
113, 820, 679, 750, 788
114, 820, 679, 703, 750
115, 824, 689, 813, 859
116, 686, 688, 846, 861
117, 818, 708, 679, 788
118, 721, 676, 713, 848
119, 760, 841, 838, 855
120, 493, 135, 134, 159
121, 702, 698, 677, 853
122, 159, 160, 134, 491
123, 465, 171, 466, 865
124, 772, 744, 707, 771
125, 727, 690, 866, 869
126, 745, 859, 763, 861
127, 678, 818, 828, 867
128, 765, 736, 866, 869
129, 763, 861, 859, 866
130, 774, 769, 772, 858
131, 158, 159, 493, 494
132, 682, 725, 735, 840
133, 760, 838, 844, 855
134, 741, 787, 782, 851
135, 699, 696, 697, 853
136, 134, 135, 668, 852
137, 859, 861, 689, 866
138, 707, 708, 678, 867
139, 757, 860, 686, 861
140, 779, 778, 852, 853
141, 755, 762, 757, 846
142, 717, 668, 698, 852
143, 738, 789, 775, 848
144, 697, 851, 778, 852
145, 686, 757, 846, 860
146, 838, 841, 694, 855
147, 670, 705, 132, 842
148, 765, 763, 859, 866
149, 445, 461, 462, 843
150, 818, 678, 708, 867
151, 839, 840, 735, 846
152, 807, 840, 839, 846
153, 801, 670, 717, 743
154, 838, 694, 844, 855
155, 122, 171, 465, 865
156, 481, 163, 482, 483
157, 445, 120, 173, 843
158, 487, 489, 133, 160
159, 682, 735, 839, 840
160, 481, 130, 163, 483
161, 764, 763, 745, 859
162, 487, 490, 489, 160
163, 706, 707, 671, 842
164, 445, 173, 461, 843
165, 690, 859, 689, 866
166, 819, 785, 677, 853
167, 709, 857, 669, 858
168, 445, 462, 120, 843
169, 736, 865, 791, 866
170, 813, 689, 674, 859
171, 466, 171, 465, 463
172, 760, 806, 838, 841
173, 779, 780, 778, 853
174, 486, 485, 487, 842
175, 801, 781, 784, 853
176, 704, 854, 787, 863
177, 765, 736, 763, 866
178, 840, 843, 685, 846
179, 756, 843, 840, 846
180, 491, 493, 159, 494
181, 120, 840, 173, 843
182, 756, 840, 807, 846
183, 686, 688, 675, 846
184, 487, 161, 132, 842
185, 487, 132, 486, 842
186, 685, 735, 840, 846
187, 134, 493, 159, 491
188, 163, 483, 130, 842
189, 776, 743, 161, 842
190, 152, 838, 141, 844
191, 469, 169, 470, 467
192, 800, 754, 833, 840
193, 171, 122, 465, 463
194, 780, 741, 778, 851
195, 736, 169, 791, 865
196, 736, 766, 868, 869
197, 122, 860, 171, 865
198, 169, 124, 467, 865
199, 141, 444, 152, 844
200, 734, 694, 838, 841
201, 166, 856, 475, 868
202, 485, 161, 487, 842
203, 122, 843, 171, 860
204, 825, 699, 780, 853
205, 171, 122, 463, 843
206, 718, 709, 669, 858
207, 158, 847, 135, 852
208, 158, 159, 784, 852
209, 769, 857, 845, 867
210, 124, 470, 169, 467
211, 120, 185, 173, 840
212, 685, 846, 843, 860
213, 843, 846, 756, 860
214, 691, 859, 690, 869
215, 28, 141, 152, 838
216, 769, 709, 857, 867
217, 127, 475, 856, 868
218, 800, 833, 839, 840
219, 160, 489, 133, 491
220, 160, 490, 489, 491
221, 497, 847, 498, 850
222, 158, 495, 135, 847
223, 666, 727, 868, 869
224, 677, 815, 819, 853
225, 125, 168, 471, 868
226, 138, 850, 499, 864
227, 845, 857, 709, 867
228, 815, 701, 825, 853
229, 482, 481, 479, 858
230, 704, 821, 787, 854
231, 444, 531, 152, 844
232, 163, 164, 772, 858
233, 474, 475, 473, 868
234, 736, 766, 168, 868
235, 120, 185, 445, 173
236, 727, 691, 690, 869
237, 129, 130, 718, 858
238, 499, 850, 155, 864
239, 740, 785, 819, 853
240, 825, 701, 699, 853
241, 677, 701, 815, 853
242, 529, 444, 141, 844
243, 474, 473, 471, 868
244, 673, 811, 854, 855
245, 740, 815, 825, 853
246, 531, 444, 529, 844
247, 158, 493, 135, 495
248, 819, 815, 740, 853
249, 132, 131, 486, 842
250, 475, 126, 473, 868
251, 531, 153, 152, 844
252, 693, 811, 673, 855
253, 461, 173, 172, 843
254, 162, 161, 485, 842
255, 167, 166, 475, 868
256, 463, 462, 461, 843
257, 121, 120, 462, 843
258, 811, 821, 704, 854
259, 740, 825, 780, 853
260, 467, 465, 466, 865
261, 498, 499, 497, 850
262, 444, 28, 141, 152
263, 529, 141, 140, 844
264, 693, 827, 811, 855
265, 486, 483, 485, 842
266, 666, 727, 125, 868
267, 704, 673, 811, 854
268, 126, 471, 473, 868
269, 497, 137, 847, 850
270, 690, 674, 689, 859
271, 127, 126, 475, 868
272, 760, 806, 797, 838
273, 474, 167, 475, 868
274, 713, 857, 845, 862
275, 798, 807, 756, 840
276, 739, 854, 811, 855
277, 845, 857, 775, 862
278, 471, 167, 474, 868
279, 532, 844, 139, 864
280, 760, 838, 797, 844
281, 498, 847, 156, 850
282, 827, 809, 759, 855
283, 136, 497, 137, 847
284, 751, 759, 809, 855
285, 130, 483, 131, 842
286, 739, 811, 827, 855
287, 798, 840, 756, 843
288, 827, 759, 739, 855
289, 494, 493, 158, 495
290, 485, 483, 162, 842
291, 751, 809, 841, 855
292, 844, 849, 760, 855
293, 126, 125, 471, 868
294, 465, 123, 122, 865
295, 162, 483, 163, 842
296, 157, 156, 498, 847
297, 832, 833, 754, 840
298, 131, 483, 486, 842
299, 170, 466, 171, 865
300, 463, 461, 172, 843
301, 681, 685, 735, 840
302, 860, 861, 761, 866
303, 167, 471, 168, 868
304, 121, 462, 463, 843
305, 827, 693, 809, 855
306, 120, 733, 837, 840
307, 499, 137, 497, 850
308, 681, 685, 840, 843
309, 532, 140, 139, 844
310, 482, 479, 164, 858
311, 532, 154, 844, 864
312, 121, 463, 122, 843
313, 734, 694, 724, 838
314, 495, 498, 497, 847
315, 680, 841, 809, 855
316, 498, 156, 499, 850
317, 694, 849, 844, 855
318, 141, 360, 730, 838
319, 724, 838, 694, 844
320, 361, 152, 803, 838
321, 463, 172, 171, 843
322, 478, 479, 856, 858
323, 693, 680, 809, 855
324, 477, 856, 479, 858
325, 465, 467, 123, 865
326, 687, 861, 860, 866
327, 478, 479, 477, 856
328, 467, 466, 170, 865
329, 683, 838, 358, 841
330, 133, 132, 489, 487
331, 129, 479, 481, 858
332, 761, 860, 757, 861
333, 358, 753, 799, 841
334, 138, 137, 499, 850
335, 532, 529, 140, 844
336, 495, 497, 136, 847
337, 120, 837, 185, 840
338, 499, 155, 502, 864
339, 135, 495, 136, 847
340, 156, 155, 499, 850
341, 357, 726, 683, 841
342, 169, 467, 170, 865
343, 478, 165, 479, 858
344, 157, 495, 158, 847
345, 361, 28, 152, 838
346, 686, 860, 687, 861
347, 358, 838, 753, 841
348, 478, 856, 165, 858
349, 123, 467, 124, 865
350, 719, 854, 704, 863
351, 856, 862, 722, 868
352, 499, 501, 138, 864
353, 28, 360, 141, 838
354, 793, 862, 856, 868
355, 362, 359, 829, 841
356, 490, 487, 161, 160
357, 157, 498, 495, 847
358, 732, 362, 829, 841
359, 737, 843, 756, 860
360, 756, 846, 757, 860
361, 233, 755, 810, 762
362, 477, 128, 856, 858
363, 477, 479, 128, 858
364, 818, 225, 828, 768
365, 686, 846, 685, 860
366, 746, 760, 844, 849
367, 819, 222, 816, 785
368, 788, 820, 818, 224
369, 753, 838, 806, 841
370, 818, 225, 768, 788
371, 231, 813, 764, 745
372, 529, 140, 139, 532
373, 204, 815, 701, 825
374, 677, 815, 203, 819
375, 811, 208, 693, 673
376, 816, 677, 202, 819
377, 683, 734, 838, 841
378, 816, 202, 677, 703
379, 749, 857, 856, 862
380, 357, 683, 358, 841
381, 826, 675, 191, 810
382, 672, 863, 850, 864
383, 684, 685, 843, 860
384, 811, 693, 208, 827
385, 758, 860, 761, 866
386, 823, 789, 228, 814
387, 813, 231, 824, 745
388, 122, 667, 860, 865
389, 793, 856, 166, 868
390, 809, 215, 827, 759
391, 81, 103, 450, 269
392, 673, 811, 207, 704
393, 711, 845, 713, 857
394, 675, 688, 191, 810
395, 359, 799, 805, 841
396, 770, 845, 769, 857
397, 850, 863, 747, 864
398, 701, 699, 204, 825
399, 532, 154, 153, 844
400, 704, 811, 207, 821
401, 810, 826, 755, 233
402, 215, 809, 751, 759
403, 746, 849, 844, 864
404, 815, 701, 677, 203
405, 684, 843, 122, 860
406, 794, 816, 820, 223
407, 228, 789, 738, 814
408, 778, 851, 847, 852
409, 127, 856, 722, 868
410, 222, 794, 816, 785
411, 501, 499, 502, 864
412, 712, 856, 857, 862
413, 272, 78, 100, 457
414, 697, 847, 851, 852
415, 687, 860, 865, 866
416, 221, 819, 740, 785
417, 821, 739, 811, 217
418, 788, 750, 820, 224
419, 844, 849, 665, 864
420, 758, 865, 860, 866
421, 135, 847, 695, 852
422, 689, 674, 193, 813
423, 78, 100, 366, 275
424, 158, 748, 847, 852
425, 193, 824, 689, 813
426, 775, 845, 770, 857
427, 78, 366, 596, 275
428, 707, 678, 709, 867
429, 849, 863, 714, 864
430, 269, 103, 450, 420
431, 40, 62, 243, 591
432, 139, 844, 665, 864
433, 799, 753, 806, 841
434, 458, 52, 74, 261
435, 794, 820, 750, 223
436, 127, 126, 473, 475
437, 171, 860, 758, 865
438, 154, 746, 844, 864
439, 100, 385, 272, 457
440, 667, 687, 860, 865
441, 795, 863, 849, 864
442, 819, 815, 221, 740
443, 683, 726, 734, 841
444, 793, 749, 856, 862
445, 812, 741, 821, 218
446, 185, 837, 834, 840
447, 216, 739, 827, 759
448, 664, 812, 205, 825
449, 694, 665, 844, 849
450, 712, 722, 856, 862
451, 243, 62, 337, 591
452, 693, 809, 209, 827
453, 61, 39, 243, 591
454, 697, 695, 847, 852
455, 261, 74, 458, 300
456, 672, 714, 863, 864
457, 216, 739, 811, 827
458, 260, 49, 71, 285
459, 825, 220, 815, 740
460, 678, 818, 199, 828
461, 709, 845, 711, 857
462, 593, 82, 104, 263
463, 270, 438, 84, 106
464, 737, 171, 843, 860
465, 359, 805, 829, 841
466, 167, 474, 475, 166
467, 593, 83, 263, 105
468, 825, 812, 219, 741
469, 205, 699, 664, 825
470, 778, 847, 748, 852
471, 787, 739, 821, 217
472, 126, 125, 473, 471
473, 39, 61, 242, 440
474, 138, 672, 850, 864
475, 362, 357, 359, 841
476, 270, 83, 438, 105
477, 167, 471, 474, 168
478, 110, 266, 88, 421
479, 243, 337, 61, 591
480, 360, 28, 361, 838
481, 450, 104, 82, 269
482, 740, 825, 220, 780
483, 795, 747, 863, 864
484, 799, 357, 358, 841
485, 780, 825, 219, 741
486, 89, 589, 277, 111
487, 272, 99, 77, 457
488, 616, 67, 45, 248
489, 809, 680, 693, 209
490, 700, 719, 704, 863
491, 732, 829, 809, 841
492, 267, 90, 449, 112
493, 783, 787, 854, 863
494, 769, 768, 771, 867
495, 249, 67, 45, 443
496, 87, 266, 109, 421
497, 606, 43, 65, 246
498, 287, 34, 56, 250
499, 821, 741, 787, 218
500, 271, 85, 107, 595
501, 362, 732, 357, 841
502, 708, 678, 818, 199
503, 245, 64, 439, 292
504, 252, 62, 40, 446
505, 775, 857, 749, 862
506, 719, 849, 854, 863
507, 105, 263, 593, 367
508, 637, 48, 70, 260
509, 120, 681, 840, 843
510, 719, 714, 849, 863
511, 263, 104, 593, 367
512, 679, 820, 200, 818
513, 438, 270, 417, 106
514, 271, 106, 84, 595
515, 712, 857, 713, 862
516, 597, 88, 266, 421
517, 257, 52, 74, 314
518, 155, 850, 747, 864
519, 114, 617, 284, 363
520, 290, 63, 41, 252
521, 475, 166, 478, 856
522, 269, 450, 104, 420
523, 73, 51, 257, 314
524, 680, 732, 809, 841
525, 264, 107, 85, 451
526, 606, 66, 44, 246
527, 271, 107, 369, 595
528, 272, 385, 99, 457
529, 439, 42, 64, 245
530, 229, 822, 814, 848
531, 267, 449, 91, 113
532, 229, 790, 822, 848
533, 252, 290, 62, 446
534, 438, 270, 105, 417
535, 475, 478, 477, 856
536, 114, 617, 92, 284
537, 251, 38, 60, 620
538, 616, 44, 66, 248
539, 636, 93, 284, 115
540, 636, 281, 94, 116
541, 46, 68, 249, 443
542, 195, 814, 822, 848
543, 264, 86, 108, 451
544, 274, 77, 99, 611
545, 80, 102, 370, 262
546, 46, 68, 302, 247
547, 822, 813, 194, 859
548, 60, 38, 242, 440
549, 369, 106, 271, 595
550, 587, 103, 81, 262
551, 357, 799, 359, 841
552, 597, 266, 87, 421
553, 328, 41, 63, 244
554, 56, 34, 305, 255
555, 728, 822, 194, 859
556, 596, 366, 79, 275
557, 674, 194, 813, 859
558, 822, 790, 230, 859
559, 249, 348, 67, 443
560, 242, 61, 338, 440
561, 131, 130, 598, 483
562, 822, 230, 813, 859
563, 708, 679, 200, 818
564, 724, 141, 838, 844
565, 36, 58, 604, 241
566, 173, 840, 798, 843
567, 252, 41, 290, 446
568, 366, 101, 79, 275
569, 610, 55, 33, 239
570, 195, 822, 728, 848
571, 195, 676, 814, 848
572, 477, 127, 475, 856
573, 408, 79, 101, 268
574, 49, 260, 435, 285
575, 636, 447, 281, 116
576, 64, 42, 328, 244
577, 120, 185, 181, 445
578, 180, 445, 185, 173
579, 94, 447, 281, 636
580, 436, 284, 617, 363
581, 797, 838, 152, 844
582, 817, 227, 823, 845
583, 436, 636, 284, 115
584, 808, 826, 234, 846
585, 249, 68, 348, 443
586, 808, 234, 752, 846
587, 738, 229, 814, 848
588, 728, 194, 674, 859
589, 633, 96, 282, 118
590, 404, 277, 589, 111
591, 284, 617, 92, 436
592, 234, 826, 755, 846
593, 808, 190, 826, 846
594, 764, 813, 230, 859
595, 59, 37, 251, 620
596, 256, 71, 49, 625
597, 197, 817, 823, 845
598, 636, 284, 93, 436
599, 589, 90, 277, 112
600, 587, 80, 370, 262
601, 57, 313, 442, 240
602, 128, 479, 129, 858
603, 823, 721, 197, 845
604, 247, 47, 69, 605
605, 808, 723, 190, 846
606, 408, 102, 80, 268
607, 164, 479, 165, 858
608, 710, 817, 197, 845
609, 260, 70, 637, 435
610, 59, 37, 604, 241
611, 442, 35, 57, 240
612, 88, 437, 276, 368
613, 256, 50, 72, 625
614, 439, 65, 43, 245
615, 110, 88, 276, 368
616, 257, 601, 52, 314
617, 738, 790, 229, 848
618, 234, 755, 752, 846
619, 65, 606, 246, 340
620, 281, 633, 95, 117
621, 789, 823, 227, 845
622, 805, 751, 829, 841
623, 366, 100, 78, 457
624, 195, 728, 676, 848
625, 764, 230, 790, 859
626, 746, 760, 797, 844
627, 474, 570, 475, 166
628, 817, 742, 227, 845
629, 682, 731, 835, 839
630, 258, 72, 50, 448
631, 486, 131, 598, 483
632, 758, 757, 761, 860
633, 732, 726, 357, 841
634, 834, 754, 802, 840
635, 127, 473, 476, 475
636, 78, 366, 457, 596
637, 91, 617, 278, 113
638, 360, 683, 730, 838
639, 625, 256, 71, 327
640, 232, 824, 745, 861
641, 456, 33, 55, 255
642, 232, 810, 824, 861
643, 444, 21, 28, 152
644, 99, 381, 274, 611
645, 232, 762, 810, 861
646, 587, 370, 103, 262
647, 162, 163, 483, 484
648, 247, 302, 46, 605
649, 800, 754, 212, 833
650, 260, 637, 48, 435
651, 73, 258, 448, 294
652, 250, 287, 34, 588
653, 411, 107, 264, 451
654, 824, 810, 192, 861
655, 783, 854, 849, 863
656, 365, 267, 449, 112
657, 138, 137, 500, 499
658, 197, 721, 710, 845
659, 276, 437, 89, 111
660, 60, 288, 251, 620
661, 246, 606, 66, 340
662, 681, 684, 685, 843
663, 242, 338, 60, 440
664, 822, 848, 790, 859
665, 264, 108, 411, 451
666, 783, 849, 795, 863
667, 109, 265, 629, 371
668, 675, 826, 190, 846
669, 447, 281, 116, 394
670, 610, 301, 55, 239
671, 100, 366, 385, 457
672, 363, 436, 284, 115
673, 483, 485, 162, 484
674, 856, 857, 774, 858
675, 248, 616, 67, 291
676, 447, 633, 95, 281
677, 156, 627, 499, 155
678, 472, 473, 125, 471
679, 728, 848, 822, 859
680, 491, 159, 490, 599
681, 448, 258, 72, 294
682, 744, 773, 776, 842
683, 69, 302, 247, 605
684, 435, 260, 70, 285
685, 799, 358, 149, 753
686, 725, 832, 682, 187
687, 232, 745, 762, 861
688, 287, 57, 35, 250
689, 591, 61, 39, 440
690, 629, 86, 108, 265
691, 146, 683, 357, 726
692, 783, 782, 787, 863
693, 261, 458, 643, 353
694, 20, 28, 141, 444
695, 633, 282, 364, 118
696, 55, 305, 456, 255
697, 265, 629, 87, 109
698, 737, 798, 756, 843
699, 669, 857, 856, 858
700, 134, 133, 489, 491
701, 789, 227, 742, 845
702, 41, 328, 590, 244
703, 83, 593, 438, 105
704, 644, 283, 426, 429
705, 609, 474, 471, 168
706, 751, 841, 760, 855
707, 742, 769, 845, 867
708, 69, 47, 253, 637
709, 688, 192, 810, 861
710, 113, 267, 449, 365
711, 456, 305, 34, 255
712, 51, 601, 257, 314
713, 688, 686, 687, 861
714, 58, 349, 604, 241
715, 251, 288, 59, 620
716, 450, 82, 104, 593
717, 673, 854, 715, 855
718, 131, 671, 130, 842
719, 590, 328, 42, 244
720, 459, 283, 96, 118
721, 106, 438, 84, 595
722, 165, 164, 577, 479
723, 593, 104, 450, 420
724, 123, 600, 504, 568
725, 460, 445, 180, 173
726, 72, 256, 625, 327
727, 723, 839, 735, 846
728, 747, 850, 851, 863
729, 404, 589, 277, 112
730, 165, 856, 774, 858
731, 541, 120, 181, 445
732, 180, 185, 14, 173
733, 185, 11, 120, 181
734, 675, 190, 723, 846
735, 696, 698, 852, 853
736, 245, 439, 65, 292
737, 139, 501, 532, 864
738, 81, 103, 587, 450
739, 122, 121, 464, 463
740, 591, 40, 62, 446
741, 829, 751, 809, 841
742, 593, 438, 105, 367
743, 710, 845, 709, 867
744, 123, 600, 124, 467
745, 301, 354, 239, 639
746, 137, 716, 847, 850
747, 749, 774, 856, 857
748, 248, 66, 616, 291
749, 417, 438, 106, 595
750, 136, 135, 496, 495
751, 824, 192, 689, 861
752, 595, 107, 369, 451
753, 21, 5, 28, 152
754, 416, 573, 505, 484
755, 795, 849, 746, 864
756, 740, 781, 785, 853
757, 665, 849, 714, 864
758, 58, 36, 442, 240
759, 458, 261, 300, 353
760, 765, 859, 848, 869
761, 591, 62, 337, 446
762, 723, 808, 839, 846
763, 680, 694, 841, 855
764, 719, 849, 715, 854
765, 79, 408, 441, 268
766, 672, 851, 850, 863
767, 675, 685, 686, 846
768, 278, 617, 92, 114
769, 490, 160, 159, 491
770, 766, 862, 868, 869
771, 673, 715, 693, 855
772, 62, 290, 337, 446
773, 616, 45, 67, 443
774, 664, 697, 700, 851
775, 665, 724, 694, 844
776, 737, 756, 757, 860
777, 488, 489, 132, 487
778, 682, 835, 833, 839
779, 485, 581, 162, 510
780, 138, 714, 672, 864
781, 169, 170, 467, 468
782, 807, 839, 752, 846
783, 103, 587, 450, 420
784, 775, 789, 770, 845
785, 591, 338, 61, 440
786, 171, 463, 565, 172
787, 721, 713, 711, 845
788, 360, 358, 683, 838
789, 767, 848, 775, 862
790, 832, 754, 834, 840
791, 830, 731, 189, 839
792, 611, 77, 99, 457
793, 595, 85, 107, 451
794, 606, 44, 66, 616
795, 593, 104, 420, 367
796, 790, 848, 765, 859
797, 617, 278, 113, 402
798, 367, 438, 105, 417
799, 278, 617, 114, 402
800, 778, 741, 782, 851
801, 106, 369, 417, 595
802, 129, 128, 480, 479
803, 120, 121, 681, 843
804, 604, 349, 59, 241
805, 122, 123, 667, 865
806, 137, 716, 136, 847
807, 770, 769, 774, 857
808, 108, 629, 265, 371
809, 253, 48, 70, 637
810, 258, 51, 73, 448
811, 627, 502, 499, 155
812, 250, 35, 287, 588
813, 712, 856, 669, 857
814, 777, 156, 847, 850
815, 669, 856, 128, 858
816, 689, 861, 687, 866
817, 38, 60, 620, 440
818, 441, 408, 80, 268
819, 581, 490, 487, 161
820, 61, 337, 338, 591
821, 779, 852, 784, 853
822, 158, 784, 748, 852
823, 593, 438, 367, 615
824, 615, 423, 585, 584
825, 369, 618, 595, 451
826, 122, 684, 121, 843
827, 111, 276, 437, 368
828, 488, 131, 513, 486
829, 444, 553, 21, 152
830, 714, 715, 719, 849
831, 503, 130, 598, 579
832, 165, 749, 774, 856
833, 589, 449, 90, 112
834, 668, 696, 698, 852
835, 692, 727, 690, 866
836, 667, 684, 122, 860
837, 99, 385, 611, 457
838, 160, 490, 159, 599
839, 507, 529, 139, 532
840, 478, 165, 577, 479
841, 167, 793, 166, 868
842, 567, 334, 476, 572
843, 417, 367, 438, 615
844, 747, 851, 782, 863
845, 462, 464, 121, 463
846, 171, 758, 170, 865
847, 305, 34, 56, 287
848, 625, 71, 49, 285
849, 752, 839, 808, 846
850, 157, 777, 156, 847
851, 122, 464, 518, 504
852, 701, 677, 698, 853
853, 758, 791, 865, 866
854, 280, 93, 636, 115
855, 274, 381, 432, 640
856, 757, 762, 761, 861
857, 94, 280, 636, 116
858, 20, 28, 6, 141
859, 136, 695, 135, 847
860, 777, 747, 850, 851
861, 337, 592, 335, 591
862, 509, 548, 399, 372
863, 486, 488, 132, 487
864, 348, 616, 67, 443
865, 565, 463, 461, 172
866, 724, 140, 141, 844
867, 126, 127, 722, 868
868, 767, 738, 775, 848
869, 135, 695, 668, 852
870, 163, 416, 505, 484
871, 253, 322, 69, 637
872, 600, 470, 124, 467
873, 713, 848, 729, 862
874, 848, 859, 691, 869
875, 763, 761, 861, 866
876, 60, 288, 620, 440
877, 606, 65, 43, 439
878, 767, 765, 848, 869
879, 314, 448, 614, 294
880, 716, 850, 672, 851
881, 139, 665, 714, 864
882, 70, 322, 253, 637
883, 666, 868, 862, 869
884, 478, 166, 165, 856
885, 162, 776, 161, 842
886, 131, 132, 705, 842
887, 766, 862, 793, 868
888, 802, 798, 173, 840
889, 391, 565, 508, 544
890, 719, 673, 704, 854
891, 189, 731, 723, 839
892, 779, 784, 781, 853
893, 684, 686, 685, 860
894, 64, 328, 439, 292
895, 418, 280, 636, 115
896, 127, 712, 722, 856
897, 672, 700, 851, 863
898, 769, 770, 742, 845
899, 154, 795, 746, 864
900, 328, 63, 41, 290
901, 157, 158, 748, 847
902, 761, 745, 763, 861
903, 107, 411, 369, 451
904, 120, 681, 733, 840
905, 579, 626, 333, 524
906, 467, 469, 169, 468
907, 419, 505, 576, 577
908, 439, 606, 65, 292
909, 426, 283, 459, 118
910, 737, 758, 171, 860
911, 561, 516, 137, 500
912, 423, 379, 585, 584
913, 37, 59, 604, 620
914, 766, 767, 862, 869
915, 153, 797, 152, 844
916, 690, 689, 687, 866
917, 804, 831, 808, 839
918, 754, 832, 212, 833
919, 513, 132, 131, 488
920, 712, 711, 713, 857
921, 504, 310, 123, 568
922, 793, 749, 166, 856
923, 765, 790, 767, 848
924, 385, 611, 457, 612
925, 488, 132, 131, 486
926, 418, 636, 280, 116
927, 137, 320, 516, 561
928, 834, 14, 185, 802
929, 792, 760, 849, 855
930, 565, 508, 171, 391
931, 600, 123, 310, 568
932, 285, 625, 71, 327
933, 716, 697, 847, 851
934, 73, 448, 314, 294
935, 489, 492, 134, 491
936, 669, 712, 128, 856
937, 665, 139, 140, 844
938, 548, 399, 372, 549
939, 579, 130, 598, 336
940, 676, 729, 713, 848
941, 68, 46, 302, 443
942, 316, 314, 614, 294
943, 173, 798, 172, 843
944, 239, 354, 54, 639
945, 629, 109, 371, 421
946, 283, 644, 119, 429
947, 589, 89, 437, 111
948, 408, 366, 79, 596
949, 187, 832, 682, 833
950, 567, 334, 127, 476
951, 42, 64, 328, 439
952, 587, 103, 370, 420
953, 617, 91, 449, 113
954, 692, 687, 865, 866
955, 683, 146, 357, 358
956, 420, 593, 594, 450
957, 88, 110, 421, 368
958, 611, 381, 433, 612
959, 287, 305, 34, 588
960, 618, 369, 411, 451
961, 128, 477, 480, 479
962, 689, 192, 688, 861
963, 414, 581, 161, 582
964, 508, 396, 171, 391
965, 728, 691, 848, 859
966, 697, 695, 716, 847
967, 633, 282, 95, 117
968, 592, 613, 335, 591
969, 366, 79, 101, 408
970, 730, 724, 141, 838
971, 109, 629, 87, 421
972, 711, 709, 710, 845
973, 505, 573, 416, 378
974, 162, 163, 744, 842
975, 729, 848, 691, 869
976, 502, 154, 532, 864
977, 420, 370, 587, 634
978, 751, 760, 759, 855
979, 161, 162, 581, 510
980, 792, 854, 739, 855
981, 803, 152, 797, 838
982, 729, 666, 862, 869
983, 385, 381, 611, 612
984, 548, 509, 399, 549
985, 159, 602, 585, 599
986, 518, 295, 122, 504
987, 509, 550, 609, 399
988, 316, 554, 614, 515
989, 642, 376, 540, 398
990, 505, 419, 164, 577
991, 523, 567, 613, 335
992, 160, 161, 581, 582
993, 442, 313, 58, 240
994, 731, 835, 186, 682
995, 378, 416, 505, 163
996, 722, 862, 666, 868
997, 317, 555, 554, 516
998, 587, 450, 420, 634
999, 570, 474, 167, 166
1000, 758, 761, 791, 866
1001, 730, 147, 683, 360
1002, 581, 485, 162, 161
1003, 594, 367, 423, 615
1004, 603, 158, 157, 495
1005, 817, 845, 710, 867
1006, 593, 367, 594, 615
1007, 604, 59, 349, 620
1008, 696, 699, 701, 853
1009, 370, 420, 409, 634
1010, 297, 567, 523, 335
1011, 154, 746, 153, 844
1012, 597, 88, 421, 368
1013, 777, 782, 747, 851
1014, 778, 777, 847, 851
1015, 66, 606, 616, 291
1016, 566, 297, 126, 476
1017, 88, 597, 437, 368
1018, 366, 638, 628, 596
1019, 366, 387, 385, 628
1020, 642, 157, 376, 398
1021, 340, 65, 606, 292
1022, 667, 687, 686, 860
1023, 570, 571, 478, 166
1024, 327, 625, 72, 294
1025, 173, 460, 461, 542
1026, 431, 460, 382, 454
1027, 172, 737, 171, 843
1028, 667, 692, 687, 865
1029, 629, 108, 86, 451
1030, 80, 102, 408, 370
1031, 337, 290, 592, 446
1032, 633, 282, 117, 364
1033, 99, 385, 381, 611
1034, 791, 763, 736, 866
1035, 759, 792, 739, 855
1036, 756, 755, 757, 846
1037, 320, 293, 137, 516
1038, 700, 716, 672, 851
1039, 588, 307, 305, 631
1040, 334, 127, 476, 572
1041, 793, 775, 749, 862
1042, 697, 696, 695, 852
1043, 401, 400, 373, 550
1044, 155, 747, 795, 864
1045, 518, 295, 464, 122
1046, 293, 317, 554, 516
1047, 399, 372, 549, 397
1048, 127, 477, 128, 856
1049, 274, 432, 98, 640
1050, 130, 481, 598, 483
1051, 766, 767, 793, 862
1052, 473, 126, 127, 476
1053, 542, 391, 382, 543
1054, 715, 849, 694, 855
1055, 593, 420, 594, 367
1056, 571, 165, 478, 166
1057, 365, 449, 589, 112
1058, 591, 613, 338, 440
1059, 213, 802, 834, 754
1060, 401, 373, 552, 550
1061, 603, 376, 540, 642
1062, 302, 348, 68, 443
1063, 366, 408, 388, 638
1064, 736, 765, 766, 869
1065, 358, 803, 753, 838
1066, 293, 319, 555, 516
1067, 804, 808, 752, 839
1068, 290, 328, 635, 590
1069, 603, 157, 376, 642
1070, 404, 589, 437, 111
1071, 508, 396, 391, 544
1072, 155, 154, 502, 864
1073, 170, 791, 169, 865
1074, 542, 544, 391, 543
1075, 365, 589, 449, 621
1076, 799, 358, 357, 149
1077, 535, 536, 374, 387
1078, 446, 290, 635, 590
1079, 477, 127, 476, 475
1080, 612, 457, 385, 628
1081, 746, 792, 760, 849
1082, 748, 778, 777, 847
1083, 691, 729, 728, 848
1084, 478, 475, 570, 166
1085, 709, 711, 669, 857
1086, 833, 836, 804, 839
1087, 477, 476, 127, 572
1088, 433, 611, 612, 562
1089, 579, 503, 130, 336
1090, 597, 87, 629, 421
1091, 317, 614, 656, 294
1092, 612, 385, 386, 628
1093, 381, 274, 611, 640
1094, 55, 305, 301, 610
1095, 803, 358, 361, 838
1096, 749, 775, 770, 857
1097, 288, 60, 338, 440
1098, 554, 316, 318, 515
1099, 742, 845, 817, 867
1100, 291, 616, 67, 348
1101, 235, 804, 831, 808
1102, 58, 36, 604, 442
1103, 170, 372, 508, 468
1104, 189, 808, 830, 839
1105, 501, 138, 500, 499
1106, 680, 693, 694, 855
1107, 387, 366, 638, 628
1108, 414, 161, 581, 583
1109, 779, 778, 748, 852
1110, 423, 585, 422, 651
1111, 666, 722, 729, 862
1112, 125, 296, 512, 472
1113, 137, 138, 672, 850
1114, 751, 806, 760, 841
1115, 309, 122, 295, 504
1116, 591, 337, 592, 446
1117, 625, 448, 72, 294
1118, 485, 581, 487, 161
1119, 671, 705, 706, 842
1120, 421, 368, 407, 632
1121, 524, 333, 579, 336
1122, 126, 350, 566, 472
1123, 127, 297, 567, 476
1124, 354, 144, 662, 639
1125, 47, 69, 605, 637
1126, 407, 424, 421, 574
1127, 327, 656, 625, 294
1128, 473, 125, 126, 472
1129, 389, 534, 535, 537
1130, 422, 602, 585, 159
1131, 125, 512, 350, 472
1132, 313, 287, 57, 442
1133, 549, 372, 548, 397
1134, 49, 435, 625, 285
1135, 239, 610, 301, 639
1136, 293, 137, 516, 500
1137, 19, 31, 304, 351
1138, 445, 460, 461, 173
1139, 502, 532, 501, 864
1140, 694, 734, 680, 841
1141, 629, 411, 108, 451
1142, 287, 35, 57, 442
1143, 559, 647, 324, 302
1144, 372, 548, 508, 468
1145, 535, 536, 387, 628
1146, 367, 417, 423, 615
1147, 328, 635, 329, 290
1148, 833, 804, 800, 839
1149, 496, 497, 136, 495
1150, 430, 152, 553, 425
1151, 296, 511, 512, 472
1152, 120, 352, 342, 541
1153, 655, 492, 134, 133
1154, 135, 493, 496, 495
1155, 626, 579, 333, 336
1156, 592, 335, 330, 337
1157, 643, 29, 238, 353
1158, 555, 317, 293, 516
1159, 448, 614, 601, 314
1160, 836, 831, 804, 839
1161, 398, 538, 642, 156
1162, 116, 418, 636, 394
1163, 368, 421, 597, 632
1164, 461, 172, 173, 542
1165, 364, 459, 633, 118
1166, 605, 69, 322, 637
1167, 51, 73, 448, 314
1168, 550, 168, 609, 399
1169, 448, 72, 50, 625
1170, 588, 305, 34, 456
1171, 211, 804, 833, 836
1172, 521, 296, 512, 312
1173, 386, 387, 536, 628
1174, 239, 54, 32, 639
1175, 70, 322, 637, 285
1176, 125, 126, 666, 868
1177, 806, 753, 797, 838
1178, 168, 766, 167, 868
1179, 462, 120, 541, 445
1180, 528, 356, 315, 343
1181, 168, 471, 609, 469
1182, 449, 617, 113, 365
1183, 636, 363, 418, 115
1184, 536, 533, 535, 374
1185, 123, 124, 692, 865
1186, 363, 397, 436, 418
1187, 605, 302, 46, 443
1188, 358, 803, 150, 753
1189, 618, 584, 583, 412
1190, 424, 597, 421, 574
1191, 459, 426, 392, 434
1192, 96, 633, 459, 118
1193, 618, 661, 412, 369
1194, 492, 655, 580, 133
1195, 501, 507, 139, 532
1196, 132, 298, 514, 488
1197, 379, 582, 160, 599
1198, 141, 529, 530, 444
1199, 319, 556, 321, 285
1200, 592, 330, 290, 337
1201, 371, 421, 424, 575
1202, 397, 549, 400, 363
1203, 334, 297, 567, 127
1204, 351, 304, 19, 455
1205, 380, 581, 161, 583
1206, 373, 609, 167, 623
1207, 144, 354, 345, 639
1208, 584, 423, 379, 413
1209, 407, 597, 421, 632
1210, 153, 646, 622, 374
1211, 641, 403, 365, 621
1212, 134, 325, 655, 133
1213, 161, 160, 414, 582
1214, 173, 185, 14, 802
1215, 119, 426, 283, 429
1216, 508, 396, 372, 170
1217, 661, 413, 412, 369
1218, 727, 666, 691, 869
1219, 611, 433, 381, 562
1220, 156, 747, 155, 850
1221, 456, 55, 33, 610
1222, 350, 296, 512, 125
1223, 189, 723, 808, 839
1224, 427, 383, 23, 562
1225, 164, 774, 772, 858
1226, 798, 754, 807, 840
1227, 636, 447, 116, 394
1228, 125, 470, 511, 472
1229, 613, 650, 344, 338
1230, 297, 523, 344, 335
1231, 723, 682, 735, 839
1232, 510, 416, 162, 484
1233, 835, 186, 682, 833
1234, 763, 764, 765, 859
1235, 414, 583, 584, 412
1236, 514, 341, 132, 488
1237, 305, 55, 456, 610
1238, 361, 803, 150, 358
1239, 752, 804, 235, 808
1240, 604, 313, 58, 442
1241, 360, 147, 683, 358
1242, 419, 378, 505, 164
1243, 392, 543, 459, 434
1244, 509, 168, 609, 469
1245, 125, 470, 472, 471
1246, 579, 626, 332, 336
1247, 724, 683, 734, 838
1248, 305, 287, 307, 588
1249, 653, 349, 311, 312
1250, 436, 400, 549, 363
1251, 584, 615, 423, 413
1252, 42, 328, 590, 439
1253, 141, 140, 343, 530
1254, 164, 482, 577, 479
1255, 561, 496, 136, 339
1256, 804, 833, 800, 211
1257, 542, 382, 460, 454
1258, 126, 297, 127, 476
1259, 832, 837, 733, 840
1260, 123, 465, 600, 467
1261, 740, 780, 779, 853
1262, 133, 492, 134, 489
1263, 353, 643, 29, 346
1264, 180, 14, 460, 173
1265, 636, 436, 363, 115
1266, 75, 53, 259, 353
1267, 381, 385, 386, 612
1268, 331, 129, 480, 503
1269, 128, 477, 127, 572
1270, 397, 547, 436, 418
1271, 377, 166, 570, 619
1272, 408, 370, 390, 441
1273, 575, 424, 415, 573
1274, 504, 309, 310, 568
1275, 309, 310, 123, 504
1276, 617, 114, 402, 363
1277, 474, 609, 167, 168
1278, 391, 382, 543, 392
1279, 606, 66, 340, 291
1280, 259, 53, 643, 353
1281, 300, 261, 75, 353
1282, 148, 805, 359, 799
1283, 719, 672, 714, 863
1284, 530, 20, 141, 444
1285, 552, 551, 401, 550
1286, 295, 518, 309, 504
1287, 576, 407, 574, 378
1288, 381, 432, 98, 274
1289, 152, 622, 553, 425
1290, 407, 421, 597, 574
1291, 644, 283, 459, 426
1292, 301, 354, 54, 239
1293, 448, 625, 656, 294
1294, 583, 380, 586, 412
1295, 352, 452, 342, 541
1296, 165, 419, 571, 577
1297, 163, 482, 483, 484
1298, 589, 365, 404, 621
1299, 580, 133, 132, 488
1300, 181, 11, 120, 541
1301, 322, 302, 69, 605
1302, 555, 317, 319, 293
1303, 288, 349, 59, 620
1304, 377, 578, 403, 619
1305, 122, 464, 465, 463
1306, 5, 21, 553, 152
1307, 166, 570, 571, 377
1308, 400, 401, 551, 550
1309, 309, 520, 308, 568
1310, 661, 417, 615, 413
1311, 431, 460, 173, 382
1312, 349, 653, 522, 312
1313, 792, 849, 783, 854
1314, 629, 108, 411, 371
1315, 423, 594, 615, 651
1316, 285, 319, 555, 327
1317, 834, 832, 213, 754
1318, 694, 715, 665, 849
1319, 387, 386, 385, 628
1320, 152, 5, 28, 361
1321, 712, 713, 722, 862
1322, 323, 302, 322, 605
1323, 725, 832, 733, 840
1324, 513, 514, 298, 488
1325, 559, 647, 302, 605
1326, 631, 307, 306, 295
1327, 377, 570, 571, 619
1328, 403, 405, 619, 552
1329, 566, 567, 297, 476
1330, 428, 608, 454, 434
1331, 274, 98, 76, 640
1332, 438, 417, 661, 595
1333, 414, 581, 582, 583
1334, 585, 379, 159, 599
1335, 655, 134, 492, 560
1336, 630, 521, 311, 568
1337, 586, 660, 618, 415
1338, 627, 642, 538, 156
1339, 346, 300, 607, 356
1340, 437, 404, 111, 368
1341, 310, 630, 311, 568
1342, 573, 574, 424, 378
1343, 612, 386, 536, 628
1344, 424, 416, 415, 573
1345, 378, 576, 407, 419
1346, 499, 498, 627, 156
1347, 512, 350, 523, 312
1348, 435, 70, 637, 285
1349, 645, 540, 409, 634
1350, 480, 481, 129, 479
1351, 416, 510, 586, 573
1352, 456, 588, 305, 631
1353, 509, 609, 168, 399
1354, 344, 523, 613, 335
1355, 541, 569, 120, 462
1356, 732, 357, 145, 362
1357, 169, 509, 372, 468
1358, 837, 188, 832, 733
1359, 655, 289, 134, 560
1360, 618, 661, 369, 595
1361, 379, 422, 585, 159
1362, 120, 837, 11, 185
1363, 645, 540, 376, 409
1364, 331, 517, 648, 330
1365, 372, 396, 548, 395
1366, 598, 513, 336, 131
1367, 404, 365, 589, 112
1368, 379, 585, 582, 599
1369, 441, 408, 79, 596
1370, 447, 547, 395, 394
1371, 518, 631, 306, 295
1372, 575, 415, 586, 573
1373, 647, 348, 302, 443
1374, 674, 690, 691, 859
1375, 442, 287, 35, 588
1376, 546, 548, 396, 395
1377, 378, 505, 576, 419
1378, 480, 128, 331, 572
1379, 396, 548, 508, 372
1380, 634, 450, 420, 594
1381, 550, 373, 168, 399
1382, 710, 198, 817, 867
1383, 369, 661, 417, 595
1384, 168, 509, 169, 469
1385, 334, 331, 648, 330
1386, 828, 768, 226, 867
1387, 375, 534, 627, 155
1388, 119, 644, 279, 429
1389, 519, 517, 299, 329
1390, 423, 410, 367, 594
1391, 500, 137, 497, 499
1392, 594, 423, 410, 651
1393, 530, 140, 343, 527
1394, 401, 403, 365, 641
1395, 635, 592, 290, 446
1396, 635, 592, 330, 290
1397, 534, 389, 375, 537
1398, 468, 170, 467, 466
1399, 453, 383, 433, 562
1400, 619, 621, 403, 552
1401, 374, 533, 535, 389
1402, 397, 436, 549, 363
1403, 330, 517, 635, 329
1404, 346, 607, 30, 304
1405, 517, 331, 480, 503
1406, 543, 544, 391, 392
1407, 420, 367, 410, 594
1408, 610, 456, 306, 564
1409, 800, 752, 807, 839
1410, 124, 470, 511, 125
1411, 145, 726, 357, 732
1412, 132, 341, 580, 488
1413, 295, 306, 564, 342
1414, 681, 735, 725, 840
1415, 603, 494, 158, 495
1416, 382, 460, 173, 542
1417, 723, 735, 685, 846
1418, 725, 832, 188, 733
1419, 535, 374, 389, 387
1420, 610, 355, 301, 563
1421, 420, 410, 634, 594
1422, 447, 547, 546, 395
1423, 580, 655, 325, 133
1424, 576, 571, 578, 419
1425, 132, 513, 298, 488
1426, 384, 426, 608, 434
1427, 512, 566, 350, 472
1428, 307, 631, 518, 295
1429, 466, 171, 463, 565
1430, 529, 139, 140, 507
1431, 214, 829, 805, 751
1432, 610, 301, 355, 564
1433, 564, 569, 295, 342
1434, 424, 421, 597, 575
1435, 322, 321, 557, 285
1436, 396, 508, 548, 546
1437, 361, 152, 5, 803
1438, 320, 321, 556, 339
1439, 586, 618, 583, 412
1440, 417, 423, 615, 413
1441, 356, 658, 528, 315
1442, 333, 332, 626, 336
1443, 395, 546, 447, 394
1444, 435, 556, 319, 285
1445, 331, 334, 648, 572
1446, 419, 571, 578, 377
1447, 563, 610, 355, 564
1448, 419, 576, 571, 577
1449, 536, 652, 374, 386
1450, 522, 604, 349, 620
1451, 747, 783, 795, 863
1452, 313, 58, 349, 604
1453, 389, 533, 534, 155
1454, 312, 344, 650, 288
1455, 545, 459, 364, 392
1456, 299, 503, 579, 336
1457, 458, 643, 53, 261
1458, 646, 536, 622, 374
1459, 510, 581, 380, 583
1460, 426, 364, 459, 392
1461, 511, 600, 310, 568
1462, 558, 289, 559, 560
1463, 289, 559, 323, 558
1464, 492, 493, 134, 491
1465, 393, 447, 546, 394
1466, 414, 380, 161, 583
1467, 335, 613, 344, 338
1468, 405, 167, 570, 623
1469, 638, 408, 388, 441
1470, 166, 377, 405, 619
1471, 310, 124, 600, 511
1472, 459, 364, 426, 118
1473, 605, 647, 302, 443
1474, 830, 835, 731, 839
1475, 331, 299, 517, 329
1476, 158, 376, 602, 603
1477, 139, 318, 286, 515
1478, 387, 536, 374, 386
1479, 416, 586, 415, 573
1480, 306, 301, 610, 564
1481, 459, 543, 608, 434
1482, 405, 570, 166, 619
1483, 621, 403, 404, 657
1484, 383, 23, 26, 427
1485, 410, 645, 376, 409
1486, 301, 306, 355, 564
1487, 403, 621, 578, 657
1488, 402, 113, 617, 365
1489, 402, 400, 551, 363
1490, 409, 410, 645, 634
1491, 648, 592, 613, 335
1492, 739, 783, 787, 854
1493, 416, 510, 573, 484
1494, 503, 299, 130, 336
1495, 546, 396, 544, 393
1496, 313, 311, 630, 653
1497, 545, 447, 393, 394
1498, 807, 752, 756, 846
1499, 359, 357, 148, 799
1500, 569, 121, 120, 462
1501, 489, 132, 133, 488
1502, 369, 412, 618, 411
1503, 424, 416, 573, 378
1504, 581, 490, 160, 582
1505, 373, 168, 609, 550
1506, 312, 650, 522, 288
1507, 597, 437, 368, 632
1508, 348, 649, 616, 443
1509, 622, 553, 531, 152
1510, 418, 395, 547, 394
1511, 574, 505, 576, 378
1512, 308, 310, 309, 568
1513, 556, 435, 321, 285
1514, 322, 557, 323, 605
1515, 134, 289, 659, 560
1516, 296, 310, 521, 511
1517, 398, 642, 157, 156
1518, 324, 647, 649, 348
1519, 578, 406, 403, 657
1520, 515, 318, 506, 507
1521, 396, 391, 544, 393
1522, 564, 569, 518, 295
1523, 350, 126, 125, 472
1524, 648, 517, 331, 572
1525, 509, 548, 372, 468
1526, 545, 447, 546, 393
1527, 648, 592, 335, 330
1528, 592, 517, 635, 330
1529, 641, 401, 403, 621
1530, 578, 621, 403, 619
1531, 428, 454, 382, 434
1532, 139, 138, 501, 864
1533, 621, 641, 401, 552
1534, 380, 416, 510, 586
1535, 436, 400, 551, 549
1536, 715, 854, 849, 855
1537, 355, 345, 301, 563
1538, 391, 172, 565, 542
1539, 513, 579, 598, 336
1540, 742, 817, 226, 867
1541, 563, 345, 143, 303
1542, 426, 608, 644, 384
1543, 585, 423, 615, 651
1544, 298, 514, 341, 132
1545, 166, 167, 570, 405
1546, 658, 607, 300, 356
1547, 139, 286, 140, 527
1548, 648, 567, 334, 335
1549, 623, 373, 609, 550
1550, 22, 5, 553, 430
1551, 412, 660, 618, 411
1552, 805, 799, 751, 841
1553, 141, 351, 6, 530
1554, 649, 624, 647, 324
1555, 609, 167, 168, 373
1556, 157, 603, 495, 498
1557, 518, 520, 307, 309
1558, 511, 296, 125, 472
1559, 431, 14, 460, 179
1560, 613, 650, 338, 440
1561, 425, 153, 622, 374
1562, 436, 551, 400, 363
1563, 352, 11, 182, 541
1564, 411, 660, 618, 451
1565, 315, 314, 601, 316
1566, 166, 571, 165, 377
1567, 531, 622, 152, 153
1568, 576, 406, 407, 419
1569, 652, 425, 374, 386
1570, 581, 490, 161, 160
1571, 339, 556, 320, 558
1572, 403, 406, 404, 657
1573, 659, 492, 134, 560
1574, 289, 558, 659, 560
1575, 386, 433, 381, 612
1576, 498, 157, 642, 156
1577, 156, 375, 627, 155
1578, 389, 535, 388, 537
1579, 604, 653, 313, 442
1580, 644, 97, 283, 119
1581, 575, 597, 424, 574
1582, 306, 305, 307, 631
1583, 339, 289, 558, 659
1584, 413, 414, 584, 412
1585, 528, 658, 356, 455
1586, 318, 139, 138, 506
1587, 299, 579, 519, 332
1588, 601, 51, 448, 314
1589, 129, 331, 299, 503
1590, 639, 301, 345, 563
1591, 645, 602, 376, 603
1592, 435, 557, 321, 285
1593, 553, 444, 531, 152
1594, 505, 164, 163, 482
1595, 305, 306, 456, 631
1596, 345, 354, 301, 639
1597, 630, 311, 308, 310
1598, 607, 346, 356, 304
1599, 614, 528, 601, 316
1600, 506, 138, 293, 500
1601, 344, 523, 350, 312
1602, 133, 341, 580, 132
1603, 332, 519, 329, 590
1604, 139, 318, 515, 507
1605, 343, 528, 356, 455
1606, 497, 137, 561, 136
1607, 641, 365, 449, 621
1608, 494, 159, 491, 599
1609, 438, 417, 615, 661
1610, 339, 496, 135, 659
1611, 733, 837, 11, 120
1612, 792, 849, 854, 855
1613, 308, 630, 310, 568
1614, 288, 522, 349, 620
1615, 132, 298, 513, 131
1616, 315, 601, 528, 316
1617, 561, 496, 339, 558
1618, 652, 453, 433, 562
1619, 539, 398, 540, 409
1620, 783, 792, 795, 849
1621, 829, 214, 809, 751
1622, 426, 459, 608, 434
1623, 654, 340, 333, 525
1624, 394, 393, 545, 364
1625, 198, 828, 817, 867
1626, 323, 339, 289, 558
1627, 554, 316, 317, 318
1628, 517, 480, 331, 572
1629, 380, 161, 581, 510
1630, 656, 614, 448, 294
1631, 326, 291, 649, 525
1632, 289, 339, 135, 659
1633, 511, 310, 521, 568
1634, 318, 139, 506, 507
1635, 620, 288, 650, 440
1636, 122, 123, 465, 504
1637, 198, 678, 828, 867
1638, 136, 320, 561, 339
1639, 171, 170, 508, 466
1640, 523, 522, 512, 312
1641, 382, 173, 172, 542
1642, 355, 563, 452, 303
1643, 162, 161, 380, 510
1644, 422, 410, 423, 651
1645, 660, 412, 415, 411
1646, 177, 174, 429, 384
1647, 323, 557, 321, 558
1648, 296, 521, 311, 312
1649, 473, 566, 126, 476
1650, 121, 569, 295, 464
1651, 134, 325, 289, 655
1652, 718, 669, 129, 858
1653, 395, 393, 546, 394
1654, 574, 573, 505, 378
1655, 828, 226, 817, 867
1656, 314, 614, 601, 316
1657, 390, 538, 375, 537
1658, 508, 396, 544, 546
1659, 412, 586, 618, 415
1660, 391, 565, 544, 542
1661, 387, 388, 535, 638
1662, 716, 847, 850, 851
1663, 522, 521, 512, 312
1664, 732, 680, 726, 841
1665, 608, 384, 428, 175
1666, 320, 561, 339, 558
1667, 126, 566, 473, 472
1668, 374, 646, 533, 154
1669, 310, 311, 521, 568
1670, 404, 589, 621, 657
1671, 405, 403, 401, 552
1672, 412, 618, 660, 415
1673, 436, 636, 363, 418
1674, 342, 569, 120, 541
1675, 19, 31, 18, 304
1676, 653, 313, 349, 604
1677, 632, 406, 407, 576
1678, 429, 426, 644, 384
1679, 550, 400, 399, 549
1680, 626, 292, 333, 654
1681, 317, 316, 614, 294
1682, 627, 538, 534, 375
1683, 592, 648, 517, 330
1684, 393, 391, 544, 392
1685, 543, 382, 454, 434
1686, 191, 688, 192, 810
1687, 742, 226, 768, 867
1688, 660, 411, 629, 451
1689, 777, 850, 847, 851
1690, 602, 422, 376, 158
1691, 205, 204, 699, 825
1692, 622, 152, 153, 425
1693, 327, 317, 656, 294
1694, 328, 329, 635, 590
1695, 649, 291, 616, 525
1696, 321, 556, 339, 558
1697, 608, 543, 454, 434
1698, 432, 24, 27, 237
1699, 127, 334, 128, 572
1700, 729, 862, 848, 869
1701, 420, 410, 409, 634
1702, 452, 564, 355, 342
1703, 403, 404, 365, 621
1704, 366, 388, 387, 638
1705, 292, 626, 439, 654
1706, 410, 422, 645, 651
1707, 627, 538, 375, 156
1708, 549, 547, 436, 397
1709, 339, 323, 321, 558
1710, 185, 181, 445, 180
1711, 585, 422, 379, 423
1712, 510, 162, 485, 484
1713, 295, 518, 307, 309
1714, 202, 677, 203, 819
1715, 561, 320, 556, 558
1716, 304, 18, 19, 455
1717, 537, 388, 390, 441
1718, 428, 384, 608, 434
1719, 159, 379, 160, 599
1720, 635, 330, 329, 290
1721, 621, 401, 403, 552
1722, 323, 559, 324, 302
1723, 335, 334, 648, 330
1724, 372, 399, 509, 169
1725, 454, 431, 176, 428
1726, 616, 291, 649, 348
1727, 388, 375, 389, 537
1728, 563, 355, 345, 303
1729, 515, 286, 139, 507
1730, 482, 163, 505, 484
1731, 320, 556, 319, 516
1732, 140, 141, 529, 530
1733, 230, 790, 822, 229
1734, 328, 332, 329, 590
1735, 629, 411, 660, 371
1736, 348, 324, 647, 302
1737, 818, 200, 708, 199
1738, 351, 19, 6, 530
1739, 427, 24, 27, 432
1740, 513, 524, 579, 336
1741, 319, 293, 320, 516
1742, 343, 351, 141, 530
1743, 228, 789, 823, 227
1744, 129, 130, 481, 503
1745, 412, 380, 586, 415
1746, 286, 316, 528, 515
1747, 214, 215, 809, 751
1748, 516, 506, 293, 500
1749, 453, 23, 25, 383
1750, 141, 6, 20, 530
1751, 848, 862, 767, 869
1752, 447, 545, 633, 364
1753, 368, 406, 632, 657
1754, 520, 307, 308, 588
1755, 319, 555, 435, 285
1756, 174, 663, 177, 429
1757, 219, 220, 825, 780
1758, 654, 333, 524, 525
1759, 533, 536, 646, 374
1760, 624, 559, 324, 289
1761, 658, 607, 458, 300
1762, 704, 207, 206, 821
1763, 459, 545, 543, 392
1764, 331, 517, 330, 329
1765, 208, 693, 209, 827
1766, 578, 406, 419, 377
1767, 375, 398, 538, 390
1768, 504, 520, 309, 568
1769, 545, 447, 394, 364
1770, 139, 138, 506, 507
1771, 723, 190, 189, 808
1772, 393, 544, 545, 392
1773, 178, 454, 176, 428
1774, 567, 648, 613, 335
1775, 224, 750, 820, 223
1776, 460, 431, 179, 454
1777, 556, 555, 435, 319
1778, 399, 168, 509, 169
1779, 193, 674, 194, 813
1780, 131, 598, 513, 486
1781, 632, 407, 597, 574
1782, 465, 464, 122, 504
1783, 336, 130, 598, 131
1784, 135, 134, 289, 659
1785, 490, 160, 582, 599
1786, 430, 453, 25, 383
1787, 630, 308, 520, 568
1788, 550, 400, 373, 399
1789, 503, 517, 299, 519
1790, 295, 121, 464, 122
1791, 152, 553, 5, 430
1792, 564, 631, 306, 518
1793, 809, 732, 680, 210
1794, 818, 225, 788, 224
1795, 197, 710, 198, 817
1796, 527, 139, 286, 507
1797, 578, 406, 576, 419
1798, 318, 293, 554, 506
1799, 323, 557, 559, 605
1800, 380, 416, 586, 415
1801, 626, 519, 332, 590
1802, 331, 128, 334, 572
1803, 437, 589, 404, 657
1804, 508, 171, 466, 565
1805, 547, 548, 395, 397
1806, 11, 352, 120, 541
1807, 375, 538, 398, 156
1808, 231, 232, 824, 745
1809, 173, 14, 460, 431
1810, 828, 225, 226, 768
1811, 631, 520, 307, 518
1812, 317, 656, 555, 327
1813, 496, 339, 558, 659
1814, 395, 548, 372, 397
1815, 223, 794, 816, 222
1816, 609, 474, 167, 623
1817, 383, 453, 23, 562
1818, 342, 355, 452, 303
1819, 505, 164, 482, 577
1820, 302, 323, 559, 605
1821, 454, 178, 608, 428
1822, 514, 526, 347, 341
1823, 137, 561, 500, 497
1824, 138, 137, 293, 500
1825, 163, 162, 416, 484
1826, 347, 524, 514, 298
1827, 567, 297, 334, 335
1828, 123, 600, 465, 504
1829, 614, 554, 316, 317
1830, 350, 297, 566, 523
1831, 518, 306, 564, 295
1832, 578, 403, 406, 377
1833, 564, 355, 563, 452
1834, 619, 405, 570, 623
1835, 536, 652, 386, 612
1836, 134, 135, 493, 659
1837, 406, 368, 404, 657
1838, 614, 528, 316, 515
1839, 197, 823, 196, 721
1840, 210, 809, 732, 829
1841, 511, 296, 124, 125
1842, 321, 557, 435, 556
1843, 207, 208, 811, 673
1844, 343, 286, 528, 527
1845, 374, 153, 646, 154
1846, 286, 528, 315, 343
1847, 602, 159, 158, 494
1848, 427, 432, 381, 640
1849, 642, 627, 498, 156
1850, 288, 338, 650, 440
1851, 517, 519, 635, 329
1852, 640, 381, 427, 562
1853, 819, 221, 222, 785
1854, 646, 531, 532, 153
1855, 196, 195, 676, 814
1856, 524, 513, 298, 336
1857, 28, 20, 21, 444
1858, 571, 419, 165, 377
1859, 198, 710, 678, 867
1860, 155, 389, 533, 154
1861, 810, 232, 233, 762
1862, 452, 569, 342, 541
1863, 508, 396, 170, 171
1864, 675, 191, 190, 826
1865, 153, 532, 646, 154
1866, 611, 274, 76, 640
1867, 437, 404, 368, 657
1868, 390, 398, 538, 539
1869, 310, 521, 311, 296
1870, 517, 299, 331, 503
1871, 97, 644, 279, 119
1872, 654, 606, 340, 525
1873, 742, 768, 769, 867
1874, 508, 170, 468, 466
1875, 341, 514, 580, 488
1876, 638, 535, 387, 628
1877, 405, 377, 403, 619
1878, 433, 427, 381, 562
1879, 506, 293, 554, 516
1880, 23, 24, 427, 562
1881, 602, 159, 494, 599
1882, 623, 405, 373, 552
1883, 398, 376, 540, 409
1884, 194, 195, 822, 728
1885, 521, 296, 511, 512
1886, 239, 32, 610, 639
1887, 142, 452, 303, 352
1888, 644, 177, 429, 384
1889, 515, 527, 286, 507
1890, 835, 836, 833, 839
1891, 624, 649, 326, 324
1892, 701, 815, 204, 203
1893, 598, 481, 130, 503
1894, 408, 390, 388, 441
1895, 816, 201, 202, 703
1896, 401, 365, 402, 641
1897, 569, 518, 295, 464
1898, 164, 378, 505, 163
1899, 419, 165, 164, 577
1900, 540, 538, 398, 539
1901, 167, 474, 570, 623
1902, 530, 529, 140, 527
1903, 480, 128, 129, 331
1904, 342, 569, 121, 120
1905, 553, 453, 22, 430
1906, 530, 343, 351, 455
1907, 493, 492, 134, 659
1908, 655, 624, 289, 560
1909, 527, 140, 139, 507
1910, 286, 318, 316, 515
1911, 287, 308, 307, 588
1912, 738, 229, 228, 814
1913, 123, 122, 309, 504
1914, 323, 324, 559, 289
1915, 496, 135, 136, 339
1916, 180, 460, 14, 179
1917, 432, 237, 273, 640
1918, 361, 358, 360, 838
1919, 607, 30, 17, 346
1920, 537, 390, 538, 539
1921, 413, 661, 417, 369
1922, 133, 580, 489, 488
1923, 469, 509, 169, 468
1924, 645, 602, 422, 376
1925, 217, 739, 811, 216
1926, 571, 165, 577, 478
1927, 329, 519, 635, 590
1928, 182, 11, 181, 541
1929, 832, 834, 837, 840
1930, 689, 824, 193, 192
1931, 764, 813, 231, 230
1932, 644, 663, 279, 429
1933, 631, 306, 456, 564
1934, 293, 554, 317, 318
1935, 21, 22, 5, 553
1936, 337, 61, 62, 243
1937, 588, 520, 307, 631
1938, 459, 633, 545, 364
1939, 238, 259, 643, 353
1940, 526, 347, 525, 514
1941, 291, 326, 347, 525
1942, 218, 787, 821, 217
1943, 662, 254, 354, 639
1944, 299, 579, 332, 336
1945, 406, 632, 578, 576
1946, 124, 470, 600, 511
1947, 539, 390, 398, 409
1948, 389, 374, 533, 154
1949, 369, 106, 107, 271
1950, 144, 662, 639, 184
1951, 607, 18, 30, 304
1952, 210, 732, 362, 829
1953, 399, 509, 550, 549
1954, 636, 436, 547, 418
1955, 551, 401, 402, 641
1956, 379, 414, 582, 584
1957, 172, 391, 382, 542
1958, 313, 311, 308, 630
1959, 608, 177, 384, 175
1960, 303, 183, 452, 142
1961, 104, 263, 105, 367
1962, 554, 614, 656, 317
1963, 533, 502, 534, 155
1964, 350, 512, 296, 312
1965, 133, 580, 492, 489
1966, 752, 235, 234, 808
1967, 450, 82, 81, 269
1968, 624, 559, 289, 560
1969, 104, 103, 269, 420
1970, 109, 266, 110, 421
1971, 388, 535, 389, 387
1972, 615, 584, 661, 413
1973, 643, 29, 17, 238
1974, 684, 681, 121, 843
1975, 752, 755, 756, 846
1976, 123, 124, 600, 310
1977, 109, 108, 265, 371
1978, 345, 144, 639, 184
1979, 172, 461, 565, 542
1980, 114, 113, 278, 402
1981, 826, 234, 755, 233
1982, 539, 537, 390, 441
1983, 124, 310, 296, 511
1984, 290, 62, 63, 252
1985, 75, 74, 261, 300
1986, 289, 325, 624, 655
1987, 612, 652, 433, 562
1988, 817, 226, 227, 742
1989, 116, 281, 117, 394
1990, 98, 99, 381, 274
1991, 311, 313, 349, 653
1992, 87, 88, 266, 597
1993, 54, 55, 301, 239
1994, 711, 710, 721, 845
1995, 563, 183, 452, 303
1996, 118, 426, 283, 119
1997, 729, 676, 728, 848
1998, 272, 77, 78, 457
1999, 643, 17, 29, 346
2000, 689, 688, 687, 861
2001, 115, 418, 280, 116
2002, 525, 649, 326, 526
2003, 288, 59, 60, 251
2004, 411, 415, 660, 371
2005, 76, 77, 274, 611
2006, 525, 326, 347, 526
2007, 258, 73, 72, 294
2008, 530, 351, 19, 455
2009, 304, 607, 18, 455
2010, 502, 627, 534, 155
2011, 362, 12, 732, 210
2012, 559, 557, 323, 558
2013, 673, 719, 715, 854
2014, 653, 630, 313, 442
2015, 332, 626, 292, 333
2016, 67, 68, 348, 249
2017, 270, 105, 417, 106
2018, 590, 42, 41, 244
2019, 644, 177, 663, 429
2020, 183, 563, 143, 303
2021, 415, 371, 424, 575
2022, 347, 524, 525, 514
2023, 526, 326, 347, 341
2024, 220, 221, 815, 740
2025, 34, 35, 250, 588
2026, 582, 585, 379, 584
2027, 638, 388, 535, 537
2028, 441, 80, 79, 268
2029, 309, 518, 520, 504
2030, 312, 522, 349, 288
2031, 137, 320, 561, 136
2032, 737, 757, 758, 860
2033, 746, 797, 153, 844
2034, 100, 101, 366, 275
2035, 724, 665, 140, 844
2036, 237, 432, 24, 640
2037, 433, 386, 652, 612
2038, 406, 407, 368, 632
2039, 827, 215, 216, 759
2040, 579, 503, 299, 519
2041, 613, 650, 523, 344
2042, 162, 380, 416, 510
2043, 583, 414, 380, 412
2044, 184, 345, 143, 563
2045, 260, 71, 70, 285
2046, 112, 277, 404, 111
2047, 667, 686, 684, 860
2048, 741, 812, 219, 218
2049, 793, 767, 775, 862
2050, 678, 710, 709, 867
2051, 715, 714, 665, 849
2052, 179, 431, 176, 454
2053, 427, 433, 383, 562
2054, 333, 524, 298, 336
2055, 373, 623, 552, 550
2056, 164, 165, 774, 858
2057, 348, 647, 649, 443
2058, 692, 667, 123, 865
2059, 386, 652, 425, 433
2060, 639, 610, 301, 563
2061, 574, 424, 575, 573
2062, 356, 300, 658, 315
2063, 566, 297, 350, 126
2064, 182, 452, 352, 541
2065, 282, 117, 364, 118
2066, 155, 533, 502, 154
2067, 798, 737, 172, 843
2068, 454, 542, 382, 543
2069, 432, 427, 24, 640
2070, 566, 512, 350, 523
2071, 625, 555, 656, 327
2072, 326, 624, 324, 325
2073, 830, 808, 831, 839
2074, 160, 414, 582, 379
2075, 795, 792, 746, 849
2076, 324, 649, 326, 348
2077, 69, 70, 322, 253
2078, 758, 791, 170, 865
2079, 246, 66, 65, 340
2080, 749, 770, 774, 857
2081, 564, 306, 355, 342
2082, 340, 291, 347, 525
2083, 601, 52, 51, 257
2084, 372, 170, 169, 468
2085, 128, 712, 127, 856
2086, 371, 415, 660, 575
2087, 544, 543, 545, 392
2088, 745, 761, 762, 861
2089, 604, 349, 653, 522
2090, 166, 749, 165, 856
2091, 789, 742, 770, 845
2092, 583, 380, 510, 586
2093, 632, 437, 368, 657
2094, 634, 410, 645, 594
2095, 533, 534, 535, 389
2096, 243, 39, 40, 591
2097, 422, 602, 159, 158
2098, 376, 422, 645, 410
2099, 273, 237, 3, 640
2100, 68, 69, 302, 247
2101, 136, 716, 695, 847
2102, 177, 174, 384, 175
2103, 624, 326, 649, 526
2104, 692, 690, 687, 866
2105, 669, 128, 129, 858
2106, 187, 682, 186, 833
2107, 370, 102, 103, 262
2108, 322, 557, 605, 637
2109, 343, 530, 527, 455
2110, 705, 671, 131, 842
2111, 297, 567, 566, 523
2112, 83, 82, 593, 263
2113, 326, 624, 325, 526
2114, 158, 602, 494, 603
2115, 172, 565, 171, 391
2116, 349, 58, 59, 241
2117, 146, 683, 147, 358
2118, 685, 675, 723, 846
2119, 781, 740, 779, 853
2120, 101, 102, 408, 268
2121, 696, 701, 698, 853
2122, 738, 767, 790, 848
2123, 626, 519, 579, 332
2124, 92, 93, 284, 436
2125, 574, 407, 424, 378
2126, 507, 138, 506, 501
2127, 356, 607, 304, 455
2128, 347, 333, 340, 525
2129, 640, 611, 381, 562
2130, 137, 672, 716, 850
2131, 157, 748, 777, 847
2132, 537, 638, 388, 441
2133, 212, 213, 832, 754
2134, 764, 790, 765, 859
2135, 650, 344, 338, 288
2136, 584, 379, 414, 413
2137, 97, 644, 283, 459
2138, 532, 502, 533, 154
2139, 65, 64, 245, 292
2140, 256, 72, 71, 327
2141, 714, 138, 139, 864
2142, 128, 480, 477, 572
2143, 375, 389, 534, 155
2144, 728, 674, 691, 859
2145, 63, 64, 328, 244
2146, 99, 100, 385, 272
2147, 23, 24, 26, 427
2148, 513, 514, 524, 298
2149, 257, 74, 73, 314
2150, 528, 315, 316, 286
2151, 548, 547, 549, 397
2152, 198, 678, 199, 828
2153, 724, 730, 683, 838
2154, 556, 321, 557, 558
2155, 712, 669, 711, 857
2156, 377, 571, 578, 619
2157, 157, 603, 498, 642
2158, 763, 791, 761, 866
2159, 350, 297, 523, 344
2160, 338, 60, 61, 242
2161, 802, 754, 798, 840
2162, 672, 719, 700, 863
2163, 693, 715, 694, 855
2164, 723, 731, 682, 839
2165, 747, 782, 783, 863
2166, 496, 497, 561, 136
2167, 722, 713, 729, 862
2168, 283, 96, 97, 459
2169, 333, 292, 340, 654
2170, 288, 650, 522, 620
2171, 663, 9, 644, 279
2172, 259, 643, 2, 238
2173, 422, 585, 602, 651
2174, 19, 20, 6, 530
2175, 305, 55, 56, 255
2176, 363, 284, 114, 115
2177, 138, 293, 318, 506
2178, 383, 430, 453, 425
2179, 583, 582, 414, 584
2180, 176, 179, 454, 178
2181, 564, 452, 569, 342
2182, 797, 753, 803, 838
2183, 696, 668, 695, 852
2184, 247, 46, 47, 605
2185, 8, 254, 662, 639
2186, 319, 317, 555, 327
2187, 459, 608, 644, 426
2188, 664, 812, 206, 205
2189, 95, 94, 447, 281
2190, 777, 747, 156, 850
2191, 428, 178, 608, 175
2192, 569, 295, 342, 121
2193, 722, 666, 126, 868
2194, 554, 318, 506, 515
2195, 409, 540, 539, 634
2196, 325, 624, 324, 289
2197, 449, 91, 90, 267
2198, 527, 528, 343, 455
2199, 799, 806, 751, 841
2200, 311, 521, 630, 653
2201, 401, 373, 405, 552
2202, 513, 298, 336, 131
2203, 291, 326, 649, 348
2204, 405, 373, 167, 623
2205, 276, 111, 110, 368
2206, 333, 347, 524, 525
2207, 546, 547, 548, 395
2208, 630, 520, 308, 588
2209, 376, 540, 645, 603
2210, 454, 382, 431, 428
2211, 177, 644, 608, 384
2212, 804, 752, 800, 839
2213, 733, 681, 725, 840
2214, 632, 407, 574, 576
2215, 393, 546, 396, 395
2216, 376, 158, 157, 603
2217, 107, 108, 411, 264
2218, 382, 543, 392, 434
2219, 375, 538, 534, 537
2220, 56, 57, 287, 250
2221, 759, 760, 792, 855
2222, 162, 744, 776, 842
2223, 129, 481, 480, 503
2224, 33, 32, 610, 239
2225, 594, 410, 645, 651
2226, 438, 84, 83, 270
2227, 313, 57, 58, 240
2228, 643, 607, 17, 346
2229, 453, 25, 22, 430
2230, 388, 390, 375, 537
2231, 27, 26, 24, 427
2232, 30, 29, 17, 346
2233, 144, 345, 143, 184
2234, 835, 15, 830, 731
2235, 329, 299, 519, 332
2236, 139, 138, 507, 501
2237, 766, 793, 167, 868
2238, 286, 343, 140, 527
2239, 357, 148, 799, 149
2240, 527, 529, 140, 507
2241, 549, 400, 399, 397
2242, 121, 569, 464, 462
2243, 516, 320, 556, 561
2244, 538, 642, 540, 398
2245, 308, 307, 520, 309
2246, 524, 347, 333, 298
2247, 601, 528, 658, 315
2248, 680, 734, 726, 841
2249, 550, 551, 400, 549
2250, 142, 182, 452, 352
2251, 397, 395, 547, 418
2252, 524, 626, 333, 654
2253, 25, 22, 23, 453
2254, 458, 53, 52, 261
2255, 778, 782, 777, 851
2256, 716, 700, 697, 851
2257, 81, 80, 587, 262
2258, 130, 129, 299, 503
2259, 544, 545, 546, 393
2260, 48, 49, 260, 435
2261, 729, 691, 666, 869
2262, 551, 402, 617, 641
2263, 836, 835, 236, 831
2264, 784, 779, 748, 852
2265, 820, 200, 201, 679
2266, 402, 400, 401, 551
2267, 44, 43, 606, 246
2268, 596, 79, 78, 275
2269, 334, 567, 648, 572
2270, 555, 554, 656, 317
2271, 155, 795, 154, 864
2272, 640, 427, 24, 562
2273, 34, 33, 456, 255
2274, 242, 38, 39, 440
2275, 556, 555, 319, 516
2276, 602, 645, 422, 651
2277, 184, 639, 345, 563
2278, 589, 90, 89, 277
2279, 604, 37, 36, 241
2280, 249, 45, 46, 443
2281, 739, 792, 783, 854
2282, 67, 66, 248, 291
2283, 616, 45, 44, 248
2284, 321, 556, 319, 320
2285, 323, 321, 557, 322
2286, 264, 85, 86, 451
2287, 362, 12, 210, 151
2288, 271, 84, 85, 595
2289, 182, 452, 183, 142
2290, 341, 580, 325, 133
2291, 251, 37, 38, 620
2292, 622, 652, 453, 425
2293, 767, 766, 765, 869
2294, 359, 13, 829, 805
2295, 252, 40, 41, 446
2296, 624, 559, 647, 324
2297, 500, 506, 138, 501
2298, 623, 619, 405, 552
2299, 17, 18, 30, 607
2300, 643, 2, 53, 259
2301, 254, 8, 32, 639
2302, 273, 3, 76, 640
2303, 364, 393, 545, 392
2304, 580, 325, 526, 341
2305, 365, 113, 267, 112
2306, 452, 342, 303, 352
2307, 343, 304, 351, 455
2308, 622, 531, 646, 153
2309, 526, 655, 325, 580
2310, 356, 658, 607, 455
2311, 527, 286, 528, 515
2312, 135, 496, 493, 659
2313, 1, 259, 238, 353
2314, 237, 4, 432, 273
2315, 354, 7, 254, 662
2316, 143, 184, 563, 183
2317, 655, 325, 624, 526
2318, 177, 608, 178, 175
2319, 89, 88, 437, 276
2320, 43, 42, 439, 245
2321, 341, 347, 514, 298
2322, 279, 663, 10, 429
2323, 526, 325, 326, 341
2324, 641, 551, 401, 552
2325, 415, 586, 660, 575
2326, 835, 830, 236, 831
2327, 49, 50, 256, 625
2328, 371, 660, 629, 575
2329, 532, 533, 646, 154
2330, 151, 210, 362, 829
2331, 526, 514, 580, 341
2332, 354, 7, 54, 254
2333, 4, 98, 432, 273
2334, 259, 1, 75, 353
2335, 36, 35, 442, 240
2336, 9, 97, 644, 279
2337, 578, 632, 406, 657
2338, 617, 92, 91, 278
2339, 830, 236, 15, 835
2340, 119, 279, 10, 429
2341, 23, 26, 25, 383
2342, 143, 183, 303, 142
2343, 14, 431, 176, 179
2344, 149, 358, 150, 753
2345, 304, 343, 356, 455
2346, 680, 809, 210, 209
2347, 31, 30, 18, 304
2348, 142, 11, 182, 352
2349, 5, 22, 25, 430
2350, 282, 95, 96, 633
2351, 15, 189, 830, 731
2352, 87, 86, 629, 265
2353, 428, 176, 178, 175
2354, 238, 29, 1, 353
2355, 432, 27, 4, 237
2356, 7, 354, 144, 662
2357, 212, 800, 833, 211
2358, 237, 24, 3, 640
2359, 174, 10, 663, 429
2360, 639, 662, 8, 184
2361, 9, 644, 177, 663
2362, 643, 17, 2, 238
2363, 50, 51, 258, 448
2364, 726, 357, 146, 145
2365, 187, 725, 832, 188
2366, 253, 47, 48, 637
2367, 836, 16, 804, 831
2368, 13, 214, 829, 805
2369, 280, 93, 94, 636
2370, 19, 6, 31, 351
2371, 831, 16, 804, 235
2372, 254, 7, 8, 662
2373, 732, 145, 12, 362
2374, 16, 804, 211, 836
2375, 663, 10, 9, 279
2376, 2, 1, 259, 238
2377, 186, 15, 835, 731
2378, 3, 4, 237, 273
2379, 805, 359, 13, 148
2380, 6, 147, 730, 360
2381, 837, 11, 188, 733
2382, 802, 834, 14, 213
2383, 5, 361, 803, 150
2384, 829, 362, 151, 359
2385, 836, 236, 16, 831
2386, 829, 151, 13, 359
2387, 785, 703, 786, 794
2388, 785, 786, 703, 677
2389, 848, 823, 789, 845
2390, 851, 780, 697, 778
2391, 853, 697, 780, 778
2392, 853, 780, 697, 699
2393, 717, 853, 702, 801
2394, 702, 853, 717, 698
2395, 670, 842, 796, 705
2396, 707, 744, 773, 771
2397, 707, 773, 744, 842
2398, 717, 784, 853, 801
2399, 717, 853, 784, 852
2400, 853, 786, 801, 781
2401, 853, 801, 786, 702
2402, 842, 707, 772, 744
2403, 813, 745, 859, 764
2404, 859, 745, 813, 824
2405, 786, 670, 801, 743
2406, 786, 801, 670, 702
2407, 743, 842, 796, 670
2408, 796, 842, 743, 776
2409, 664, 825, 741, 812
2410, 741, 825, 664, 699
2411, 736, 125, 868, 168
2412, 736, 868, 125, 727
2413, 741, 704, 851, 664
2414, 741, 851, 704, 787
2415, 840, 800, 807, 839
2416, 840, 807, 800, 754
2417, 840, 832, 682, 725
2418, 720, 786, 670, 702
2419, 670, 786, 720, 796
2420, 842, 773, 705, 706
2421, 842, 705, 773, 796
2422, 720, 705, 773, 706
2423, 720, 773, 705, 796
2424, 679, 788, 773, 750
2425, 773, 788, 679, 708
2426, 814, 789, 848, 823
2427, 814, 848, 789, 738
2428, 707, 773, 708, 771
2429, 708, 773, 707, 706
2430, 794, 820, 703, 750
2431, 794, 703, 820, 816
2432, 721, 814, 196, 676
2433, 196, 814, 721, 823
2434, 703, 820, 201, 679
2435, 703, 201, 820, 816
2436, 821, 664, 206, 704
2437, 821, 206, 664, 812
2438, 840, 833, 682, 832
2439, 840, 682, 833, 839
2440, 844, 531, 532, 529
2441, 844, 532, 531, 153
2442, 821, 739, 854, 811
2443, 821, 854, 739, 787
2444, 141, 360, 6, 730
2445, 141, 6, 360, 28
2446, 802, 185, 840, 173
2447, 802, 840, 185, 834
2448, 553, 425, 453, 430
2449, 453, 425, 553, 622
2450, 335, 591, 338, 337
2451, 338, 591, 335, 613
2452, 453, 433, 425, 652
2453, 425, 433, 453, 383
2454, 292, 606, 654, 439
2455, 292, 654, 606, 340
2456, 366, 457, 628, 385
2457, 366, 628, 457, 596
2458, 300, 458, 314, 74
2459, 52, 458, 314, 601
2460, 52, 314, 458, 74
2461, 634, 370, 539, 409
2462, 634, 539, 370, 587
2463, 390, 539, 370, 409
2464, 653, 312, 521, 522
2465, 521, 312, 653, 311
2466, 661, 412, 584, 618
2467, 584, 412, 661, 413
2468, 650, 312, 523, 344
2469, 523, 312, 650, 522
2470, 630, 442, 308, 313
2471, 630, 308, 442, 588
2472, 287, 308, 442, 313
2473, 287, 442, 308, 588
2474, 652, 374, 622, 536
2475, 622, 374, 652, 425
2476, 290, 590, 41, 328
2477, 41, 590, 290, 446
2478, 421, 629, 575, 371
2479, 421, 575, 629, 597
2480, 617, 363, 551, 436
2481, 551, 363, 617, 402
2482, 636, 394, 547, 447
2483, 547, 394, 636, 418
2484, 291, 606, 525, 340
2485, 291, 525, 606, 616
2486, 441, 370, 80, 408
2487, 441, 80, 370, 587
2488, 408, 596, 638, 366
2489, 638, 596, 408, 441
2490, 328, 439, 626, 590
2491, 626, 439, 328, 292
2492, 626, 332, 328, 590
2493, 328, 332, 626, 292
2494, 447, 364, 117, 394
2495, 117, 364, 447, 633
2496, 117, 281, 447, 394
2497, 447, 281, 117, 633
2498, 365, 617, 641, 449
2499, 365, 641, 617, 402
2500, 285, 625, 555, 435
2501, 555, 625, 285, 327
2502, 637, 285, 557, 435
2503, 557, 285, 637, 322
2504, 610, 305, 306, 456
2505, 610, 306, 305, 301
2506, 353, 53, 261, 75
2507, 353, 261, 53, 643
2508, 639, 54, 254, 354
2509, 639, 254, 54, 32
2510, 640, 98, 273, 432
2511, 640, 273, 98, 76
2512, 353, 458, 346, 300
2513, 353, 346, 458, 643
2514, 607, 346, 458, 300
2515, 607, 458, 346, 643
2516, 835, 831, 839, 830
2517, 839, 831, 835, 836
2518, 852, 134, 717, 668
2519, 780, 697, 741, 851
2520, 780, 741, 697, 699
2521, 664, 741, 697, 851
2522, 664, 697, 741, 699
2523, 842, 718, 707, 671
2524, 707, 718, 842, 772
2525, 852, 159, 717, 134
2526, 717, 159, 852, 784
2527, 458, 314, 658, 300
2528, 458, 658, 314, 601
2529, 315, 658, 314, 300
2530, 315, 314, 658, 601
2531, 539, 370, 441, 390
2532, 539, 441, 370, 587

*NSET, NSET=CONSTRAINT_1
5, 6, 12, 13, 28, 145, 146, 147, 148, 149, 150, 151, 357, 358, 359, 360
361, 362

*NSET, NSET=CONSTRAINT_2
11, 14, 15, 16, 185, 186, 187, 188, 211, 212, 213, 236, 832, 833, 834, 835
836, 837

*MATERIAL, NAME=STRUCTURAL_STEEL
*ELASTIC
200000.000000, 0.300000

*SOLID SECTION, ELSET=ALL_ELEMENTS, MATERIAL=STRUCTURAL_STEEL

*BOUNDARY
CONSTRAINT_1, 1, 3

*BOUNDARY
CONSTRAINT_2, 1, 3

*STEP, NLGEOM=NO
*STATIC
0.1, 1.0

*DLOAD
ALL_ELEMENTS, GRAV, 9810, 0, 0, -1

*NODE FILE
U, RF
*EL FILE
S, E

*END STEP
