*HEADING
T-shaped domain as a cantilever beam: one full face fixed (y=0), opposite end loaded downward. The T cross-section provides efficient moment of inertia for cantilever bending.

*NODE, NSET=ALL_NODES
1, 0.000000, 0.000000, 24.000000
2, 0.000000, 0.000000, 30.000000
3, 60.000000, 0.000000, 30.000000
4, 60.000000, 0.000000, 24.000000
5, 36.000000, 0.000000, 24.000000
6, 24.000000, 0.000000, 24.000000
7, 0.000000, 120.000000, 24.000000
8, 0.000000, 120.000000, 30.000000
9, 60.000000, 120.000000, 30.000000
10, 60.000000, 120.000000, 24.000000
11, 24.000000, 120.000000, 24.000000
12, 24.000000, 0.000000, 0.000000
13, 36.000000, 0.000000, 0.000000
14, 36.000000, 120.000000, 24.000000
15, 24.000000, 120.000000, 0.000000
16, 36.000000, 120.000000, 0.000000
17, 6.000000, 0.000000, 30.000000
18, 12.000000, 0.000000, 30.000000
19, 18.000000, 0.000000, 30.000000
20, 24.000000, 0.000000, 30.000000
21, 30.000000, 0.000000, 30.000000
22, 36.000000, 0.000000, 30.000000
23, 42.000000, 0.000000, 30.000000
24, 48.000000, 0.000000, 30.000000
25, 54.000000, 0.000000, 30.000000
26, 42.000000, 0.000000, 24.000000
27, 48.000000, 0.000000, 24.000000
28, 54.000000, 0.000000, 24.000000
29, 30.000000, 0.000000, 24.000000
30, 6.000000, 0.000000, 24.000000
31, 12.000000, 0.000000, 24.000000
32, 18.000000, 0.000000, 24.000000
33, 0.000000, 114.000000, 30.000000
34, 0.000000, 108.000000, 30.000000
35, 0.000000, 102.000000, 30.000000
36, 0.000000, 96.000000, 30.000000
37, 0.000000, 90.000000, 30.000000
38, 0.000000, 84.000000, 30.000000
39, 0.000000, 78.000000, 30.000000
40, 0.000000, 72.000000, 30.000000
41, 0.000000, 66.000000, 30.000000
42, 0.000000, 60.000000, 30.000000
43, 0.000000, 54.000000, 30.000000
44, 0.000000, 48.000000, 30.000000
45, 0.000000, 42.000000, 30.000000
46, 0.000000, 36.000000, 30.000000
47, 0.000000, 30.000000, 30.000000
48, 0.000000, 24.000000, 30.000000
49, 0.000000, 18.000000, 30.000000
50, 0.000000, 12.000000, 30.000000
51, 0.000000, 6.000000, 30.000000
52, 0.000000, 114.000000, 24.000000
53, 0.000000, 108.000000, 24.000000
54, 0.000000, 102.000000, 24.000000
55, 0.000000, 96.000000, 24.000000
56, 0.000000, 90.000000, 24.000000
57, 0.000000, 84.000000, 24.000000
58, 0.000000, 78.000000, 24.000000
59, 0.000000, 72.000000, 24.000000
60, 0.000000, 66.000000, 24.000000
61, 0.000000, 60.000000, 24.000000
62, 0.000000, 54.000000, 24.000000
63, 0.000000, 48.000000, 24.000000
64, 0.000000, 42.000000, 24.000000
65, 0.000000, 36.000000, 24.000000
66, 0.000000, 30.000000, 24.000000
67, 0.000000, 24.000000, 24.000000
68, 0.000000, 18.000000, 24.000000
69, 0.000000, 12.000000, 24.000000
70, 0.000000, 6.000000, 24.000000
71, 60.000000, 6.000000, 30.000000
72, 60.000000, 12.000000, 30.000000
73, 60.000000, 18.000000, 30.000000
74, 60.000000, 24.000000, 30.000000
75, 60.000000, 30.000000, 30.000000
76, 60.000000, 36.000000, 30.000000
77, 60.000000, 42.000000, 30.000000
78, 60.000000, 48.000000, 30.000000
79, 60.000000, 54.000000, 30.000000
80, 60.000000, 60.000000, 30.000000
81, 60.000000, 66.000000, 30.000000
82, 60.000000, 72.000000, 30.000000
83, 60.000000, 78.000000, 30.000000
84, 60.000000, 84.000000, 30.000000
85, 60.000000, 90.000000, 30.000000
86, 60.000000, 96.000000, 30.000000
87, 60.000000, 102.000000, 30.000000
88, 60.000000, 108.000000, 30.000000
89, 60.000000, 114.000000, 30.000000
90, 60.000000, 6.000000, 24.000000
91, 60.000000, 12.000000, 24.000000
92, 60.000000, 18.000000, 24.000000
93, 60.000000, 24.000000, 24.000000
94, 60.000000, 30.000000, 24.000000
95, 60.000000, 36.000000, 24.000000
96, 60.000000, 42.000000, 24.000000
97, 60.000000, 48.000000, 24.000000
98, 60.000000, 54.000000, 24.000000
99, 60.000000, 60.000000, 24.000000
100, 60.000000, 66.000000, 24.000000
101, 60.000000, 72.000000, 24.000000
102, 60.000000, 78.000000, 24.000000
103, 60.000000, 84.000000, 24.000000
104, 60.000000, 90.000000, 24.000000
105, 60.000000, 96.000000, 24.000000
106, 60.000000, 102.000000, 24.000000
107, 60.000000, 108.000000, 24.000000
108, 60.000000, 114.000000, 24.000000
109, 24.000000, 114.000000, 24.000000
110, 24.000000, 108.000000, 24.000000
111, 24.000000, 102.000000, 24.000000
112, 24.000000, 96.000000, 24.000000
113, 24.000000, 90.000000, 24.000000
114, 24.000000, 84.000000, 24.000000
115, 24.000000, 78.000000, 24.000000
116, 24.000000, 72.000000, 24.000000
117, 24.000000, 66.000000, 24.000000
118, 24.000000, 60.000000, 24.000000
119, 24.000000, 54.000000, 24.000000
120, 24.000000, 48.000000, 24.000000
121, 24.000000, 42.000000, 24.000000
122, 24.000000, 36.000000, 24.000000
123, 24.000000, 30.000000, 24.000000
124, 24.000000, 24.000000, 24.000000
125, 24.000000, 18.000000, 24.000000
126, 24.000000, 12.000000, 24.000000
127, 24.000000, 6.000000, 24.000000
128, 18.000000, 120.000000, 24.000000
129, 12.000000, 120.000000, 24.000000
130, 6.000000, 120.000000, 24.000000
131, 24.000000, 0.000000, 6.000000
132, 24.000000, 0.000000, 12.000000
133, 24.000000, 0.000000, 18.000000
134, 36.000000, 0.000000, 6.000000
135, 36.000000, 0.000000, 12.000000
136, 36.000000, 0.000000, 18.000000
137, 30.000000, 0.000000, 0.000000
138, 36.000000, 6.000000, 24.000000
139, 36.000000, 12.000000, 24.000000
140, 36.000000, 18.000000, 24.000000
141, 36.000000, 24.000000, 24.000000
142, 36.000000, 30.000000, 24.000000
143, 36.000000, 36.000000, 24.000000
144, 36.000000, 42.000000, 24.000000
145, 36.000000, 48.000000, 24.000000
146, 36.000000, 54.000000, 24.000000
147, 36.000000, 60.000000, 24.000000
148, 36.000000, 66.000000, 24.000000
149, 36.000000, 72.000000, 24.000000
150, 36.000000, 78.000000, 24.000000
151, 36.000000, 84.000000, 24.000000
152, 36.000000, 90.000000, 24.000000
153, 36.000000, 96.000000, 24.000000
154, 36.000000, 102.000000, 24.000000
155, 36.000000, 108.000000, 24.000000
156, 36.000000, 114.000000, 24.000000
157, 54.000000, 120.000000, 24.000000
158, 48.000000, 120.000000, 24.000000
159, 42.000000, 120.000000, 24.000000
160, 54.000000, 120.000000, 30.000000
161, 48.000000, 120.000000, 30.000000
162, 42.000000, 120.000000, 30.000000
163, 36.000000, 120.000000, 30.000000
164, 30.000000, 120.000000, 30.000000
165, 24.000000, 120.000000, 30.000000
166, 18.000000, 120.000000, 30.000000
167, 12.000000, 120.000000, 30.000000
168, 6.000000, 120.000000, 30.000000
169, 30.000000, 120.000000, 24.000000
170, 24.000000, 120.000000, 6.000000
171, 24.000000, 120.000000, 12.000000
172, 24.000000, 120.000000, 18.000000
173, 24.000000, 114.000000, 0.000000
174, 24.000000, 108.000000, 0.000000
175, 24.000000, 102.000000, 0.000000
176, 24.000000, 96.000000, 0.000000
177, 24.000000, 90.000000, 0.000000
178, 24.000000, 84.000000, 0.000000
179, 24.000000, 78.000000, 0.000000
180, 24.000000, 72.000000, 0.000000
181, 24.000000, 66.000000, 0.000000
182, 24.000000, 60.000000, 0.000000
183, 24.000000, 54.000000, 0.000000
184, 24.000000, 48.000000, 0.000000
185, 24.000000, 42.000000, 0.000000
186, 24.000000, 36.000000, 0.000000
187, 24.000000, 30.000000, 0.000000
188, 24.000000, 24.000000, 0.000000
189, 24.000000, 18.000000, 0.000000
190, 24.000000, 12.000000, 0.000000
191, 24.000000, 6.000000, 0.000000
192, 36.000000, 120.000000, 6.000000
193, 36.000000, 120.000000, 12.000000
194, 36.000000, 120.000000, 18.000000
195, 36.000000, 6.000000, 0.000000
196, 36.000000, 12.000000, 0.000000
197, 36.000000, 18.000000, 0.000000
198, 36.000000, 24.000000, 0.000000
199, 36.000000, 30.000000, 0.000000
200, 36.000000, 36.000000, 0.000000
201, 36.000000, 42.000000, 0.000000
202, 36.000000, 48.000000, 0.000000
203, 36.000000, 54.000000, 0.000000
204, 36.000000, 60.000000, 0.000000
205, 36.000000, 66.000000, 0.000000
206, 36.000000, 72.000000, 0.000000
207, 36.000000, 78.000000, 0.000000
208, 36.000000, 84.000000, 0.000000
209, 36.000000, 90.000000, 0.000000
210, 36.000000, 96.000000, 0.000000
211, 36.000000, 102.000000, 0.000000
212, 36.000000, 108.000000, 0.000000
213, 36.000000, 114.000000, 0.000000
214, 30.000000, 120.000000, 0.000000
215, 9.000000, 0.000000, 27.000000
216, 3.000000, 0.000000, 27.000000
217, 15.000000, 0.000000, 27.000000
218, 57.000000, 0.000000, 27.000000
219, 21.000000, 0.000000, 27.000000
220, 27.000000, 0.000000, 27.000000
221, 33.000000, 0.000000, 27.000000
222, 39.000000, 0.000000, 27.000000
223, 51.000000, 0.000000, 27.000000
224, 45.000000, 0.000000, 27.000000
225, 0.000000, 15.000000, 27.000000
226, 0.000000, 9.000000, 27.000000
227, 0.000000, 39.000000, 27.000000
228, 0.000000, 69.000000, 27.000000
229, 0.000000, 3.000000, 27.000000
230, 0.000000, 51.000000, 27.000000
231, 0.000000, 27.000000, 27.000000
232, 0.000000, 75.000000, 27.000000
233, 0.000000, 45.000000, 27.000000
234, 0.000000, 33.000000, 27.000000
235, 0.000000, 87.000000, 27.000000
236, 0.000000, 57.000000, 27.000000
237, 0.000000, 93.000000, 27.000000
238, 0.000000, 81.000000, 27.000000
239, 0.000000, 21.000000, 27.000000
240, 0.000000, 63.000000, 27.000000
241, 0.000000, 117.000000, 27.000000
242, 0.000000, 111.000000, 27.000000
243, 0.000000, 105.000000, 27.000000
244, 0.000000, 99.000000, 27.000000
245, 60.000000, 117.000000, 27.000000
246, 60.000000, 105.000000, 27.000000
247, 60.000000, 111.000000, 27.000000
248, 60.000000, 81.000000, 27.000000
249, 60.000000, 69.000000, 27.000000
250, 60.000000, 93.000000, 27.000000
251, 60.000000, 57.000000, 27.000000
252, 60.000000, 75.000000, 27.000000
253, 60.000000, 87.000000, 27.000000
254, 60.000000, 33.000000, 27.000000
255, 60.000000, 45.000000, 27.000000
256, 60.000000, 51.000000, 27.000000
257, 60.000000, 63.000000, 27.000000
258, 60.000000, 21.000000, 27.000000
259, 60.000000, 99.000000, 27.000000
260, 60.000000, 27.000000, 27.000000
261, 60.000000, 39.000000, 27.000000
262, 60.000000, 9.000000, 27.000000
263, 60.000000, 15.000000, 27.000000
264, 60.000000, 3.000000, 27.000000
265, 5.196152, 75.000000, 24.000000
266, 5.196152, 45.000000, 24.000000
267, 5.196152, 33.000000, 24.000000
268, 5.196152, 63.000000, 24.000000
269, 5.071410, 87.661880, 24.000000
270, 18.803848, 21.000000, 24.000000
271, 4.520315, 103.986649, 24.000000
272, 18.803848, 39.000000, 24.000000
273, 18.803848, 51.000000, 24.000000
274, 18.803848, 69.000000, 24.000000
275, 18.737301, 80.527229, 24.000000
276, 18.803848, 93.000000, 24.000000
277, 5.167840, 15.049038, 24.000000
278, 19.005936, 104.649971, 24.000000
279, 18.928568, 9.570783, 24.000000
280, 9.540787, 5.755673, 24.000000
281, 9.025424, 114.919365, 24.000000
282, 5.191434, 21.008173, 24.000000
283, 10.132573, 18.009535, 24.000000
284, 10.248477, 24.000769, 24.000000
285, 9.954131, 12.114228, 24.000000
286, 15.211468, 15.181635, 24.000000
287, 5.196152, 69.000000, 24.000000
288, 10.138078, 72.000000, 24.000000
289, 10.462720, 78.623840, 24.000000
290, 15.588457, 75.000000, 24.000000
291, 10.095707, 66.000000, 24.000000
292, 10.342872, 60.000000, 24.000000
293, 14.870531, 64.000000, 24.000000
294, 15.590153, 57.142857, 24.000000
295, 10.130122, 54.023811, 24.000000
296, 5.196152, 39.000000, 24.000000
297, 10.138078, 42.000000, 24.000000
298, 10.095707, 36.000000, 24.000000
299, 10.064673, 30.000128, 24.000000
300, 15.588457, 33.000000, 24.000000
301, 10.052010, 48.003967, 24.000000
302, 15.588457, 45.000000, 24.000000
303, 19.464102, 28.000000, 24.000000
304, 5.144217, 57.003967, 24.000000
305, 14.976120, 114.926384, 24.000000
306, 12.110862, 110.444244, 24.000000
307, 5.140505, 51.002701, 24.000000
308, 18.837528, 98.941666, 24.000000
309, 13.613309, 95.990280, 24.000000
310, 13.765780, 90.270569, 24.000000
311, 8.222581, 93.365128, 24.000000
312, 8.941327, 99.926033, 24.000000
313, 18.803848, 87.000000, 24.000000
314, 13.607696, 84.000000, 24.000000
315, 4.932871, 81.214287, 24.000000
316, 5.116789, 27.001511, 24.000000
317, 14.176955, 101.819359, 24.000000
318, 4.842511, 9.218541, 24.000000
319, 5.207685, 110.602829, 24.000000
320, 18.518101, 110.591682, 24.000000
321, 15.055369, 4.952979, 24.000000
322, 10.013273, 105.214127, 24.000000
323, 14.042910, 39.000000, 24.000000
324, 13.899324, 69.199997, 24.000000
325, 20.329208, 75.000000, 24.000000
326, 20.329208, 45.000000, 24.000000
327, 20.371281, 33.200001, 24.000000
328, 14.032918, 51.034126, 24.000000
329, 8.819798, 84.006935, 24.000000
330, 19.598957, 62.190475, 24.000000
331, 20.398592, 56.866665, 24.000000
332, 4.225836, 98.046303, 24.000000
333, 14.705442, 26.166817, 24.000000
334, 3.503965, 93.014664, 24.000000
335, 13.820361, 20.871752, 24.000000
336, 20.329208, 15.000000, 24.000000
337, 19.607695, 4.392305, 24.000000
338, 19.607695, 115.607697, 24.000000
339, 4.392305, 115.607697, 24.000000
340, 4.392305, 4.392305, 24.000000
341, 13.998041, 9.545347, 24.000000
342, 14.599043, 79.537766, 24.000000
343, 9.742306, 88.081543, 24.000000
344, 14.708860, 106.372536, 24.000000
345, 29.196152, 0.000000, 9.000000
346, 30.613905, 0.000000, 15.000000
347, 31.597906, 0.000000, 3.944710
348, 28.360735, 0.000000, 20.064243
349, 32.432747, 0.000000, 20.441889
350, 27.467892, 0.000000, 3.478873
351, 54.928589, 80.338120, 24.000000
352, 41.196152, 93.000000, 24.000000
353, 41.196152, 69.000000, 24.000000
354, 41.196152, 39.000000, 24.000000
355, 54.803848, 57.000000, 24.000000
356, 54.803848, 27.000000, 24.000000
357, 41.196152, 15.000000, 24.000000
358, 54.803848, 105.000000, 24.000000
359, 54.803848, 45.000000, 24.000000
360, 41.196152, 51.000000, 24.000000
361, 41.196152, 81.000000, 24.000000
362, 54.803848, 93.000000, 24.000000
363, 54.803848, 69.000000, 24.000000
364, 41.196152, 27.000000, 24.000000
365, 54.803848, 15.000000, 24.000000
366, 41.196152, 105.000000, 24.000000
367, 50.769791, 113.893181, 24.000000
368, 44.620564, 4.744237, 24.000000
369, 41.080631, 110.974579, 24.000000
370, 45.975616, 109.134422, 24.000000
371, 46.442318, 102.157074, 24.000000
372, 41.196152, 63.000000, 24.000000
373, 46.138077, 66.000000, 24.000000
374, 46.095707, 72.000000, 24.000000
375, 46.095707, 60.000000, 24.000000
376, 51.588459, 63.000000, 24.000000
377, 41.146721, 75.000000, 24.000000
378, 46.177483, 77.727806, 24.000000
379, 46.403294, 84.156380, 24.000000
380, 51.511269, 74.904533, 24.000000
381, 55.058075, 99.000000, 24.000000
382, 49.607697, 96.000000, 24.000000
383, 50.269779, 89.026062, 24.000000
384, 40.950260, 99.026176, 24.000000
385, 54.803848, 21.000000, 24.000000
386, 49.861923, 24.000000, 24.000000
387, 50.250248, 29.544380, 24.000000
388, 49.904293, 18.000000, 24.000000
389, 50.292282, 11.963148, 24.000000
390, 44.411541, 21.000000, 24.000000
391, 55.023788, 9.032460, 24.000000
392, 41.146721, 57.000000, 24.000000
393, 46.080406, 54.000000, 24.000000
394, 46.086094, 48.000000, 24.000000
395, 51.588459, 51.000000, 24.000000
396, 41.145119, 45.000000, 24.000000
397, 46.078537, 42.000000, 24.000000
398, 46.392303, 36.000000, 24.000000
399, 51.588459, 39.000000, 24.000000
400, 41.039001, 33.272190, 24.000000
401, 40.943756, 87.026062, 24.000000
402, 54.802475, 33.596790, 24.000000
403, 55.189213, 86.727364, 24.000000
404, 55.266533, 110.733307, 24.000000
405, 40.634674, 8.648192, 24.000000
406, 44.992611, 114.953957, 24.000000
407, 50.574791, 5.368904, 24.000000
408, 51.133057, 84.000000, 24.000000
409, 56.329208, 75.000000, 24.000000
410, 56.329208, 63.000000, 24.000000
411, 50.027473, 68.980904, 24.000000
412, 45.547935, 90.868088, 24.000000
413, 50.031376, 57.000000, 24.000000
414, 50.029079, 45.000000, 24.000000
415, 46.149010, 26.739647, 24.000000
416, 56.329208, 39.000000, 24.000000
417, 56.329208, 51.000000, 24.000000
418, 44.748871, 96.210266, 24.000000
419, 39.670792, 21.000000, 24.000000
420, 46.182442, 15.102251, 24.000000
421, 51.406506, 102.024429, 24.000000
422, 50.777435, 107.157066, 24.000000
423, 40.392303, 115.607697, 24.000000
424, 56.007263, 115.725296, 24.000000
425, 40.392303, 4.392305, 24.000000
426, 55.607697, 4.392305, 24.000000
427, 45.594982, 9.852877, 24.000000
428, 50.030739, 80.225372, 24.000000
429, 50.398533, 34.456581, 24.000000
430, 45.681450, 31.396233, 24.000000
431, 54.927845, 80.961426, 30.000000
432, 5.196152, 39.000000, 30.000000
433, 54.803848, 63.000000, 30.000000
434, 5.196152, 75.000000, 30.000000
435, 55.085552, 33.148178, 30.000000
436, 5.196152, 57.000000, 30.000000
437, 27.431410, 114.603630, 30.000000
438, 27.431410, 5.396370, 30.000000
439, 5.196152, 93.000000, 30.000000
440, 54.927845, 99.038574, 30.000000
441, 5.196152, 21.000000, 30.000000
442, 39.000000, 5.196152, 30.000000
443, 54.803848, 45.000000, 30.000000
444, 39.087189, 115.538628, 30.000000
445, 54.803848, 21.000000, 30.000000
446, 14.430608, 114.593910, 30.000000
447, 14.479646, 5.377777, 30.000000
448, 5.167840, 104.950958, 30.000000
449, 50.964405, 4.976985, 30.000000
450, 55.371117, 110.972397, 30.000000
451, 5.080632, 9.025424, 30.000000
452, 5.176899, 15.004237, 30.000000
453, 10.389096, 18.000706, 30.000000
454, 10.391770, 24.000118, 30.000000
455, 15.587833, 21.000137, 30.000000
456, 15.588457, 27.000000, 30.000000
457, 20.784506, 24.000023, 30.000000
458, 20.784592, 30.000004, 30.000000
459, 25.980742, 27.000004, 30.000000
460, 25.980762, 33.000000, 30.000000
461, 31.176910, 30.000000, 30.000000
462, 31.176914, 36.000000, 30.000000
463, 25.980762, 39.000000, 30.000000
464, 31.176914, 42.000000, 30.000000
465, 25.980762, 45.000000, 30.000000
466, 31.176914, 48.000000, 30.000000
467, 25.980762, 51.000000, 30.000000
468, 31.091364, 53.851822, 30.000000
469, 25.966503, 56.975304, 30.000000
470, 30.877073, 59.823009, 30.000000
471, 25.943369, 62.975990, 30.000000
472, 30.923052, 65.966499, 30.000000
473, 25.932220, 68.990417, 30.000000
474, 31.126514, 71.992821, 30.000000
475, 25.964272, 74.997208, 30.000000
476, 31.165766, 77.998337, 30.000000
477, 25.976156, 80.999260, 30.000000
478, 31.174288, 83.999596, 30.000000
479, 25.979557, 86.999809, 30.000000
480, 31.176275, 89.999901, 30.000000
481, 25.980455, 92.999954, 30.000000
482, 31.176910, 24.000000, 30.000000
483, 31.176758, 95.999977, 30.000000
484, 36.372524, 86.999916, 30.000000
485, 35.732395, 68.993217, 30.000000
486, 36.245358, 50.954998, 30.000000
487, 36.091362, 38.851822, 30.000000
488, 36.373066, 27.000000, 30.000000
489, 20.784609, 48.000000, 30.000000
490, 20.770287, 65.994400, 30.000000
491, 20.783642, 83.999847, 30.000000
492, 25.980684, 98.999985, 30.000000
493, 36.373066, 21.000000, 30.000000
494, 20.784546, 95.999992, 30.000000
495, 31.176876, 101.999992, 30.000000
496, 36.373035, 98.999992, 30.000000
497, 20.784489, 18.000027, 30.000000
498, 20.784586, 102.000000, 30.000000
499, 41.569218, 24.000000, 30.000000
500, 41.569218, 18.000000, 30.000000
501, 31.176914, 18.000000, 30.000000
502, 15.588454, 33.000000, 30.000000
503, 41.483669, 29.851822, 30.000000
504, 15.588447, 99.000000, 30.000000
505, 15.588445, 93.000000, 30.000000
506, 46.765373, 27.000000, 30.000000
507, 36.310879, 104.892303, 30.000000
508, 41.558849, 101.982048, 30.000000
509, 41.567486, 95.997009, 30.000000
510, 15.688932, 104.825958, 30.000000
511, 20.842861, 107.766609, 30.000000
512, 46.054642, 32.982361, 30.000000
513, 46.765373, 99.000000, 30.000000
514, 46.567429, 92.999504, 30.000000
515, 46.765373, 105.000000, 30.000000
516, 30.758781, 108.809669, 30.000000
517, 10.885757, 11.068379, 30.000000
518, 15.588457, 15.000000, 30.000000
519, 20.826099, 12.204388, 30.000000
520, 55.062786, 105.000931, 30.000000
521, 36.310890, 15.107696, 30.000000
522, 30.758789, 11.190330, 30.000000
523, 41.806496, 11.123283, 30.000000
524, 46.711803, 15.060344, 30.000000
525, 41.653931, 107.579231, 30.000000
526, 46.287838, 110.641579, 30.000000
527, 36.372551, 92.999466, 30.000000
528, 41.535763, 89.999313, 30.000000
529, 41.563553, 83.999870, 30.000000
530, 46.528206, 86.999779, 30.000000
531, 46.652325, 80.999985, 30.000000
532, 41.463882, 78.148155, 30.000000
533, 46.038830, 75.017639, 30.000000
534, 50.880184, 89.999878, 30.000000
535, 5.196152, 51.000000, 30.000000
536, 10.392304, 54.000000, 30.000000
537, 10.392304, 48.000000, 30.000000
538, 10.392304, 60.000000, 30.000000
539, 15.588457, 57.000000, 30.000000
540, 5.196152, 33.000000, 30.000000
541, 55.106216, 74.845390, 30.000000
542, 54.939793, 68.826057, 30.000000
543, 49.715904, 65.822830, 30.000000
544, 49.625729, 59.970470, 30.000000
545, 44.518135, 62.817371, 30.000000
546, 44.629971, 56.964642, 30.000000
547, 49.647106, 53.989185, 30.000000
548, 44.525242, 50.997997, 30.000000
549, 40.054169, 59.667313, 30.000000
550, 45.196411, 68.794792, 30.000000
551, 49.633213, 47.997864, 30.000000
552, 44.519703, 44.999821, 30.000000
553, 49.715527, 42.147793, 30.000000
554, 45.309849, 39.021664, 30.000000
555, 54.814671, 50.997841, 30.000000
556, 44.961819, 5.168872, 30.000000
557, 5.196152, 69.000000, 30.000000
558, 10.392304, 72.000000, 30.000000
559, 10.392304, 78.000000, 30.000000
560, 15.588457, 75.000000, 30.000000
561, 10.392304, 66.000000, 30.000000
562, 5.196152, 81.000000, 30.000000
563, 10.392304, 84.000000, 30.000000
564, 8.706916, 114.817894, 30.000000
565, 46.765373, 21.000000, 30.000000
566, 5.191434, 98.991829, 30.000000
567, 5.196152, 63.000000, 30.000000
568, 5.196152, 45.000000, 30.000000
569, 54.954319, 39.197506, 30.000000
570, 54.815224, 56.992916, 30.000000
571, 55.224464, 15.241272, 30.000000
572, 10.392304, 42.000000, 30.000000
573, 20.905720, 6.144097, 30.000000
574, 33.141689, 5.226165, 30.000000
575, 33.212894, 114.884293, 30.000000
576, 5.196152, 87.000000, 30.000000
577, 54.963924, 27.009001, 30.000000
578, 20.901110, 113.847717, 30.000000
579, 25.980721, 21.000010, 30.000000
580, 20.784607, 36.000000, 30.000000
581, 20.784609, 42.000000, 30.000000
582, 36.138096, 44.983574, 30.000000
583, 25.980762, 15.000000, 30.000000
584, 36.352180, 81.024315, 30.000000
585, 36.149441, 75.174316, 30.000000
586, 5.196064, 27.000019, 30.000000
587, 20.784184, 89.999931, 30.000000
588, 25.980762, 105.000000, 30.000000
589, 36.226307, 32.802429, 30.000000
590, 10.392200, 30.000023, 30.000000
591, 10.392287, 36.000004, 30.000000
592, 15.588453, 39.000000, 30.000000
593, 15.588456, 45.000000, 30.000000
594, 20.773615, 59.990948, 30.000000
595, 15.588457, 51.000000, 30.000000
596, 20.780401, 53.994377, 30.000000
597, 15.584237, 62.997559, 30.000000
598, 15.585367, 68.998657, 30.000000
599, 20.780931, 77.999382, 30.000000
600, 20.770256, 71.996681, 30.000000
601, 15.587683, 80.999870, 30.000000
602, 15.588094, 86.999939, 30.000000
603, 10.392242, 89.999992, 30.000000
604, 10.391504, 95.998634, 30.000000
605, 10.403410, 101.961227, 30.000000
606, 10.802190, 108.830215, 30.000000
607, 54.368740, 9.354397, 30.000000
608, 4.896705, 110.940552, 30.000000
609, 8.945772, 4.991304, 30.000000
610, 50.804268, 114.655952, 30.000000
611, 48.000000, 9.716813, 30.000000
612, 36.000000, 9.646171, 30.000000
613, 37.257801, 110.658554, 30.000000
614, 45.000000, 115.826859, 30.000000
615, 55.317150, 86.110931, 30.000000
616, 50.246685, 71.663445, 30.000000
617, 40.718277, 71.873177, 30.000000
618, 40.234421, 65.857643, 30.000000
619, 55.317059, 93.620735, 30.000000
620, 35.642738, 56.882858, 30.000000
621, 40.926357, 35.918350, 30.000000
622, 50.317417, 36.082916, 30.000000
623, 25.180555, 9.987037, 30.000000
624, 25.182985, 110.005524, 30.000000
625, 50.845997, 108.045143, 30.000000
626, 50.821625, 102.007195, 30.000000
627, 50.742954, 77.977783, 30.000000
628, 40.392303, 48.000000, 30.000000
629, 40.392303, 42.000000, 30.000000
630, 50.784611, 30.000000, 30.000000
631, 50.784611, 24.000000, 30.000000
632, 50.784611, 18.000000, 30.000000
633, 50.775589, 96.000000, 30.000000
634, 40.401325, 54.000000, 30.000000
635, 50.775589, 84.000000, 30.000000
636, 35.577309, 62.865089, 30.000000
637, 16.281355, 10.022024, 30.000000
638, 16.533140, 109.972885, 30.000000
639, 55.607697, 4.392305, 30.000000
640, 4.392305, 115.607697, 30.000000
641, 4.392305, 4.392305, 30.000000
642, 55.638245, 115.638245, 30.000000
643, 51.017925, 13.474565, 30.000000
644, 42.183445, 112.146072, 30.000000
645, 45.000000, 120.000000, 27.000000
646, 3.000000, 120.000000, 27.000000
647, 39.000000, 120.000000, 27.000000
648, 57.000000, 120.000000, 27.000000
649, 51.000000, 120.000000, 27.000000
650, 33.000000, 120.000000, 27.000000
651, 21.000000, 120.000000, 27.000000
652, 27.000000, 120.000000, 27.000000
653, 9.000000, 120.000000, 27.000000
654, 15.000000, 120.000000, 27.000000
655, 24.000000, 75.661880, 18.928591
656, 24.000000, 44.376163, 18.697115
657, 24.000000, 33.000000, 18.803848
658, 24.000000, 63.000000, 18.803848
659, 24.000000, 86.527229, 18.737301
660, 24.000000, 21.000000, 18.803848
661, 24.000000, 104.285919, 19.077967
662, 24.000000, 39.000000, 5.196152
663, 24.000000, 51.661877, 5.071410
664, 24.000000, 69.272194, 5.039003
665, 24.000000, 81.000000, 5.196152
666, 24.000000, 26.376163, 5.302886
667, 24.000000, 93.000000, 5.196152
668, 24.000000, 15.000000, 5.196152
669, 24.000000, 104.649971, 4.994064
670, 24.000000, 9.025424, 18.919367
671, 24.000000, 4.744237, 8.620564
672, 24.000000, 114.919365, 14.974576
673, 24.000000, 15.004237, 18.823101
674, 24.000000, 18.000706, 13.865130
675, 24.000000, 23.869877, 13.704799
676, 24.000000, 21.000000, 8.411543
677, 24.000000, 11.968210, 14.308217
678, 24.000000, 57.000000, 18.803848
679, 24.000000, 60.000000, 13.861922
680, 24.000000, 66.661880, 13.768756
681, 24.000000, 54.272190, 13.807216
682, 24.000000, 57.095467, 8.486588
683, 24.000000, 32.896027, 5.213942
684, 24.000000, 35.982670, 10.141043
685, 24.000000, 42.471001, 10.433213
686, 24.000000, 39.000000, 15.588457
687, 24.000000, 30.375811, 9.786828
688, 24.000000, 75.045364, 5.169961
689, 24.000000, 78.279755, 10.230790
690, 24.000000, 84.474144, 10.452062
691, 24.000000, 81.134712, 15.424153
692, 24.000000, 62.898041, 5.217543
693, 24.000000, 26.706121, 18.977180
694, 24.000000, 92.921204, 18.792757
695, 24.000000, 89.439217, 14.019141
696, 24.000000, 95.736580, 13.492207
697, 24.000000, 114.926384, 9.023880
698, 24.000000, 110.444244, 11.889138
699, 24.000000, 98.941666, 4.908244
700, 24.000000, 101.076004, 10.043049
701, 24.000000, 87.079025, 4.951885
702, 24.000000, 98.623222, 19.011074
703, 24.000000, 69.220627, 19.105707
704, 24.000000, 51.000000, 18.803848
705, 24.000000, 48.014339, 13.580158
706, 24.000000, 72.056725, 10.417979
707, 24.000000, 45.188812, 4.927953
708, 24.000000, 8.648192, 4.634675
709, 24.000000, 110.525810, 18.588884
710, 24.000000, 110.591682, 5.481899
711, 24.000000, 5.368760, 14.568342
712, 24.000000, 105.456619, 13.954803
713, 24.000000, 39.000000, 20.329208
714, 24.000000, 62.898361, 10.094004
715, 24.000000, 72.017075, 15.220615
716, 24.000000, 81.000000, 20.329208
717, 24.000000, 47.996853, 8.768215
718, 24.000000, 57.000000, 3.670792
719, 24.000000, 33.246475, 13.856709
720, 24.000000, 90.682022, 9.316555
721, 24.000000, 95.887253, 8.591242
722, 24.000000, 15.103075, 10.179126
723, 24.000000, 21.000000, 3.670792
724, 24.000000, 115.607697, 4.392305
725, 24.000000, 4.392305, 19.607695
726, 24.000000, 4.392305, 4.392305
727, 24.000000, 115.607697, 19.607695
728, 24.000000, 9.853126, 9.595250
729, 24.000000, 100.883102, 14.853768
730, 24.000000, 43.633144, 14.550591
731, 24.000000, 66.757439, 8.907456
732, 24.000000, 28.590521, 14.318892
733, 24.000000, 75.830032, 14.044426
734, 24.000000, 85.366859, 14.645562
735, 24.000000, 51.808147, 9.942718
736, 24.000000, 25.782316, 9.761209
737, 24.000000, 106.372375, 9.294606
738, 36.000000, 75.000000, 18.803848
739, 36.000000, 86.338120, 18.928591
740, 36.000000, 38.338123, 18.928591
741, 36.000000, 51.000000, 18.803848
742, 36.000000, 63.472771, 18.737301
743, 36.000000, 27.000000, 18.803848
744, 36.000000, 99.000000, 18.803848
745, 36.000000, 15.472770, 18.737301
746, 36.000000, 81.000000, 5.196152
747, 36.000000, 33.000000, 5.196152
748, 36.000000, 56.338123, 5.071410
749, 36.000000, 69.000000, 5.196152
750, 36.000000, 45.623837, 5.302886
751, 36.000000, 93.623840, 5.302886
752, 36.000000, 21.000000, 5.196152
753, 36.000000, 105.000000, 5.196152
754, 36.000000, 110.974579, 18.919367
755, 36.000000, 6.106820, 9.230207
756, 36.000000, 115.255760, 8.620564
757, 36.000000, 104.995766, 18.823101
758, 36.000000, 101.999290, 13.865130
759, 36.000000, 95.527161, 13.567417
760, 36.000000, 99.000000, 8.411543
761, 36.000000, 108.031792, 14.308217
762, 36.000000, 75.000000, 5.196152
763, 36.000000, 72.000000, 10.138078
764, 36.000000, 65.376160, 10.462720
765, 36.000000, 69.000000, 15.588457
766, 36.000000, 78.000000, 10.095707
767, 36.000000, 83.727806, 10.185722
768, 36.000000, 80.904533, 15.511575
769, 36.000000, 57.078796, 18.792757
770, 36.000000, 53.740944, 13.762996
771, 36.000000, 47.500797, 13.556994
772, 36.000000, 50.922550, 8.505429
773, 36.000000, 60.000000, 13.607696
774, 36.000000, 92.810883, 19.072151
775, 36.000000, 27.000000, 5.196152
776, 36.000000, 30.000000, 10.138078
777, 36.000000, 35.727810, 10.192784
778, 36.000000, 32.904533, 15.513412
779, 36.000000, 24.000000, 10.095707
780, 36.000000, 17.381153, 10.458447
781, 36.000000, 21.000000, 15.588457
782, 36.000000, 87.000000, 5.196152
783, 36.000000, 89.985588, 10.419602
784, 36.000000, 44.806488, 19.070415
785, 36.000000, 9.106113, 19.022345
786, 36.000000, 11.771551, 13.651080
787, 36.000000, 39.000000, 5.196152
788, 36.000000, 42.000000, 10.392304
789, 36.000000, 14.951718, 4.926713
790, 36.000000, 62.785713, 4.932871
791, 36.000000, 111.351807, 4.634675
792, 36.000000, 9.247628, 4.571438
793, 36.000000, 5.171412, 15.095855
794, 36.000000, 114.631241, 14.568342
795, 36.000000, 90.002922, 15.231835
796, 36.000000, 59.993069, 8.819798
797, 36.000000, 42.000893, 15.200737
798, 36.000000, 69.000000, 20.329208
799, 36.000000, 51.000000, 3.670792
800, 36.000000, 33.000000, 20.329208
801, 36.000000, 26.980907, 14.027901
802, 36.000000, 74.980904, 14.027533
803, 36.000000, 81.000000, 20.329208
804, 36.000000, 21.000000, 20.329208
805, 36.000000, 104.896927, 10.179126
806, 36.000000, 99.000000, 3.670792
807, 36.000000, 11.891774, 8.567577
808, 36.000000, 4.270890, 3.960329
809, 36.000000, 4.392305, 19.607695
810, 36.000000, 115.607697, 4.392305
811, 36.000000, 115.607697, 19.607695
812, 36.000000, 110.146873, 9.595250
813, 36.000000, 64.462234, 14.599043
814, 36.000000, 86.191795, 14.055465
815, 36.000000, 56.198936, 9.953465
816, 36.000000, 38.194271, 14.045566
817, 36.000000, 46.366856, 9.449409
818, 36.000000, 16.406368, 14.608821
819, 36.000000, 94.366859, 9.449409
820, 30.286037, 81.007431, 0.000000
821, 29.993576, 69.014572, 0.000000
822, 29.916496, 39.000000, 0.000000
823, 29.713997, 50.992485, 0.000000
824, 30.083504, 93.000000, 0.000000
825, 29.916496, 27.000000, 0.000000
826, 29.196152, 111.000000, 0.000000
827, 30.803848, 9.000000, 0.000000
828, 29.908730, 99.002510, 0.000000
829, 30.091270, 20.997490, 0.000000
830, 30.107740, 62.987701, 0.000000
831, 30.131413, 44.999107, 0.000000
832, 29.972166, 33.000000, 0.000000
833, 29.868591, 87.000885, 0.000000
834, 29.770874, 14.989459, 0.000000
835, 30.229126, 105.010544, 0.000000
836, 29.846874, 75.027596, 0.000000
837, 29.970289, 56.996696, 0.000000
838, 31.597906, 116.055290, 0.000000
839, 28.402094, 3.944710, 0.000000
840, 32.532108, 3.478873, 0.000000
841, 27.467892, 116.521126, 0.000000
842, 29.196152, 120.000000, 15.000000
843, 30.613905, 120.000000, 9.000000
844, 31.597906, 120.000000, 20.055290
845, 28.360735, 120.000000, 3.935756
846, 32.432747, 120.000000, 3.558111
847, 27.467892, 120.000000, 20.521128
848, 30.132902, 44.660591, 12.130751
849, 29.965998, 87.610924, 16.219574
850, 29.941177, 18.127974, 17.167938
851, 29.875145, 51.250305, 13.016201
852, 30.000000, 57.000000, 22.267950
853, 29.884966, 92.808693, 11.889307
854, 30.000000, 111.000000, 22.345337
855, 29.880783, 66.036095, 17.162775
856, 30.000000, 12.220188, 20.667625
857, 29.994171, 28.089424, 7.916356
858, 30.007885, 78.000000, 6.727479
859, 30.000000, 99.000000, 22.393307
860, 30.095449, 98.273079, 15.743443
861, 30.000000, 27.000000, 22.375904
862, 30.044062, 38.169159, 11.345765
863, 30.000000, 39.000000, 24.115427
864, 30.023994, 41.683876, 18.053461
865, 30.000000, 48.099674, 20.593445
866, 30.000000, 81.000000, 24.114082
867, 30.155476, 48.689125, 7.157394
868, 30.199312, 78.234833, 13.401060
869, 30.000000, 69.000000, 23.390497
870, 29.828327, 42.113598, 5.989614
871, 29.946630, 58.642521, 11.215707
872, 29.934376, 87.025063, 8.293252
873, 30.128582, 24.692934, 16.143370
874, 30.004408, 69.003052, 11.080160
875, 29.866556, 103.482277, 7.956926
876, 30.000000, 20.513767, 23.264240
877, 30.000000, 87.484428, 22.828850
878, 29.964134, 113.488708, 6.446497
879, 29.881508, 95.457405, 6.031560
880, 30.078535, 5.963037, 5.899412
881, 30.372425, 72.524437, 16.571465
882, 30.053793, 17.892414, 6.934562
883, 30.071012, 111.247169, 15.500801
884, 30.073631, 5.926369, 21.660072
885, 30.094250, 35.238037, 18.825068
886, 30.145308, 8.078270, 12.577164
887, 30.376945, 104.759911, 15.581164
888, 30.061638, 30.888662, 13.787239
889, 29.594126, 62.832905, 24.615484
890, 29.545713, 32.795147, 24.658823
891, 29.991142, 34.192890, 6.505331
892, 30.760941, 75.090614, 22.249516
893, 30.600632, 14.500438, 12.138678
894, 29.563740, 81.903793, 18.157459
895, 30.414701, 105.000000, 24.448782
896, 30.061123, 63.771767, 7.284813
897, 29.496382, 93.321892, 24.717775
898, 30.748913, 12.047178, 5.591897
899, 29.562508, 54.942944, 6.029148
900, 30.005629, 93.065369, 18.737284

*ELEMENT, TYPE=C3D4, ELSET=ALL_ELEMENTS
1, 749, 762, 858, 874
2, 678, 852, 851, 871
3, 749, 858, 821, 874
4, 821, 858, 664, 874
5, 749, 762, 821, 858
6, 734, 868, 849, 894
7, 676, 857, 736, 873
8, 852, 855, 769, 871
9, 851, 852, 769, 871
10, 773, 769, 855, 871
11, 664, 858, 688, 874
12, 464, 863, 465, 865
13, 679, 855, 852, 871
14, 679, 852, 678, 871
15, 836, 821, 762, 858
16, 121, 465, 863, 865
17, 688, 664, 836, 858
18, 679, 658, 678, 852
19, 119, 468, 467, 865
20, 674, 873, 850, 882
21, 466, 464, 465, 865
22, 119, 852, 468, 865
23, 676, 736, 675, 873
24, 679, 658, 852, 855
25, 779, 873, 857, 882
26, 676, 857, 873, 882
27, 836, 664, 821, 858
28, 681, 678, 851, 871
29, 145, 464, 466, 865
30, 742, 773, 769, 855
31, 742, 769, 852, 855
32, 468, 466, 467, 865
33, 676, 675, 674, 873
34, 850, 873, 781, 882
35, 146, 468, 852, 865
36, 144, 863, 464, 865
37, 144, 464, 145, 865
38, 721, 860, 853, 879
39, 468, 145, 466, 865
40, 676, 873, 674, 882
41, 146, 145, 468, 865
42, 741, 852, 851, 865
43, 583, 856, 125, 876
44, 812, 878, 875, 883
45, 770, 851, 769, 871
46, 813, 871, 855, 896
47, 769, 851, 741, 852
48, 721, 700, 860, 879
49, 814, 849, 767, 868
50, 678, 704, 851, 852
51, 781, 873, 779, 882
52, 780, 850, 781, 882
53, 737, 875, 883, 887
54, 814, 849, 868, 894
55, 121, 120, 465, 865
56, 851, 852, 704, 865
57, 813, 855, 874, 896
58, 767, 868, 849, 872
59, 583, 501, 856, 876
60, 850, 882, 780, 893
61, 120, 119, 467, 865
62, 583, 126, 125, 856
63, 780, 781, 779, 882
64, 723, 829, 857, 882
65, 623, 127, 126, 884
66, 688, 858, 706, 874
67, 140, 856, 501, 876
68, 844, 854, 847, 883
69, 734, 691, 868, 894
70, 700, 875, 860, 879
71, 763, 858, 762, 874
72, 674, 882, 850, 893
73, 730, 848, 656, 864
74, 466, 465, 120, 865
75, 752, 857, 829, 882
76, 501, 140, 139, 856
77, 775, 829, 752, 857
78, 697, 878, 843, 883
79, 764, 813, 874, 896
80, 835, 875, 753, 878
81, 723, 829, 666, 857
82, 812, 883, 875, 887
83, 623, 126, 522, 884
84, 690, 734, 691, 868
85, 727, 847, 854, 883
86, 737, 883, 698, 887
87, 467, 466, 120, 865
88, 730, 705, 656, 848
89, 835, 753, 791, 878
90, 749, 763, 762, 874
91, 664, 688, 706, 874
92, 730, 862, 848, 864
93, 821, 874, 664, 896
94, 697, 842, 672, 883
95, 749, 874, 821, 896
96, 696, 853, 721, 860
97, 769, 770, 741, 851
98, 853, 860, 760, 879
99, 860, 875, 760, 879
100, 764, 871, 813, 896
101, 714, 855, 871, 896
102, 501, 522, 583, 856
103, 775, 825, 829, 857
104, 723, 857, 676, 882
105, 814, 767, 849, 872
106, 127, 623, 438, 884
107, 690, 868, 858, 872
108, 714, 874, 855, 896
109, 773, 855, 813, 871
110, 858, 868, 706, 874
111, 681, 678, 704, 851
112, 522, 126, 856, 884
113, 705, 848, 851, 865
114, 723, 666, 676, 857
115, 814, 868, 768, 894
116, 737, 875, 710, 878
117, 835, 710, 669, 875
118, 784, 848, 864, 865
119, 863, 864, 121, 865
120, 771, 851, 848, 865
121, 812, 875, 805, 887
122, 848, 656, 864, 865
123, 501, 139, 522, 856
124, 667, 701, 833, 872
125, 858, 868, 767, 872
126, 742, 855, 852, 889
127, 583, 522, 126, 856
128, 852, 855, 658, 889
129, 144, 864, 863, 865
130, 696, 721, 700, 860
131, 763, 868, 858, 874
132, 811, 854, 844, 883
133, 835, 791, 826, 878
134, 666, 829, 825, 857
135, 623, 522, 438, 884
136, 861, 885, 800, 888
137, 820, 858, 746, 872
138, 824, 667, 872, 879
139, 701, 665, 833, 872
140, 697, 843, 842, 883
141, 760, 819, 853, 879
142, 814, 767, 768, 868
143, 819, 783, 853, 879
144, 752, 779, 857, 882
145, 665, 858, 820, 872
146, 813, 773, 742, 855
147, 837, 790, 896, 899
148, 169, 156, 575, 854
149, 832, 775, 747, 857
150, 705, 656, 848, 865
151, 760, 819, 759, 853
152, 824, 872, 751, 879
153, 784, 771, 848, 865
154, 824, 667, 833, 872
155, 782, 820, 746, 872
156, 714, 680, 855, 874
157, 837, 748, 790, 899
158, 812, 761, 883, 887
159, 679, 714, 855, 871
160, 522, 139, 138, 884
161, 729, 860, 700, 887
162, 854, 661, 887, 895
163, 29, 574, 221, 884
164, 145, 464, 582, 466
165, 824, 782, 751, 872
166, 847, 842, 844, 883
167, 483, 154, 496, 153
168, 488, 482, 142, 141
169, 482, 142, 461, 488
170, 743, 861, 800, 888
171, 689, 858, 690, 868
172, 761, 812, 805, 887
173, 522, 856, 139, 884
174, 169, 575, 437, 854
175, 468, 486, 466, 145
176, 154, 153, 483, 859
177, 670, 856, 884, 886
178, 142, 141, 482, 861
179, 142, 482, 461, 861
180, 760, 853, 759, 860
181, 486, 468, 146, 145
182, 736, 873, 857, 888
183, 169, 844, 156, 854
184, 665, 820, 833, 872
185, 464, 145, 582, 144
186, 574, 138, 221, 884
187, 756, 878, 812, 883
188, 847, 844, 169, 854
189, 695, 849, 734, 872
190, 861, 657, 885, 888
191, 706, 868, 733, 881
192, 115, 866, 475, 892
193, 754, 757, 854, 887
194, 475, 866, 476, 892
195, 832, 857, 747, 891
196, 522, 138, 574, 884
197, 847, 727, 842, 883
198, 673, 856, 850, 876
199, 797, 784, 848, 864
200, 817, 848, 851, 867
201, 657, 861, 693, 888
202, 818, 850, 780, 893
203, 832, 825, 775, 857
204, 824, 833, 782, 872
205, 475, 474, 116, 892
206, 757, 854, 887, 895
207, 348, 346, 725, 884
208, 169, 437, 109, 854
209, 764, 773, 813, 871
210, 819, 751, 783, 879
211, 780, 818, 781, 850
212, 711, 884, 346, 886
213, 146, 852, 741, 865
214, 706, 874, 868, 881
215, 698, 878, 697, 883
216, 673, 125, 856, 876
217, 156, 844, 811, 854
218, 474, 869, 116, 892
219, 770, 769, 773, 871
220, 785, 884, 856, 886
221, 670, 884, 711, 886
222, 746, 858, 767, 872
223, 760, 860, 758, 875
224, 665, 690, 858, 872
225, 468, 119, 469, 852
226, 736, 732, 873, 888
227, 783, 872, 853, 879
228, 817, 848, 771, 851
229, 655, 892, 881, 894
230, 847, 169, 109, 854
231, 859, 860, 661, 887
232, 861, 873, 693, 888
233, 790, 830, 837, 896
234, 681, 679, 678, 871
235, 689, 706, 858, 868
236, 757, 887, 859, 895
237, 124, 861, 482, 876
238, 860, 875, 700, 887
239, 833, 820, 782, 872
240, 754, 854, 883, 887
241, 655, 881, 868, 894
242, 859, 887, 661, 895
243, 747, 832, 199, 775
244, 709, 854, 661, 887
245, 459, 482, 124, 861
246, 685, 848, 730, 862
247, 478, 484, 151, 877
248, 169, 650, 575, 156
249, 478, 480, 484, 877
250, 119, 704, 852, 865
251, 730, 686, 862, 864
252, 154, 483, 496, 495
253, 796, 871, 896, 899
254, 468, 620, 146, 852
255, 828, 669, 699, 875
256, 737, 698, 712, 887
257, 842, 843, 794, 883
258, 702, 661, 859, 860
259, 797, 848, 862, 864
260, 483, 495, 154, 859
261, 468, 470, 620, 852
262, 698, 737, 710, 878
263, 121, 864, 656, 865
264, 850, 856, 745, 876
265, 856, 886, 677, 893
266, 673, 677, 850, 856
267, 784, 864, 144, 865
268, 766, 858, 763, 868
269, 868, 874, 763, 881
270, 737, 669, 710, 875
271, 711, 725, 346, 884
272, 714, 680, 679, 855
273, 478, 866, 479, 877
274, 683, 857, 832, 891
275, 757, 744, 859, 887
276, 816, 864, 862, 885
277, 851, 735, 871, 899
278, 683, 666, 825, 857
279, 670, 677, 856, 886
280, 140, 745, 856, 876
281, 124, 482, 579, 876
282, 802, 868, 763, 881
283, 832, 683, 825, 857
284, 574, 438, 29, 221
285, 690, 695, 734, 872
286, 474, 476, 585, 892
287, 111, 492, 859, 895
288, 736, 732, 675, 873
289, 833, 667, 177, 701
290, 758, 875, 860, 887
291, 152, 151, 484, 877
292, 152, 484, 480, 877
293, 147, 742, 852, 889
294, 346, 884, 793, 886
295, 775, 752, 779, 857
296, 698, 697, 672, 883
297, 29, 221, 138, 884
298, 756, 812, 794, 883
299, 715, 706, 733, 881
300, 474, 585, 149, 892
301, 727, 847, 109, 854
302, 661, 854, 110, 895
303, 681, 851, 735, 871
304, 741, 851, 771, 865
305, 736, 676, 666, 857
306, 749, 206, 821, 762
307, 815, 851, 871, 899
308, 660, 873, 861, 876
309, 470, 147, 620, 852
310, 717, 867, 848, 870
311, 689, 733, 706, 868
312, 150, 585, 476, 892
313, 744, 860, 859, 887
314, 620, 147, 146, 852
315, 848, 867, 817, 870
316, 716, 866, 892, 894
317, 474, 475, 476, 892
318, 479, 866, 114, 877
319, 850, 856, 677, 893
320, 829, 775, 752, 198
321, 709, 883, 854, 887
322, 522, 574, 438, 884
323, 702, 729, 661, 860
324, 661, 860, 729, 887
325, 784, 771, 797, 848
326, 779, 801, 857, 873
327, 828, 806, 875, 879
328, 785, 793, 884, 886
329, 482, 141, 493, 876
330, 815, 772, 851, 899
331, 150, 149, 585, 892
332, 743, 873, 861, 888
333, 725, 711, 670, 884
334, 718, 692, 682, 899
335, 766, 767, 858, 868
336, 828, 875, 699, 879
337, 751, 872, 783, 879
338, 115, 477, 475, 866
339, 124, 459, 579, 482
340, 477, 476, 475, 866
341, 463, 121, 465, 863
342, 156, 155, 516, 854
343, 463, 465, 464, 863
344, 479, 478, 477, 866
345, 692, 896, 682, 899
346, 832, 825, 199, 775
347, 717, 848, 685, 870
348, 148, 869, 855, 889
349, 181, 821, 664, 896
350, 118, 469, 852, 889
351, 438, 21, 29, 221
352, 140, 493, 141, 876
353, 716, 892, 655, 894
354, 115, 475, 116, 892
355, 786, 886, 856, 893
356, 665, 833, 178, 701
357, 469, 467, 119, 468
358, 601, 559, 563, 342
359, 205, 749, 821, 896
360, 749, 205, 790, 896
361, 700, 721, 699, 879
362, 814, 849, 783, 872
363, 800, 885, 861, 890
364, 727, 672, 842, 883
365, 716, 866, 115, 892
366, 857, 873, 801, 888
367, 148, 855, 742, 889
368, 818, 745, 850, 893
369, 181, 664, 692, 896
370, 817, 788, 848, 870
371, 806, 835, 828, 875
372, 861, 885, 657, 890
373, 836, 821, 206, 762
374, 109, 652, 437, 169
375, 816, 862, 778, 885
376, 116, 474, 473, 869
377, 470, 852, 469, 889
378, 522, 612, 138, 139
379, 825, 775, 829, 198
380, 690, 689, 665, 858
381, 29, 438, 574, 884
382, 118, 852, 658, 889
383, 459, 461, 861, 890
384, 660, 861, 124, 876
385, 154, 757, 859, 895
386, 669, 828, 835, 875
387, 664, 874, 731, 896
388, 479, 477, 114, 866
389, 459, 861, 123, 890
390, 849, 853, 783, 872
391, 667, 833, 177, 824
392, 745, 856, 850, 893
393, 155, 854, 757, 895
394, 806, 753, 835, 875
395, 475, 473, 116, 474
396, 682, 896, 871, 899
397, 467, 465, 120, 466
398, 703, 869, 881, 892
399, 139, 501, 521, 140
400, 785, 856, 786, 886
401, 797, 862, 816, 864
402, 660, 693, 861, 873
403, 717, 851, 848, 867
404, 468, 469, 470, 852
405, 459, 461, 482, 861
406, 825, 666, 683, 187
407, 862, 885, 719, 888
408, 703, 116, 869, 892
409, 480, 877, 479, 897
410, 861, 873, 804, 876
411, 738, 892, 803, 894
412, 495, 859, 492, 895
413, 227, 233, 432, 64
414, 227, 296, 64, 432
415, 436, 240, 42, 567
416, 233, 64, 568, 432
417, 436, 268, 240, 567
418, 434, 228, 287, 557
419, 432, 234, 267, 540
420, 567, 557, 268, 240
421, 432, 234, 65, 267
422, 46, 234, 432, 540
423, 46, 65, 432, 234
424, 228, 232, 40, 434
425, 40, 228, 434, 557
426, 39, 238, 562, 434
427, 296, 568, 64, 432
428, 65, 432, 267, 296
429, 227, 233, 45, 432
430, 557, 287, 268, 240
431, 557, 228, 287, 240
432, 65, 432, 296, 227
433, 65, 46, 432, 227
434, 233, 568, 45, 432
435, 228, 60, 287, 240
436, 41, 228, 557, 240
437, 268, 287, 60, 240
438, 41, 557, 567, 240
439, 233, 568, 64, 266
440, 266, 568, 64, 296
441, 705, 851, 704, 865
442, 492, 859, 483, 897
443, 700, 699, 875, 879
444, 575, 156, 516, 854
445, 436, 240, 304, 42
446, 268, 436, 240, 304
447, 754, 757, 155, 854
448, 233, 44, 568, 307
449, 44, 535, 568, 307
450, 568, 233, 307, 266
451, 151, 866, 877, 894
452, 436, 43, 304, 307
453, 574, 522, 612, 138
454, 43, 436, 535, 307
455, 47, 234, 540, 316
456, 304, 43, 236, 307
457, 44, 63, 307, 233
458, 63, 44, 307, 230
459, 236, 436, 43, 304
460, 586, 47, 540, 316
461, 540, 234, 267, 316
462, 240, 42, 61, 304
463, 61, 42, 236, 304
464, 667, 720, 872, 879
465, 236, 230, 307, 43
466, 230, 236, 307, 62
467, 535, 44, 230, 307
468, 304, 236, 62, 307
469, 307, 233, 63, 266
470, 208, 746, 782, 820
471, 49, 239, 441, 277
472, 824, 751, 782, 209
473, 830, 205, 821, 896
474, 236, 42, 436, 304
475, 240, 61, 268, 304
476, 231, 48, 67, 316
477, 239, 67, 48, 316
478, 43, 535, 230, 307
479, 821, 181, 830, 896
480, 268, 567, 436, 292
481, 234, 231, 316, 47
482, 231, 234, 316, 66
483, 473, 117, 869, 889
484, 695, 853, 849, 872
485, 688, 664, 180, 836
486, 277, 239, 441, 282
487, 492, 112, 859, 897
488, 239, 67, 316, 282
489, 268, 436, 304, 292
490, 48, 231, 586, 316
491, 586, 231, 47, 316
492, 234, 66, 267, 316
493, 436, 567, 538, 292
494, 110, 624, 516, 854
495, 571, 391, 365, 263
496, 837, 204, 790, 748
497, 239, 225, 277, 49
498, 225, 239, 277, 68
499, 830, 790, 205, 896
500, 547, 551, 548, 394
501, 849, 877, 739, 900
502, 175, 669, 699, 828
503, 560, 601, 275, 342
504, 717, 705, 848, 851
505, 660, 850, 873, 876
506, 658, 855, 117, 889
507, 682, 871, 735, 899
508, 853, 872, 720, 879
509, 68, 239, 277, 282
510, 441, 586, 284, 282
511, 655, 716, 115, 892
512, 809, 346, 349, 884
513, 117, 855, 869, 889
514, 316, 284, 586, 282
515, 686, 719, 862, 885
516, 121, 122, 463, 581
517, 580, 463, 122, 581
518, 491, 599, 115, 477
519, 479, 877, 113, 897
520, 147, 742, 769, 852
521, 600, 117, 473, 490
522, 221, 22, 5, 138
523, 5, 22, 222, 138
524, 221, 5, 29, 138
525, 661, 709, 110, 854
526, 744, 153, 859, 900
527, 757, 744, 154, 859
528, 825, 683, 832, 187
529, 567, 268, 291, 292
530, 110, 109, 624, 854
531, 284, 283, 441, 282
532, 659, 877, 849, 900
533, 482, 861, 141, 876
534, 743, 800, 778, 888
535, 737, 712, 875, 887
536, 561, 558, 291, 557
537, 125, 124, 497, 579
538, 457, 497, 124, 579
539, 498, 112, 492, 494
540, 703, 881, 655, 892
541, 441, 586, 454, 284
542, 795, 783, 849, 853
543, 308, 112, 498, 494
544, 250, 253, 362, 104
545, 520, 87, 440, 259
546, 678, 658, 118, 852
547, 473, 869, 472, 889
548, 494, 308, 276, 505
549, 660, 693, 124, 861
550, 494, 504, 308, 505
551, 111, 112, 492, 498
552, 624, 109, 437, 854
553, 112, 111, 308, 498
554, 259, 520, 87, 246
555, 246, 259, 520, 106
556, 123, 861, 657, 890
557, 703, 655, 116, 892
558, 674, 722, 882, 893
559, 289, 563, 559, 342
560, 795, 783, 814, 849
561, 260, 258, 577, 93
562, 258, 260, 577, 74
563, 768, 868, 738, 894
564, 72, 391, 571, 263
565, 346, 809, 793, 884
566, 692, 830, 181, 896
567, 151, 877, 739, 894
568, 314, 601, 563, 342
569, 817, 851, 772, 867
570, 221, 574, 22, 138
571, 850, 804, 873, 876
572, 463, 122, 863, 890
573, 253, 250, 362, 85
574, 151, 803, 866, 894
575, 441, 283, 277, 282
576, 21, 438, 574, 221
577, 681, 735, 682, 871
578, 445, 577, 74, 258
579, 557, 268, 291, 567
580, 291, 287, 268, 557
581, 106, 520, 246, 358
582, 265, 232, 228, 434
583, 562, 238, 265, 434
584, 287, 265, 228, 434
585, 232, 265, 39, 434
586, 232, 59, 265, 228
587, 238, 39, 265, 434
588, 265, 58, 39, 238
589, 59, 287, 265, 228
590, 39, 58, 265, 232
591, 562, 265, 559, 434
592, 29, 220, 438, 884
593, 815, 851, 770, 871
594, 715, 855, 874, 881
595, 782, 833, 824, 209
596, 504, 309, 308, 505
597, 276, 308, 309, 505
598, 482, 493, 501, 876
599, 798, 855, 148, 869
600, 391, 91, 365, 263
601, 501, 521, 522, 139
602, 345, 671, 711, 886
603, 548, 547, 394, 393
604, 543, 375, 544, 545
605, 687, 684, 888, 891
606, 442, 222, 22, 138
607, 178, 833, 665, 820
608, 818, 786, 745, 893
609, 119, 118, 469, 852
610, 745, 786, 856, 893
611, 800, 885, 778, 888
612, 729, 696, 700, 860
613, 694, 695, 853, 900
614, 463, 460, 122, 890
615, 473, 471, 117, 889
616, 140, 501, 493, 876
617, 463, 863, 462, 890
618, 116, 117, 473, 600
619, 151, 739, 803, 894
620, 862, 888, 684, 891
621, 308, 278, 317, 504
622, 777, 776, 888, 891
623, 778, 885, 862, 888
624, 440, 520, 259, 381
625, 156, 613, 516, 155
626, 298, 591, 572, 432
627, 590, 298, 540, 591
628, 106, 259, 520, 381
629, 276, 494, 587, 113
630, 587, 494, 481, 113
631, 587, 491, 114, 479
632, 491, 115, 114, 477
633, 127, 438, 220, 884
634, 739, 849, 814, 894
635, 802, 766, 763, 868
636, 296, 297, 568, 432
637, 568, 266, 297, 296
638, 688, 689, 706, 858
639, 72, 91, 391, 263
640, 91, 72, 391, 262
641, 715, 874, 706, 881
642, 686, 862, 864, 885
643, 661, 111, 859, 895
644, 75, 577, 435, 254
645, 557, 291, 561, 567
646, 777, 888, 862, 891
647, 494, 276, 112, 113
648, 494, 112, 481, 113
649, 479, 481, 480, 897
650, 292, 436, 304, 295
651, 520, 450, 88, 404
652, 403, 85, 253, 362
653, 659, 694, 877, 900
654, 698, 883, 712, 887
655, 849, 853, 695, 900
656, 712, 729, 700, 887
657, 358, 106, 520, 381
658, 301, 535, 537, 536
659, 246, 520, 88, 404
660, 436, 535, 307, 295
661, 804, 850, 745, 876
662, 759, 853, 795, 900
663, 92, 385, 571, 258
664, 702, 859, 112, 900
665, 307, 304, 436, 295
666, 732, 657, 693, 888
667, 830, 837, 204, 790
668, 624, 437, 516, 854
669, 760, 875, 806, 879
670, 817, 771, 772, 851
671, 463, 462, 460, 890
672, 298, 296, 267, 432
673, 432, 267, 298, 540
674, 284, 586, 299, 316
675, 740, 864, 816, 885
676, 670, 856, 126, 884
677, 504, 308, 278, 498
678, 543, 373, 375, 545
679, 596, 120, 119, 467
680, 120, 596, 489, 467
681, 673, 125, 126, 856
682, 623, 126, 583, 522
683, 148, 798, 742, 855
684, 119, 704, 678, 852
685, 491, 599, 275, 115
686, 94, 75, 254, 577
687, 94, 75, 577, 260
688, 795, 853, 849, 900
689, 602, 491, 601, 313
690, 800, 861, 142, 890
691, 505, 276, 587, 313
692, 587, 602, 505, 313
693, 797, 848, 788, 862
694, 568, 307, 301, 266
695, 297, 572, 568, 432
696, 123, 459, 124, 861
697, 385, 365, 92, 571
698, 473, 472, 471, 889
699, 773, 764, 796, 871
700, 110, 854, 516, 895
701, 799, 202, 750, 867
702, 307, 568, 301, 535
703, 744, 774, 153, 900
704, 754, 854, 811, 883
705, 403, 253, 104, 362
706, 492, 112, 111, 859
707, 143, 142, 589, 890
708, 821, 180, 664, 836
709, 297, 298, 572, 432
710, 145, 784, 144, 865
711, 768, 738, 803, 894
712, 146, 741, 145, 865
713, 153, 152, 527, 897
714, 445, 571, 385, 258
715, 796, 871, 764, 896
716, 479, 113, 481, 897
717, 796, 815, 871, 899
718, 714, 731, 874, 896
719, 694, 853, 696, 900
720, 774, 739, 877, 900
721, 483, 492, 495, 859
722, 670, 126, 127, 884
723, 662, 870, 862, 891
724, 436, 535, 295, 536
725, 520, 246, 358, 404
726, 823, 202, 799, 867
727, 593, 572, 537, 302
728, 558, 560, 290, 559
729, 816, 777, 778, 862
730, 760, 759, 758, 860
731, 741, 146, 769, 852
732, 143, 589, 462, 890
733, 298, 590, 540, 299
734, 474, 149, 869, 892
735, 278, 111, 511, 498
736, 432, 298, 591, 540
737, 504, 278, 317, 510
738, 804, 745, 140, 876
739, 689, 690, 691, 868
740, 866, 803, 892, 894
741, 588, 110, 624, 516
742, 782, 833, 208, 820
743, 298, 297, 296, 432
744, 114, 113, 587, 479
745, 153, 527, 483, 897
746, 835, 212, 791, 753
747, 50, 69, 225, 318
748, 69, 50, 226, 318
749, 732, 693, 873, 888
750, 151, 150, 584, 866
751, 680, 715, 855, 874
752, 558, 559, 288, 434
753, 535, 301, 295, 536
754, 480, 478, 479, 877
755, 289, 314, 563, 342
756, 476, 584, 150, 866
757, 480, 527, 152, 897
758, 142, 861, 461, 890
759, 265, 315, 238, 562
760, 58, 265, 315, 238
761, 255, 569, 77, 443
762, 151, 866, 478, 877
763, 300, 591, 590, 502
764, 590, 456, 300, 502
765, 604, 505, 603, 310
766, 72, 391, 607, 571
767, 151, 584, 478, 866
768, 288, 291, 558, 557
769, 774, 849, 739, 900
770, 568, 266, 301, 297
771, 111, 588, 511, 498
772, 793, 755, 135, 886
773, 485, 474, 149, 869
774, 309, 317, 312, 504
775, 540, 299, 590, 586
776, 539, 536, 538, 294
777, 435, 577, 356, 254
778, 297, 537, 572, 302
779, 655, 733, 868, 881
780, 766, 762, 763, 858
781, 265, 559, 289, 562
782, 483, 859, 153, 897
783, 575, 516, 437, 854
784, 728, 893, 886, 898
785, 485, 149, 148, 869
786, 148, 472, 485, 869
787, 536, 292, 538, 294
788, 535, 568, 301, 537
789, 394, 547, 551, 395
790, 267, 299, 298, 540
791, 565, 415, 499, 506
792, 255, 78, 417, 443
793, 793, 135, 346, 886
794, 434, 287, 288, 557
795, 93, 356, 577, 260
796, 235, 38, 315, 576
797, 80, 251, 570, 410
798, 313, 601, 602, 314
799, 677, 674, 673, 850
800, 510, 504, 278, 498
801, 511, 110, 111, 278
802, 469, 118, 471, 889
803, 417, 79, 251, 570
804, 184, 707, 831, 867
805, 88, 246, 404, 107
806, 404, 247, 88, 107
807, 115, 275, 491, 114
808, 785, 793, 809, 884
809, 291, 288, 287, 557
810, 301, 307, 535, 295
811, 784, 741, 771, 865
812, 767, 746, 766, 858
813, 587, 491, 313, 114
814, 153, 897, 859, 900
815, 505, 604, 309, 310
816, 113, 877, 694, 900
817, 828, 175, 669, 835
818, 416, 569, 255, 443
819, 650, 575, 437, 169
820, 591, 590, 298, 300
821, 433, 570, 544, 376
822, 862, 870, 787, 891
823, 555, 551, 395, 443
824, 249, 542, 541, 409
825, 712, 700, 875, 887
826, 452, 49, 441, 277
827, 754, 761, 757, 887
828, 122, 121, 272, 581
829, 580, 122, 272, 581
830, 592, 581, 272, 593
831, 272, 502, 580, 592
832, 555, 395, 547, 570
833, 555, 417, 78, 443
834, 812, 753, 805, 875
835, 29, 127, 220, 884
836, 450, 247, 88, 404
837, 576, 38, 315, 562
838, 117, 855, 703, 869
839, 751, 782, 783, 872
840, 511, 110, 588, 111
841, 722, 893, 728, 898
842, 662, 186, 822, 891
843, 655, 868, 691, 894
844, 433, 80, 570, 410
845, 416, 569, 77, 255
846, 505, 276, 313, 310
847, 313, 602, 505, 310
848, 685, 730, 686, 862
849, 733, 691, 655, 868
850, 275, 290, 560, 342
851, 79, 417, 555, 570
852, 672, 842, 697, 171
853, 857, 888, 776, 891
854, 743, 804, 861, 873
855, 120, 121, 656, 865
856, 263, 258, 571, 73
857, 258, 263, 571, 92
858, 123, 693, 657, 861
859, 822, 870, 662, 891
860, 274, 117, 600, 490
861, 563, 603, 602, 343
862, 598, 274, 560, 600
863, 687, 684, 719, 888
864, 772, 867, 851, 899
865, 597, 538, 292, 294
866, 577, 94, 356, 254
867, 744, 859, 860, 900
868, 452, 225, 49, 277
869, 851, 867, 735, 899
870, 318, 69, 225, 277
871, 470, 147, 852, 889
872, 275, 601, 491, 313
873, 859, 897, 112, 900
874, 676, 674, 722, 882
875, 434, 288, 558, 557
876, 575, 613, 516, 156
877, 142, 461, 589, 890
878, 542, 541, 82, 249
879, 559, 601, 560, 342
880, 853, 860, 696, 900
881, 687, 888, 857, 891
882, 226, 50, 451, 318
883, 707, 184, 663, 867
884, 289, 563, 329, 562
885, 144, 740, 863, 864
886, 123, 460, 459, 890
887, 713, 121, 863, 864
888, 755, 886, 807, 898
889, 407, 224, 24, 449
890, 476, 866, 150, 892
891, 796, 748, 815, 899
892, 593, 595, 489, 273
893, 659, 849, 694, 900
894, 539, 596, 595, 273
895, 161, 614, 645, 649
896, 701, 667, 720, 872
897, 697, 724, 845, 878
898, 694, 702, 112, 900
899, 538, 597, 539, 294
900, 262, 72, 391, 607
901, 265, 288, 559, 434
902, 694, 695, 696, 853
903, 759, 860, 853, 900
904, 439, 37, 334, 269
905, 684, 862, 719, 888
906, 754, 883, 761, 887
907, 559, 560, 290, 342
908, 376, 375, 544, 543
909, 777, 778, 862, 888
910, 224, 556, 24, 449
911, 249, 541, 82, 409
912, 632, 385, 388, 631
913, 714, 731, 680, 874
914, 547, 394, 393, 395
915, 787, 870, 822, 891
916, 156, 169, 14, 844
917, 560, 598, 558, 324
918, 571, 365, 92, 263
919, 346, 345, 711, 886
920, 141, 861, 804, 876
921, 127, 29, 348, 884
922, 56, 37, 235, 334
923, 56, 37, 334, 237
924, 297, 301, 537, 302
925, 439, 334, 37, 237
926, 345, 880, 671, 886
927, 682, 714, 871, 896
928, 456, 455, 270, 457
929, 314, 563, 602, 343
930, 433, 542, 376, 543
931, 788, 862, 848, 870
932, 117, 658, 703, 855
933, 110, 516, 588, 895
934, 659, 694, 113, 877
935, 295, 292, 536, 294
936, 283, 452, 441, 277
937, 782, 746, 767, 872
938, 476, 478, 584, 866
939, 665, 701, 690, 872
940, 755, 880, 345, 886
941, 674, 850, 677, 893
942, 114, 877, 866, 894
943, 246, 358, 404, 107
944, 125, 124, 270, 497
945, 235, 238, 315, 38
946, 497, 124, 270, 457
947, 113, 587, 313, 114
948, 722, 882, 893, 898
949, 806, 211, 835, 753
950, 299, 298, 590, 300
951, 770, 815, 772, 851
952, 877, 897, 152, 900
953, 813, 855, 765, 874
954, 469, 471, 470, 889
955, 290, 558, 559, 288
956, 472, 474, 485, 869
957, 140, 745, 139, 856
958, 117, 116, 274, 600
959, 577, 356, 94, 260
960, 207, 762, 746, 858
961, 880, 728, 886, 898
962, 164, 437, 652, 169
963, 437, 164, 650, 169
964, 200, 787, 822, 891
965, 685, 848, 862, 870
966, 265, 287, 288, 434
967, 29, 138, 349, 884
968, 223, 224, 407, 27
969, 224, 223, 407, 24
970, 73, 571, 445, 258
971, 631, 632, 385, 445
972, 723, 189, 829, 882
973, 702, 860, 859, 900
974, 365, 385, 632, 571
975, 349, 346, 348, 884
976, 807, 886, 893, 898
977, 603, 311, 604, 310
978, 270, 497, 455, 518
979, 487, 143, 462, 863
980, 578, 511, 110, 624
981, 313, 275, 601, 314
982, 480, 483, 527, 897
983, 220, 21, 29, 438
984, 114, 659, 877, 894
985, 269, 603, 439, 576
986, 452, 50, 225, 318
987, 747, 787, 200, 891
988, 375, 376, 373, 543
989, 24, 407, 449, 223
990, 653, 281, 129, 446
991, 385, 632, 571, 445
992, 460, 461, 459, 890
993, 348, 6, 29, 127
994, 119, 120, 704, 865
995, 662, 862, 684, 891
996, 594, 597, 330, 539
997, 446, 281, 129, 305
998, 184, 831, 823, 867
999, 685, 862, 662, 870
1000, 238, 315, 38, 562
1001, 385, 386, 388, 631
1002, 798, 881, 869, 892
1003, 212, 791, 826, 835
1004, 776, 857, 801, 888
1005, 610, 406, 614, 158
1006, 705, 704, 656, 865
1007, 774, 877, 152, 900
1008, 315, 265, 289, 562
1009, 490, 598, 293, 597
1010, 823, 663, 184, 867
1011, 311, 309, 604, 310
1012, 459, 303, 457, 458
1013, 604, 332, 311, 566
1014, 280, 318, 451, 285
1015, 599, 601, 275, 560
1016, 755, 880, 886, 898
1017, 464, 144, 487, 863
1018, 559, 563, 289, 562
1019, 750, 817, 867, 870
1020, 492, 481, 112, 897
1021, 124, 303, 457, 459
1022, 758, 805, 875, 887
1023, 225, 452, 318, 277
1024, 254, 356, 435, 402
1025, 143, 487, 144, 863
1026, 215, 447, 18, 217
1027, 343, 603, 311, 269
1028, 238, 235, 315, 57
1029, 127, 126, 279, 623
1030, 774, 795, 849, 900
1031, 683, 186, 662, 891
1032, 707, 867, 717, 870
1033, 113, 897, 877, 900
1034, 739, 877, 849, 894
1035, 273, 596, 489, 120
1036, 120, 273, 596, 119
1037, 604, 312, 332, 566
1038, 439, 604, 311, 566
1039, 123, 303, 459, 458
1040, 727, 854, 709, 883
1041, 139, 785, 138, 884
1042, 768, 739, 814, 894
1043, 124, 303, 459, 123
1044, 614, 649, 610, 158
1045, 139, 856, 785, 884
1046, 153, 774, 897, 900
1047, 744, 860, 774, 900
1048, 789, 197, 834, 882
1049, 50, 452, 451, 318
1050, 5, 29, 138, 349
1051, 211, 835, 828, 806
1052, 752, 197, 789, 882
1053, 836, 762, 207, 858
1054, 777, 862, 787, 891
1055, 721, 853, 720, 879
1056, 702, 694, 860, 900
1057, 147, 148, 742, 889
1058, 269, 439, 37, 576
1059, 774, 795, 739, 849
1060, 697, 845, 843, 878
1061, 125, 124, 579, 876
1062, 799, 823, 867, 899
1063, 368, 224, 27, 407
1064, 605, 312, 317, 504
1065, 446, 129, 653, 654
1066, 682, 692, 714, 896
1067, 269, 37, 334, 235
1068, 558, 291, 324, 561
1069, 707, 717, 685, 870
1070, 659, 734, 849, 894
1071, 114, 716, 659, 894
1072, 76, 435, 569, 416
1073, 330, 471, 117, 490
1074, 750, 202, 831, 867
1075, 807, 893, 882, 898
1076, 415, 499, 390, 565
1077, 749, 764, 874, 896
1078, 148, 472, 869, 889
1079, 291, 293, 561, 292
1080, 254, 94, 356, 402
1081, 703, 855, 715, 881
1082, 589, 461, 462, 890
1083, 542, 249, 363, 409
1084, 647, 163, 156, 444
1085, 472, 148, 636, 889
1086, 695, 720, 853, 872
1087, 558, 290, 560, 324
1088, 774, 152, 897, 900
1089, 654, 446, 129, 305
1090, 603, 439, 311, 269
1091, 152, 774, 739, 877
1092, 440, 633, 626, 421
1093, 519, 279, 637, 518
1094, 759, 774, 860, 900
1095, 490, 330, 471, 594
1096, 315, 269, 235, 576
1097, 431, 83, 541, 351
1098, 448, 243, 34, 608
1099, 285, 318, 452, 277
1100, 189, 723, 668, 882
1101, 688, 179, 665, 858
1102, 623, 126, 279, 519
1103, 269, 334, 56, 235
1104, 332, 334, 439, 237
1105, 333, 454, 590, 284
1106, 798, 855, 869, 881
1107, 570, 355, 544, 376
1108, 439, 311, 332, 566
1109, 359, 395, 551, 443
1110, 200, 822, 832, 891
1111, 593, 581, 272, 302
1112, 31, 447, 215, 217
1113, 788, 787, 862, 870
1114, 785, 745, 786, 856
1115, 694, 696, 860, 900
1116, 152, 877, 480, 897
1117, 807, 882, 789, 898
1118, 110, 109, 578, 624
1119, 167, 446, 653, 654
1120, 355, 547, 395, 570
1121, 832, 822, 186, 891
1122, 257, 81, 249, 410
1123, 82, 101, 249, 409
1124, 252, 248, 409, 83
1125, 254, 76, 261, 416
1126, 99, 80, 410, 251
1127, 256, 251, 417, 79
1128, 252, 101, 82, 409
1129, 255, 256, 417, 78
1130, 96, 77, 416, 261
1131, 77, 96, 416, 255
1132, 248, 252, 409, 102
1133, 249, 100, 257, 410
1134, 254, 261, 95, 416
1135, 80, 99, 410, 257
1136, 255, 256, 97, 417
1137, 256, 251, 98, 417
1138, 153, 352, 509, 527
1139, 114, 866, 716, 894
1140, 147, 636, 148, 889
1141, 351, 83, 541, 409
1142, 440, 633, 421, 381
1143, 272, 592, 593, 302
1144, 526, 406, 614, 610
1145, 492, 483, 481, 897
1146, 649, 614, 645, 158
1147, 330, 117, 471, 118
1148, 283, 285, 452, 277
1149, 479, 114, 113, 877
1150, 255, 359, 416, 443
1151, 417, 359, 255, 443
1152, 570, 251, 355, 410
1153, 799, 203, 823, 899
1154, 556, 224, 407, 449
1155, 318, 452, 451, 285
1156, 560, 274, 290, 600
1157, 406, 645, 614, 158
1158, 625, 450, 520, 404
1159, 256, 79, 417, 555
1160, 256, 417, 78, 555
1161, 251, 355, 417, 570
1162, 565, 632, 388, 631
1163, 81, 257, 433, 410
1164, 433, 257, 80, 410
1165, 673, 670, 677, 856
1166, 780, 779, 752, 882
1167, 647, 650, 156, 163
1168, 706, 731, 664, 874
1169, 289, 559, 290, 342
1170, 752, 829, 197, 882
1171, 703, 869, 855, 881
1172, 502, 300, 272, 580
1173, 361, 151, 584, 529
1174, 823, 831, 202, 867
1175, 161, 614, 649, 610
1176, 261, 76, 569, 416
1177, 679, 680, 658, 855
1178, 487, 462, 464, 863
1179, 748, 203, 799, 899
1180, 336, 279, 519, 518
1181, 747, 200, 832, 891
1182, 272, 300, 502, 592
1183, 310, 602, 603, 343
1184, 594, 330, 471, 118
1185, 576, 315, 329, 562
1186, 302, 593, 489, 273
1187, 747, 857, 776, 891
1188, 820, 207, 746, 858
1189, 755, 807, 792, 898
1190, 153, 774, 152, 897
1191, 261, 569, 77, 416
1192, 348, 725, 127, 884
1193, 111, 702, 661, 859
1194, 462, 863, 143, 890
1195, 688, 836, 179, 858
1196, 321, 447, 31, 217
1197, 278, 638, 344, 510
1198, 595, 593, 302, 273
1199, 709, 712, 883, 887
1200, 253, 615, 85, 403
1201, 563, 343, 329, 576
1202, 516, 854, 155, 895
1203, 385, 356, 631, 445
1204, 743, 804, 141, 861
1205, 685, 684, 662, 862
1206, 142, 800, 743, 861
1207, 193, 794, 843, 756
1208, 694, 849, 695, 900
1209, 435, 356, 577, 630
1210, 811, 156, 14, 844
1211, 495, 154, 859, 895
1212, 252, 541, 83, 409
1213, 559, 289, 288, 265
1214, 758, 860, 744, 887
1215, 329, 563, 576, 562
1216, 269, 343, 603, 576
1217, 834, 829, 189, 882
1218, 82, 541, 252, 409
1219, 408, 428, 431, 635
1220, 376, 542, 363, 543
1221, 456, 303, 502, 458
1222, 572, 298, 323, 591
1223, 455, 453, 335, 518
1224, 596, 539, 294, 273
1225, 665, 179, 820, 858
1226, 556, 224, 368, 407
1227, 619, 250, 85, 362
1228, 849, 877, 659, 894
1229, 171, 842, 697, 843
1230, 578, 511, 320, 110
1231, 433, 542, 363, 376
1232, 572, 323, 297, 302
1233, 831, 867, 707, 870
1234, 392, 549, 375, 372
1235, 863, 864, 740, 885
1236, 294, 539, 595, 273
1237, 779, 801, 776, 857
1238, 545, 375, 549, 372
1239, 807, 780, 882, 893
1240, 320, 638, 344, 278
1241, 735, 851, 717, 867
1242, 602, 310, 314, 343
1243, 435, 76, 254, 402
1244, 473, 117, 116, 869
1245, 382, 633, 534, 362
1246, 319, 34, 243, 608
1247, 811, 844, 194, 794
1248, 76, 254, 402, 416
1249, 713, 864, 863, 885
1250, 653, 564, 281, 446
1251, 14, 650, 169, 156
1252, 650, 647, 156, 14
1253, 388, 386, 565, 631
1254, 460, 327, 458, 580
1255, 333, 590, 299, 284
1256, 289, 290, 559, 288
1257, 484, 151, 401, 529
1258, 53, 34, 319, 242
1259, 34, 53, 319, 243
1260, 744, 759, 774, 860
1261, 456, 270, 333, 457
1262, 549, 546, 392, 375
1263, 352, 152, 528, 527
1264, 760, 758, 805, 875
1265, 807, 780, 789, 882
1266, 332, 311, 312, 604
1267, 771, 741, 770, 851
1268, 817, 750, 788, 870
1269, 455, 270, 333, 456
1270, 577, 631, 356, 445
1271, 435, 76, 402, 416
1272, 670, 711, 677, 886
1273, 493, 488, 499, 141
1274, 774, 759, 795, 900
1275, 709, 661, 712, 887
1276, 527, 509, 153, 496
1277, 497, 270, 286, 518
1278, 537, 328, 301, 536
1279, 439, 36, 332, 237
1280, 622, 399, 398, 554
1281, 829, 834, 197, 882
1282, 143, 863, 885, 890
1283, 702, 694, 696, 860
1284, 151, 484, 584, 529
1285, 549, 546, 375, 545
1286, 365, 385, 388, 632
1287, 713, 656, 121, 864
1288, 298, 323, 591, 300
1289, 293, 597, 292, 294
1290, 536, 328, 295, 294
1291, 503, 400, 142, 589
1292, 109, 847, 11, 169
1293, 392, 620, 146, 634
1294, 286, 453, 285, 518
1295, 215, 18, 447, 609
1296, 402, 356, 435, 630
1297, 508, 509, 384, 513
1298, 351, 248, 83, 409
1299, 797, 788, 816, 862
1300, 327, 123, 460, 458
1301, 694, 112, 897, 900
1302, 747, 775, 776, 857
1303, 439, 332, 36, 566
1304, 773, 815, 770, 871
1305, 799, 867, 772, 899
1306, 661, 110, 111, 895
1307, 590, 454, 333, 456
1308, 437, 164, 575, 650
1309, 315, 289, 329, 562
1310, 711, 132, 671, 345
1311, 722, 668, 882, 898
1312, 298, 572, 323, 297
1313, 163, 575, 156, 444
1314, 301, 328, 537, 302
1315, 348, 725, 6, 127
1316, 705, 730, 685, 848
1317, 470, 636, 147, 889
1318, 331, 594, 596, 469
1319, 618, 373, 372, 353
1320, 326, 489, 581, 465
1321, 153, 509, 384, 496
1322, 189, 668, 834, 882
1323, 102, 248, 351, 409
1324, 144, 784, 740, 864
1325, 598, 293, 274, 490
1326, 235, 269, 37, 576
1327, 290, 599, 275, 560
1328, 83, 431, 248, 351
1329, 472, 473, 474, 869
1330, 740, 797, 816, 864
1331, 325, 475, 599, 600
1332, 397, 398, 399, 554
1333, 404, 625, 450, 367
1334, 803, 150, 866, 892
1335, 113, 694, 897, 900
1336, 539, 597, 330, 294
1337, 6, 29, 127, 220
1338, 220, 219, 127, 6
1339, 755, 792, 880, 898
1340, 373, 545, 618, 372
1341, 757, 758, 744, 887
1342, 150, 585, 377, 532
1343, 154, 384, 508, 496
1344, 814, 783, 767, 872
1345, 23, 26, 222, 425
1346, 168, 646, 130, 640
1347, 291, 558, 324, 288
1348, 343, 563, 603, 576
1349, 369, 155, 366, 525
1350, 671, 880, 728, 886
1351, 453, 452, 441, 283
1352, 801, 873, 743, 888
1353, 453, 517, 285, 518
1354, 215, 447, 31, 280
1355, 460, 122, 327, 580
1356, 399, 622, 553, 554
1357, 148, 372, 618, 636
1358, 286, 336, 497, 518
1359, 650, 163, 575, 156
1360, 715, 703, 680, 855
1361, 149, 798, 869, 892
1362, 463, 122, 121, 863
1363, 387, 356, 402, 630
1364, 683, 832, 186, 891
1365, 118, 594, 331, 469
1366, 511, 638, 278, 510
1367, 664, 731, 692, 896
1368, 564, 319, 281, 606
1369, 584, 150, 361, 532
1370, 623, 279, 127, 573
1371, 386, 415, 565, 506
1372, 781, 850, 804, 873
1373, 553, 397, 399, 554
1374, 737, 712, 700, 875
1375, 608, 319, 34, 242
1376, 831, 750, 867, 870
1377, 621, 400, 398, 512
1378, 326, 581, 121, 465
1379, 788, 787, 777, 862
1380, 628, 396, 360, 394
1381, 109, 578, 320, 110
1382, 398, 354, 621, 554
1383, 401, 152, 484, 528
1384, 530, 401, 529, 528
1385, 643, 365, 388, 632
1386, 122, 885, 863, 890
1387, 269, 57, 315, 235
1388, 634, 360, 392, 393
1389, 599, 115, 475, 325
1390, 328, 295, 301, 536
1391, 618, 550, 373, 353
1392, 639, 391, 426, 449
1393, 294, 539, 596, 331
1394, 192, 810, 756, 846
1395, 111, 110, 588, 895
1396, 392, 546, 634, 393
1397, 511, 638, 320, 278
1398, 621, 354, 143, 487
1399, 716, 655, 691, 894
1400, 280, 447, 31, 321
1401, 402, 254, 95, 416
1402, 539, 330, 594, 294
1403, 514, 633, 534, 382
1404, 353, 149, 148, 485
1405, 528, 152, 484, 527
1406, 119, 331, 596, 469
1407, 151, 361, 401, 529
1408, 710, 697, 698, 878
1409, 628, 360, 548, 394
1410, 397, 629, 354, 554
1411, 705, 685, 717, 848
1412, 367, 406, 610, 158
1413, 333, 454, 335, 455
1414, 283, 453, 285, 286
1415, 764, 813, 765, 874
1416, 396, 628, 552, 394
1417, 482, 501, 579, 876
1418, 589, 142, 503, 488
1419, 360, 634, 548, 393
1420, 419, 493, 499, 141
1421, 384, 509, 418, 513
1422, 836, 207, 820, 858
1423, 497, 519, 336, 583
1424, 442, 23, 222, 425
1425, 722, 728, 668, 898
1426, 721, 720, 667, 879
1427, 509, 528, 352, 514
1428, 497, 336, 125, 583
1429, 573, 623, 279, 519
1430, 713, 863, 122, 885
1431, 147, 372, 148, 636
1432, 280, 451, 517, 285
1433, 598, 561, 558, 324
1434, 354, 396, 629, 397
1435, 558, 290, 324, 288
1436, 836, 820, 179, 858
1437, 335, 283, 453, 284
1438, 149, 353, 617, 485
1439, 148, 618, 353, 485
1440, 271, 35, 244, 566
1441, 453, 454, 335, 284
1442, 339, 130, 646, 640
1443, 426, 25, 218, 639
1444, 572, 591, 323, 592
1445, 652, 109, 11, 169
1446, 109, 11, 651, 652
1447, 728, 880, 708, 898
1448, 724, 845, 170, 697
1449, 327, 300, 502, 580
1450, 143, 885, 800, 890
1451, 384, 352, 509, 153
1452, 506, 415, 503, 430
1453, 428, 431, 351, 408
1454, 447, 215, 609, 280
1455, 637, 279, 286, 518
1456, 269, 315, 329, 576
1457, 740, 143, 863, 885
1458, 620, 146, 147, 392
1459, 300, 327, 272, 580
1460, 122, 123, 460, 327
1461, 367, 610, 649, 158
1462, 499, 488, 364, 141
1463, 810, 838, 791, 878
1464, 520, 440, 626, 421
1465, 617, 533, 374, 377
1466, 574, 442, 22, 138
1467, 387, 506, 631, 630
1468, 544, 547, 546, 413
1469, 396, 552, 629, 397
1470, 103, 248, 403, 351
1471, 116, 655, 115, 892
1472, 694, 659, 695, 849
1473, 699, 176, 828, 879
1474, 545, 550, 373, 618
1475, 176, 699, 667, 879
1476, 551, 553, 552, 414
1477, 372, 147, 549, 636
1478, 528, 530, 401, 412
1479, 596, 294, 331, 273
1480, 452, 453, 285, 283
1481, 548, 634, 546, 393
1482, 610, 526, 406, 367
1483, 508, 366, 525, 515
1484, 360, 146, 486, 634
1485, 360, 486, 145, 628
1486, 506, 386, 387, 631
1487, 632, 643, 365, 571
1488, 766, 768, 767, 868
1489, 279, 336, 286, 518
1490, 115, 114, 477, 866
1491, 536, 537, 328, 595
1492, 738, 881, 798, 892
1493, 363, 249, 101, 409
1494, 99, 355, 251, 410
1495, 359, 416, 96, 255
1496, 359, 97, 417, 255
1497, 410, 249, 100, 363
1498, 355, 417, 98, 251
1499, 446, 653, 564, 167
1500, 548, 552, 628, 394
1501, 407, 368, 556, 611
1502, 456, 303, 300, 502
1503, 279, 321, 337, 573
1504, 519, 126, 336, 583
1505, 361, 150, 377, 532
1506, 361, 531, 379, 529
1507, 325, 116, 475, 600
1508, 815, 748, 772, 899
1509, 530, 408, 383, 635
1510, 738, 868, 802, 881
1511, 286, 336, 270, 497
1512, 426, 25, 28, 218
1513, 210, 806, 828, 879
1514, 407, 427, 368, 611
1515, 528, 401, 152, 352
1516, 513, 384, 508, 371
1517, 398, 621, 512, 554
1518, 621, 400, 354, 398
1519, 502, 300, 327, 458
1520, 302, 489, 593, 326
1521, 593, 581, 302, 326
1522, 401, 379, 530, 529
1523, 385, 356, 386, 631
1524, 331, 119, 118, 469
1525, 561, 598, 293, 324
1526, 771, 817, 788, 848
1527, 290, 325, 599, 560
1528, 794, 842, 193, 843
1529, 396, 145, 582, 628
1530, 286, 335, 453, 518
1531, 397, 552, 629, 554
1532, 302, 581, 272, 326
1533, 361, 378, 531, 532
1534, 515, 366, 525, 370
1535, 356, 387, 386, 631
1536, 826, 791, 838, 878
1537, 145, 146, 486, 360
1538, 455, 333, 454, 456
1539, 777, 747, 776, 891
1540, 789, 882, 834, 898
1541, 613, 155, 369, 525
1542, 560, 290, 325, 600
1543, 695, 690, 720, 872
1544, 799, 772, 748, 899
1545, 392, 147, 620, 549
1546, 663, 735, 867, 899
1547, 617, 377, 149, 585
1548, 639, 607, 391, 449
1549, 549, 618, 372, 636
1550, 717, 735, 705, 851
1551, 456, 333, 303, 457
1552, 846, 845, 838, 878
1553, 549, 620, 392, 634
1554, 532, 531, 361, 529
1555, 352, 418, 509, 514
1556, 156, 369, 423, 444
1557, 551, 414, 395, 359
1558, 355, 413, 544, 376
1559, 622, 429, 435, 630
1560, 448, 319, 243, 608
1561, 551, 414, 359, 443
1562, 125, 336, 126, 583
1563, 138, 442, 222, 425
1564, 489, 326, 120, 465
1565, 395, 413, 547, 355
1566, 274, 325, 290, 600
1567, 565, 500, 390, 524
1568, 841, 838, 845, 878
1569, 488, 493, 482, 141
1570, 738, 768, 802, 868
1571, 153, 483, 527, 496
1572, 687, 857, 683, 891
1573, 325, 599, 275, 290
1574, 355, 413, 547, 570
1575, 544, 413, 355, 570
1576, 711, 132, 345, 346
1577, 584, 585, 150, 532
1578, 763, 874, 765, 881
1579, 488, 142, 503, 364
1580, 411, 363, 542, 543
1581, 155, 507, 366, 525
1582, 703, 715, 655, 881
1583, 686, 864, 713, 885
1584, 507, 516, 155, 895
1585, 327, 502, 458, 580
1586, 394, 551, 552, 414
1587, 478, 484, 584, 151
1588, 138, 809, 349, 884
1589, 622, 512, 429, 630
1590, 728, 677, 886, 893
1591, 427, 556, 368, 611
1592, 489, 302, 273, 326
1593, 597, 598, 293, 561
1594, 382, 421, 633, 381
1595, 176, 667, 824, 879
1596, 528, 509, 352, 527
1597, 637, 341, 517, 518
1598, 366, 384, 508, 154
1599, 363, 411, 376, 543
1600, 194, 844, 842, 794
1601, 530, 379, 408, 635
1602, 369, 406, 644, 370
1603, 150, 151, 584, 361
1604, 306, 281, 319, 606
1605, 508, 366, 154, 507
1606, 663, 867, 823, 899
1607, 122, 657, 885, 890
1608, 778, 801, 743, 888
1609, 526, 644, 406, 370
1610, 118, 658, 117, 889
1611, 845, 170, 697, 843
1612, 329, 314, 563, 289
1613, 143, 400, 621, 589
1614, 585, 377, 149, 150
1615, 144, 354, 629, 487
1616, 539, 594, 596, 331
1617, 420, 390, 500, 524
1618, 219, 220, 127, 20
1619, 334, 311, 439, 269
1620, 760, 753, 806, 875
1621, 619, 615, 534, 362
1622, 363, 410, 433, 376
1623, 750, 831, 201, 870
1624, 592, 272, 323, 302
1625, 564, 608, 319, 606
1626, 823, 203, 837, 899
1627, 375, 544, 546, 413
1628, 686, 719, 684, 862
1629, 625, 526, 367, 370
1630, 393, 546, 547, 413
1631, 377, 374, 617, 353
1632, 407, 426, 391, 449
1633, 608, 448, 319, 606
1634, 727, 709, 672, 883
1635, 340, 318, 451, 280
1636, 644, 369, 613, 444
1637, 116, 475, 115, 325
1638, 507, 155, 154, 895
1639, 354, 144, 143, 487
1640, 541, 431, 351, 627
1641, 748, 837, 203, 899
1642, 553, 397, 552, 414
1643, 507, 154, 508, 496
1644, 428, 408, 379, 635
1645, 406, 423, 644, 614
1646, 777, 776, 778, 888
1647, 595, 328, 294, 273
1648, 201, 822, 787, 870
1649, 666, 683, 687, 857
1650, 708, 839, 827, 880
1651, 444, 644, 423, 614
1652, 517, 447, 280, 341
1653, 468, 620, 486, 146
1654, 300, 272, 323, 592
1655, 305, 654, 446, 338
1656, 382, 534, 383, 362
1657, 332, 334, 311, 439
1658, 594, 539, 294, 331
1659, 414, 553, 399, 359
1660, 124, 125, 660, 876
1661, 303, 300, 502, 458
1662, 429, 402, 435, 630
1663, 142, 589, 461, 488
1664, 581, 593, 489, 326
1665, 380, 541, 351, 627
1666, 846, 838, 810, 878
1667, 512, 506, 430, 630
1668, 413, 544, 547, 570
1669, 655, 715, 733, 881
1670, 708, 726, 839, 880
1671, 152, 480, 484, 527
1672, 560, 325, 599, 600
1673, 404, 450, 247, 424
1674, 754, 811, 794, 883
1675, 134, 808, 347, 880
1676, 719, 885, 657, 888
1677, 705, 681, 704, 851
1678, 486, 582, 466, 145
1679, 503, 499, 364, 506
1680, 506, 387, 430, 630
1681, 155, 757, 154, 895
1682, 396, 360, 145, 628
1683, 490, 293, 330, 597
1684, 448, 271, 312, 566
1685, 390, 386, 415, 565
1686, 30, 17, 641, 216
1687, 750, 201, 787, 870
1688, 582, 145, 396, 144
1689, 152, 352, 153, 527
1690, 120, 326, 121, 465
1691, 619, 259, 105, 381
1692, 582, 396, 629, 144
1693, 517, 609, 451, 280
1694, 644, 423, 369, 444
1695, 589, 487, 143, 462
1696, 452, 517, 451, 285
1697, 157, 648, 642, 424
1698, 423, 444, 614, 162
1699, 515, 508, 366, 371
1700, 220, 127, 20, 438
1701, 779, 781, 801, 873
1702, 431, 615, 248, 351
1703, 841, 845, 724, 878
1704, 374, 550, 617, 353
1705, 573, 127, 20, 219
1706, 369, 156, 613, 444
1707, 146, 360, 392, 634
1708, 644, 406, 614, 526
1709, 806, 210, 751, 879
1710, 347, 345, 134, 880
1711, 387, 402, 429, 630
1712, 415, 364, 499, 506
1713, 763, 765, 802, 881
1714, 506, 565, 386, 631
1715, 529, 401, 484, 528
1716, 365, 388, 389, 643
1717, 618, 617, 353, 485
1718, 659, 691, 734, 894
1719, 302, 328, 595, 273
1720, 322, 317, 344, 510
1721, 430, 503, 506, 512
1722, 651, 109, 652, 165
1723, 609, 641, 451, 340
1724, 476, 584, 585, 150
1725, 402, 399, 429, 622
1726, 645, 423, 614, 162
1727, 362, 382, 633, 381
1728, 783, 759, 819, 853
1729, 525, 369, 644, 370
1730, 635, 428, 431, 627
1731, 625, 610, 450, 367
1732, 359, 414, 553, 443
1733, 335, 453, 283, 286
1734, 763, 749, 764, 874
1735, 143, 144, 740, 863
1736, 824, 210, 828, 879
1737, 617, 377, 353, 149
1738, 271, 319, 53, 243
1739, 244, 332, 271, 566
1740, 118, 117, 471, 889
1741, 415, 503, 364, 506
1742, 333, 335, 454, 284
1743, 662, 822, 185, 870
1744, 367, 404, 625, 422
1745, 771, 788, 797, 848
1746, 708, 880, 827, 898
1747, 409, 541, 351, 380
1748, 686, 657, 719, 885
1749, 515, 626, 421, 422
1750, 460, 123, 122, 890
1751, 400, 143, 142, 589
1752, 724, 826, 841, 878
1753, 354, 621, 629, 487
1754, 142, 400, 503, 364
1755, 513, 418, 384, 371
1756, 190, 668, 708, 898
1757, 463, 121, 581, 465
1758, 122, 460, 463, 580
1759, 276, 494, 505, 587
1760, 610, 625, 526, 367
1761, 498, 504, 308, 494
1762, 459, 460, 123, 458
1763, 668, 728, 708, 898
1764, 269, 329, 343, 576
1765, 740, 816, 778, 885
1766, 149, 738, 798, 892
1767, 599, 115, 477, 475
1768, 349, 809, 136, 346
1769, 414, 551, 553, 443
1770, 693, 660, 675, 873
1771, 143, 621, 487, 589
1772, 143, 800, 142, 890
1773, 467, 119, 596, 469
1774, 364, 419, 499, 141
1775, 148, 472, 636, 485
1776, 156, 811, 754, 854
1777, 471, 594, 118, 469
1778, 345, 755, 134, 880
1779, 641, 30, 216, 340
1780, 312, 605, 448, 566
1781, 756, 843, 192, 846
1782, 459, 457, 124, 579
1783, 112, 481, 492, 494
1784, 834, 882, 668, 898
1785, 634, 486, 360, 628
1786, 474, 485, 149, 585
1787, 117, 471, 473, 490
1788, 353, 372, 618, 148
1789, 354, 400, 621, 143
1790, 403, 248, 615, 351
1791, 509, 508, 384, 496
1792, 531, 379, 378, 361
1793, 770, 772, 771, 851
1794, 533, 374, 550, 617
1795, 827, 808, 792, 880
1796, 532, 361, 584, 529
1797, 454, 453, 335, 455
1798, 637, 286, 341, 518
1799, 401, 530, 379, 412
1800, 275, 601, 314, 342
1801, 448, 322, 319, 606
1802, 419, 500, 493, 140
1803, 708, 827, 190, 898
1804, 514, 534, 530, 412
1805, 785, 786, 793, 886
1806, 118, 119, 678, 852
1807, 166, 446, 654, 338
1808, 521, 523, 612, 139
1809, 139, 523, 612, 405
1810, 440, 259, 619, 381
1811, 437, 652, 109, 165
1812, 400, 503, 621, 589
1813, 700, 699, 669, 875
1814, 109, 651, 578, 165
1815, 497, 336, 519, 518
1816, 451, 226, 318, 340
1817, 244, 36, 332, 566
1818, 583, 125, 497, 579
1819, 504, 604, 309, 505
1820, 440, 619, 633, 381
1821, 621, 503, 400, 512
1822, 824, 751, 210, 879
1823, 526, 525, 644, 370
1824, 112, 308, 276, 494
1825, 449, 407, 556, 611
1826, 492, 588, 111, 498
1827, 35, 271, 448, 566
1828, 224, 23, 556, 425
1829, 134, 755, 808, 880
1830, 472, 636, 470, 889
1831, 728, 722, 677, 893
1832, 340, 451, 609, 280
1833, 270, 303, 333, 457
1834, 113, 694, 112, 897
1835, 388, 643, 632, 524
1836, 642, 247, 450, 424
1837, 464, 144, 582, 487
1838, 464, 462, 463, 863
1839, 394, 552, 397, 414
1840, 470, 620, 147, 636
1841, 362, 633, 619, 381
1842, 528, 352, 514, 412
1843, 707, 185, 831, 870
1844, 617, 377, 585, 532
1845, 476, 477, 478, 866
1846, 157, 160, 642, 648
1847, 201, 831, 822, 870
1848, 354, 629, 396, 144
1849, 765, 874, 855, 881
1850, 195, 827, 808, 792
1851, 293, 561, 324, 291
1852, 388, 632, 565, 524
1853, 786, 807, 886, 893
1854, 122, 123, 657, 890
1855, 321, 279, 341, 637
1856, 300, 303, 327, 458
1857, 243, 271, 319, 448
1858, 379, 408, 383, 530
1859, 582, 396, 628, 629
1860, 798, 765, 855, 881
1861, 294, 330, 594, 331
1862, 362, 619, 105, 381
1863, 749, 790, 764, 896
1864, 154, 153, 384, 496
1865, 176, 824, 828, 879
1866, 438, 127, 20, 573
1867, 367, 526, 406, 370
1868, 415, 364, 503, 430
1869, 795, 759, 783, 853
1870, 670, 673, 126, 856
1871, 155, 156, 754, 854
1872, 411, 542, 616, 543
1873, 393, 375, 546, 413
1874, 139, 521, 523, 357
1875, 533, 374, 380, 616
1876, 415, 386, 387, 506
1877, 794, 812, 761, 883
1878, 563, 602, 601, 314
1879, 293, 330, 274, 490
1880, 640, 608, 339, 564
1881, 259, 250, 619, 105
1882, 250, 259, 619, 86
1883, 248, 615, 103, 403
1884, 418, 509, 514, 513
1885, 116, 473, 475, 600
1886, 840, 808, 827, 880
1887, 113, 481, 587, 479
1888, 477, 114, 491, 479
1889, 709, 712, 698, 883
1890, 262, 391, 426, 639
1891, 732, 719, 657, 888
1892, 350, 726, 345, 880
1893, 398, 400, 430, 512
1894, 237, 244, 36, 332
1895, 237, 244, 332, 55
1896, 633, 619, 534, 362
1897, 452, 453, 517, 285
1898, 377, 533, 378, 532
1899, 724, 710, 826, 878
1900, 635, 379, 428, 531
1901, 377, 617, 533, 532
1902, 420, 523, 427, 524
1903, 183, 663, 823, 899
1904, 505, 602, 603, 310
1905, 426, 639, 449, 223
1906, 343, 314, 563, 329
1907, 151, 152, 484, 401
1908, 306, 638, 320, 305
1909, 803, 738, 150, 892
1910, 364, 488, 142, 141
1911, 827, 840, 195, 808
1912, 680, 706, 715, 874
1913, 422, 625, 367, 370
1914, 662, 185, 707, 870
1915, 154, 744, 153, 859
1916, 317, 309, 308, 504
1917, 306, 281, 446, 305
1918, 777, 787, 747, 891
1919, 406, 423, 369, 644
1920, 517, 447, 609, 280
1921, 345, 131, 726, 350
1922, 727, 842, 172, 847
1923, 401, 361, 379, 529
1924, 155, 613, 507, 525
1925, 552, 548, 551, 394
1926, 638, 606, 344, 510
1927, 364, 499, 390, 415
1928, 491, 599, 601, 275
1929, 837, 718, 183, 899
1930, 547, 548, 546, 393
1931, 549, 392, 147, 372
1932, 354, 398, 397, 554
1933, 366, 515, 371, 370
1934, 120, 489, 465, 467
1935, 531, 530, 379, 529
1936, 226, 451, 641, 340
1937, 495, 507, 154, 895
1938, 620, 486, 146, 634
1939, 430, 400, 503, 512
1940, 111, 278, 308, 498
1941, 113, 112, 481, 897
1942, 674, 660, 673, 850
1943, 420, 357, 523, 524
1944, 349, 138, 5, 809
1945, 450, 610, 642, 367
1946, 663, 717, 707, 867
1947, 244, 243, 271, 54
1948, 244, 243, 35, 271
1949, 368, 425, 556, 405
1950, 556, 224, 425, 368
1951, 602, 587, 491, 313
1952, 437, 109, 578, 165
1953, 739, 768, 803, 894
1954, 657, 713, 122, 885
1955, 617, 149, 485, 585
1956, 671, 345, 726, 880
1957, 279, 286, 341, 637
1958, 515, 513, 508, 371
1959, 172, 672, 842, 727
1960, 671, 728, 711, 886
1961, 722, 674, 677, 893
1962, 775, 779, 776, 857
1963, 183, 718, 663, 899
1964, 521, 493, 500, 140
1965, 696, 720, 721, 853
1966, 730, 656, 686, 864
1967, 311, 604, 439, 603
1968, 834, 668, 190, 898
1969, 138, 612, 442, 405
1970, 322, 344, 606, 510
1971, 626, 625, 520, 422
1972, 423, 406, 645, 614
1973, 378, 374, 380, 533
1974, 822, 831, 185, 870
1975, 375, 546, 544, 545
1976, 611, 389, 420, 524
1977, 499, 488, 503, 364
1978, 781, 818, 745, 850
1979, 334, 332, 55, 237
1980, 429, 398, 512, 622
1981, 671, 345, 131, 726
1982, 361, 377, 378, 532
1983, 366, 154, 507, 155
1984, 627, 378, 380, 533
1985, 388, 386, 390, 565
1986, 405, 556, 368, 427
1987, 564, 281, 339, 653
1988, 597, 293, 330, 294
1989, 629, 621, 354, 554
1990, 111, 112, 702, 859
1991, 405, 139, 523, 357
1992, 746, 762, 766, 858
1993, 550, 411, 374, 616
1994, 612, 138, 139, 405
1995, 425, 442, 556, 405
1996, 242, 608, 339, 640
1997, 330, 490, 597, 594
1998, 447, 280, 341, 321
1999, 387, 415, 506, 430
2000, 491, 275, 313, 114
2001, 534, 530, 383, 635
2002, 456, 303, 333, 300
2003, 684, 685, 686, 862
2004, 371, 421, 513, 382
2005, 556, 23, 442, 425
2006, 124, 693, 123, 861
2007, 823, 837, 183, 899
2008, 270, 333, 335, 455
2009, 702, 696, 729, 860
2010, 428, 380, 351, 627
2011, 446, 166, 578, 338
2012, 138, 222, 5, 425
2013, 514, 352, 418, 412
2014, 619, 105, 250, 362
2015, 533, 378, 374, 377
2016, 511, 320, 110, 278
2017, 612, 522, 521, 139
2018, 750, 787, 788, 870
2019, 638, 306, 446, 305
2020, 622, 398, 512, 554
2021, 444, 423, 647, 162
2022, 513, 514, 418, 382
2023, 486, 582, 145, 628
2024, 514, 530, 528, 412
2025, 311, 309, 312, 604
2026, 391, 262, 607, 639
2027, 429, 435, 402, 622
2028, 510, 278, 511, 498
2029, 735, 717, 663, 867
2030, 380, 411, 363, 616
2031, 550, 373, 411, 543
2032, 303, 456, 457, 458
2033, 421, 513, 626, 371
2034, 507, 516, 613, 155
2035, 758, 759, 744, 860
2036, 616, 550, 411, 543
2037, 743, 781, 804, 873
2038, 765, 813, 742, 855
2039, 627, 635, 428, 531
2040, 428, 351, 431, 627
2041, 508, 366, 507, 525
2042, 271, 332, 312, 566
2043, 684, 687, 683, 891
2044, 276, 587, 313, 113
2045, 611, 420, 427, 524
2046, 760, 751, 819, 879
2047, 641, 609, 215, 340
2048, 523, 556, 405, 427
2049, 341, 447, 321, 637
2050, 281, 339, 319, 564
2051, 523, 556, 442, 405
2052, 546, 392, 375, 393
2053, 272, 580, 581, 592
2054, 525, 526, 515, 370
2055, 421, 626, 515, 371
2056, 155, 156, 613, 369
2057, 564, 339, 640, 653
2058, 151, 152, 739, 877
2059, 636, 618, 148, 485
2060, 545, 373, 375, 372
2061, 380, 627, 533, 616
2062, 147, 769, 146, 852
2063, 708, 728, 671, 880
2064, 395, 547, 551, 555
2065, 740, 800, 143, 885
2066, 505, 309, 276, 310
2067, 841, 173, 826, 724
2068, 606, 344, 306, 638
2069, 626, 515, 625, 422
2070, 533, 531, 378, 532
2071, 683, 662, 684, 891
2072, 229, 226, 641, 70
2073, 423, 645, 647, 162
2074, 130, 168, 640, 653
2075, 645, 159, 423, 647
2076, 219, 217, 337, 32
2077, 262, 264, 426, 90
2078, 241, 33, 242, 640
2079, 226, 229, 641, 51
2080, 23, 26, 425, 224
2081, 797, 740, 784, 864
2082, 543, 550, 373, 545
2083, 550, 374, 373, 353
2084, 317, 322, 605, 510
2085, 552, 397, 553, 554
2086, 659, 113, 114, 877
2087, 116, 117, 703, 869
2088, 788, 777, 816, 862
2089, 600, 598, 274, 490
2090, 689, 688, 665, 858
2091, 310, 313, 602, 314
2092, 785, 139, 745, 856
2093, 419, 357, 500, 140
2094, 396, 552, 397, 394
2095, 603, 311, 310, 343
2096, 259, 86, 440, 619
2097, 196, 789, 834, 898
2098, 633, 514, 513, 382
2099, 741, 784, 145, 865
2100, 515, 421, 371, 422
2101, 357, 521, 500, 140
2102, 428, 378, 627, 531
2103, 394, 360, 548, 393
2104, 319, 271, 322, 448
2105, 247, 642, 89, 424
2106, 407, 426, 449, 223
2107, 389, 611, 643, 524
2108, 661, 729, 712, 887
2109, 809, 136, 346, 793
2110, 691, 733, 689, 868
2111, 142, 743, 141, 861
2112, 596, 489, 595, 273
2113, 398, 430, 429, 512
2114, 638, 344, 306, 320
2115, 89, 245, 247, 424
2116, 108, 247, 245, 424
2117, 366, 508, 384, 371
2118, 341, 280, 517, 285
2119, 337, 127, 573, 219
2120, 523, 357, 420, 427
2121, 156, 423, 647, 444
2122, 120, 656, 704, 865
2123, 611, 427, 523, 524
2124, 659, 734, 695, 849
2125, 618, 545, 549, 372
2126, 455, 497, 270, 457
2127, 427, 389, 420, 611
2128, 109, 709, 727, 854
2129, 144, 629, 582, 487
2130, 608, 319, 339, 564
2131, 834, 190, 827, 898
2132, 789, 780, 752, 882
2133, 519, 623, 126, 583
2134, 383, 530, 534, 412
2135, 615, 103, 84, 248
2136, 84, 103, 615, 253
2137, 544, 433, 376, 543
2138, 117, 274, 330, 490
2139, 339, 130, 640, 653
2140, 229, 70, 641, 340
2141, 639, 426, 25, 223
2142, 641, 70, 226, 340
2143, 360, 634, 628, 548
2144, 241, 242, 52, 640
2145, 499, 500, 493, 419
2146, 699, 721, 667, 879
2147, 840, 347, 808, 880
2148, 686, 713, 657, 885
2149, 613, 369, 644, 525
2150, 598, 274, 293, 324
2151, 500, 523, 357, 524
2152, 845, 846, 843, 878
2153, 124, 303, 270, 457
2154, 525, 366, 369, 370
2155, 783, 782, 767, 872
2156, 710, 826, 173, 724
2157, 374, 373, 411, 550
2158, 507, 495, 516, 895
2159, 675, 732, 693, 873
2160, 838, 791, 826, 213
2161, 708, 839, 191, 827
2162, 679, 681, 682, 871
2163, 550, 618, 617, 353
2164, 755, 786, 807, 886
2165, 317, 605, 504, 510
2166, 533, 550, 374, 616
2167, 805, 753, 760, 875
2168, 681, 705, 735, 851
2169, 685, 662, 707, 870
2170, 245, 89, 642, 424
2171, 390, 500, 357, 420
2172, 726, 350, 839, 880
2173, 420, 500, 357, 524
2174, 552, 628, 396, 629
2175, 701, 720, 690, 872
2176, 243, 35, 271, 448
2177, 345, 134, 755, 135
2178, 398, 429, 399, 622
2179, 338, 651, 578, 109
2180, 426, 28, 25, 223
2181, 569, 399, 622, 553
2182, 695, 720, 696, 853
2183, 493, 521, 501, 140
2184, 496, 507, 154, 495
2185, 549, 147, 620, 636
2186, 428, 378, 380, 627
2187, 542, 363, 411, 616
2188, 11, 727, 847, 109
2189, 312, 604, 605, 566
2190, 765, 763, 764, 874
2191, 511, 110, 624, 588
2192, 736, 666, 687, 857
2193, 517, 447, 341, 637
2194, 241, 52, 339, 640
2195, 242, 339, 52, 640
2196, 114, 115, 716, 866
2197, 709, 109, 110, 854
2198, 523, 442, 612, 405
2199, 364, 400, 503, 430
2200, 340, 609, 215, 280
2201, 392, 546, 549, 634
2202, 462, 461, 460, 890
2203, 680, 731, 706, 874
2204, 157, 642, 649, 424
2205, 350, 347, 839, 880
2206, 677, 711, 728, 886
2207, 745, 804, 781, 850
2208, 176, 667, 177, 824
2209, 775, 825, 199, 198
2210, 606, 605, 322, 510
2211, 127, 725, 670, 884
2212, 378, 627, 531, 533
2213, 389, 427, 407, 611
2214, 357, 139, 521, 140
2215, 390, 499, 500, 565
2216, 826, 838, 841, 878
2217, 206, 207, 836, 762
2218, 278, 344, 317, 510
2219, 840, 839, 347, 880
2220, 635, 530, 379, 531
2221, 264, 262, 426, 71
2222, 200, 832, 199, 747
2223, 121, 122, 713, 863
2224, 151, 803, 150, 866
2225, 352, 528, 401, 412
2226, 378, 428, 379, 531
2227, 668, 723, 676, 882
2228, 573, 19, 337, 219
2229, 810, 791, 838, 213
2230, 839, 726, 708, 191
2231, 526, 625, 515, 370
2232, 668, 676, 722, 882
2233, 651, 578, 166, 338
2234, 691, 659, 716, 894
2235, 772, 750, 817, 867
2236, 413, 547, 393, 395
2237, 414, 394, 551, 395
2238, 480, 481, 483, 897
2239, 413, 375, 544, 376
2240, 419, 499, 500, 390
2241, 709, 698, 672, 883
2242, 827, 880, 792, 898
2243, 663, 682, 735, 899
2244, 680, 703, 658, 855
2245, 390, 419, 499, 364
2246, 399, 397, 553, 414
2247, 121, 272, 581, 326
2248, 141, 804, 140, 876
2249, 122, 272, 327, 580
2250, 373, 376, 411, 543
2251, 438, 623, 127, 573
2252, 411, 380, 374, 616
2253, 103, 615, 253, 403
2254, 322, 306, 319, 606
2255, 578, 511, 638, 320
2256, 493, 419, 140, 141
2257, 790, 796, 764, 896
2258, 196, 792, 789, 898
2259, 765, 742, 798, 855
2260, 523, 556, 427, 611
2261, 17, 30, 641, 215
2262, 799, 750, 772, 867
2263, 426, 71, 262, 639
2264, 264, 71, 426, 639
2265, 149, 798, 148, 869
2266, 219, 217, 19, 337
2267, 754, 794, 761, 883
2268, 128, 651, 166, 338
2269, 128, 166, 654, 338
2270, 422, 371, 515, 370
2271, 273, 331, 596, 119
2272, 599, 275, 115, 325
2273, 521, 500, 523, 357
2274, 796, 815, 773, 871
2275, 171, 697, 170, 843
2276, 806, 751, 760, 879
2277, 513, 515, 626, 371
2278, 179, 178, 665, 820
2279, 795, 814, 739, 849
2280, 339, 319, 608, 242
2281, 776, 801, 778, 888
2282, 513, 418, 371, 382
2283, 446, 606, 306, 638
2284, 470, 471, 472, 889
2285, 700, 669, 737, 875
2286, 270, 336, 125, 497
2287, 714, 679, 682, 871
2288, 758, 761, 805, 887
2289, 627, 380, 541, 616
2290, 437, 578, 109, 624
2291, 332, 271, 54, 244
2292, 186, 832, 683, 187
2293, 686, 656, 713, 864
2294, 666, 825, 188, 187
2295, 205, 206, 821, 749
2296, 215, 30, 641, 340
2297, 325, 274, 116, 600
2298, 156, 575, 613, 444
2299, 798, 738, 765, 881
2300, 756, 791, 812, 878
2301, 132, 711, 133, 346
2302, 422, 515, 625, 370
2303, 174, 669, 175, 835
2304, 743, 801, 781, 873
2305, 588, 516, 495, 895
2306, 197, 789, 834, 196
2307, 352, 509, 418, 384
2308, 442, 574, 612, 138
2309, 84, 431, 615, 248
2310, 662, 822, 186, 185
2311, 200, 201, 822, 787
2312, 181, 692, 182, 830
2313, 785, 809, 138, 884
2314, 193, 194, 842, 794
2315, 833, 782, 208, 209
2316, 157, 160, 649, 642
2317, 664, 181, 180, 821
2318, 793, 786, 755, 886
2319, 751, 824, 210, 209
2320, 802, 768, 766, 868
2321, 637, 573, 279, 519
2322, 383, 379, 530, 412
2323, 837, 204, 748, 203
2324, 732, 687, 719, 888
2325, 326, 273, 489, 120
2326, 836, 180, 688, 179
2327, 448, 605, 322, 606
2328, 412, 418, 514, 382
2329, 740, 778, 800, 885
2330, 357, 523, 405, 427
2331, 22, 21, 574, 221
2332, 808, 755, 792, 880
2333, 198, 752, 829, 197
2334, 707, 185, 184, 831
2335, 336, 279, 126, 519
2336, 699, 176, 175, 828
2337, 750, 831, 202, 201
2338, 222, 22, 23, 442
2339, 108, 404, 247, 424
2340, 578, 320, 338, 109
2341, 746, 208, 207, 820
2342, 500, 357, 419, 390
2343, 196, 827, 792, 898
2344, 714, 692, 731, 896
2345, 150, 738, 149, 892
2346, 425, 224, 26, 368
2347, 247, 89, 642, 450
2348, 833, 177, 178, 701
2349, 204, 205, 830, 790
2350, 424, 649, 157, 367
2351, 318, 226, 70, 340
2352, 14, 156, 423, 647
2353, 710, 724, 697, 878
2354, 406, 159, 423, 645
2355, 738, 802, 765, 881
2356, 758, 757, 761, 887
2357, 130, 339, 281, 653
2358, 654, 305, 128, 338
2359, 391, 426, 90, 262
2360, 726, 708, 671, 880
2361, 350, 345, 347, 880
2362, 449, 639, 25, 223
2363, 279, 337, 127, 573
2364, 337, 321, 32, 217
2365, 425, 138, 442, 405
2366, 196, 834, 827, 898
2367, 190, 708, 191, 827
2368, 213, 791, 826, 212
2369, 127, 337, 6, 219
2370, 823, 183, 184, 663
2371, 330, 594, 331, 118
2372, 451, 641, 51, 226
2373, 810, 791, 756, 878
2374, 839, 840, 827, 880
2375, 327, 303, 123, 458
2376, 16, 810, 846, 838
2377, 648, 245, 642, 424
2378, 242, 33, 608, 640
2379, 818, 780, 786, 893
2380, 216, 229, 641, 340
2381, 218, 264, 426, 639
2382, 339, 646, 241, 640
2383, 718, 682, 663, 899
2384, 338, 11, 651, 109
2385, 564, 640, 168, 653
2386, 350, 12, 726, 839
2387, 609, 215, 17, 641
2388, 347, 13, 840, 808
2389, 845, 15, 841, 724
2390, 807, 786, 780, 893
2391, 799, 823, 203, 202
2392, 349, 348, 29, 884
2393, 322, 344, 306, 606
2394, 25, 3, 218, 639
2395, 641, 17, 2, 216
2396, 168, 8, 646, 640
2397, 222, 26, 5, 425
2398, 7, 339, 130, 646
2399, 792, 807, 789, 898
2400, 160, 610, 649, 642
2401, 173, 174, 826, 710
2402, 607, 262, 71, 639
2403, 212, 835, 211, 753
2404, 834, 189, 190, 668
2405, 317, 322, 312, 605
2406, 426, 407, 28, 223
2407, 642, 160, 9, 648
2408, 436, 43, 42, 236
2409, 44, 43, 535, 230
2410, 64, 65, 296, 227
2411, 287, 59, 60, 228
2412, 255, 77, 78, 443
2413, 227, 45, 46, 432
2414, 92, 93, 385, 258
2415, 228, 40, 41, 557
2416, 365, 91, 92, 263
2417, 238, 38, 39, 562
2418, 42, 41, 567, 240
2419, 568, 45, 44, 233
2420, 60, 61, 268, 240
2421, 65, 66, 267, 234
2422, 232, 39, 40, 434
2423, 234, 46, 47, 540
2424, 235, 37, 38, 576
2425, 439, 37, 36, 237
2426, 239, 48, 49, 441
2427, 231, 47, 48, 586
2428, 64, 63, 233, 266
2429, 723, 189, 188, 829
2430, 210, 211, 828, 806
2431, 358, 246, 106, 107
2432, 80, 81, 257, 433
2433, 239, 68, 67, 282
2434, 35, 36, 244, 566
2435, 74, 73, 445, 258
2436, 256, 78, 79, 555
2437, 251, 79, 80, 570
2438, 340, 215, 30, 280
2439, 171, 672, 842, 172
2440, 182, 183, 837, 718
2441, 69, 68, 225, 277
2442, 236, 62, 61, 304
2443, 426, 28, 4, 218
2444, 230, 63, 62, 307
2445, 20, 19, 573, 219
2446, 166, 578, 651, 165
2447, 231, 67, 66, 316
2448, 130, 281, 129, 653
2449, 367, 649, 157, 158
2450, 129, 654, 305, 128
2451, 71, 72, 262, 607
2452, 440, 87, 86, 259
2453, 250, 105, 104, 362
2454, 31, 30, 215, 280
2455, 82, 81, 542, 249
2456, 827, 195, 196, 792
2457, 136, 346, 793, 135
2458, 77, 76, 569, 261
2459, 58, 59, 265, 232
2460, 319, 339, 52, 242
2461, 756, 843, 193, 192
2462, 84, 83, 431, 248
2463, 451, 51, 50, 226
2464, 229, 641, 2, 216
2465, 1, 229, 216, 340
2466, 241, 646, 8, 640
2467, 264, 426, 4, 218
2468, 218, 3, 264, 639
2469, 7, 339, 646, 241
2470, 90, 91, 391, 262
2471, 168, 564, 653, 167
2472, 610, 649, 161, 160
2473, 25, 24, 449, 223
2474, 245, 642, 9, 648
2475, 75, 74, 577, 260
2476, 216, 30, 1, 340
2477, 520, 88, 87, 246
2478, 27, 28, 407, 223
2479, 132, 671, 345, 131
2480, 157, 10, 648, 424
2481, 70, 69, 226, 318
2482, 575, 164, 163, 650
2483, 107, 404, 247, 108
2484, 76, 75, 435, 254
2485, 254, 95, 94, 402
2486, 556, 24, 23, 224
2487, 249, 101, 100, 363
2488, 96, 97, 359, 255
2489, 355, 98, 99, 251
2490, 83, 82, 541, 252
2491, 105, 259, 106, 381
2492, 248, 103, 102, 351
2493, 31, 32, 321, 217
2494, 17, 18, 215, 609
2495, 846, 845, 214, 838
2496, 243, 34, 35, 448
2497, 56, 57, 269, 235
2498, 356, 93, 94, 260
2499, 10, 245, 648, 424
2500, 841, 214, 845, 838
2501, 645, 406, 159, 158
2502, 34, 33, 608, 242
2503, 224, 27, 26, 368
2504, 225, 49, 50, 452
2505, 447, 19, 18, 217
2506, 840, 839, 137, 347
2507, 839, 350, 137, 347
2508, 15, 845, 170, 724
2509, 6, 133, 725, 348
2510, 165, 437, 652, 164
2511, 20, 21, 220, 438
2512, 726, 131, 12, 350
2513, 727, 172, 11, 847
2514, 808, 347, 13, 134
2515, 16, 810, 192, 846
2516, 5, 349, 809, 136
2517, 446, 167, 166, 654
2518, 571, 73, 72, 263
2519, 838, 16, 810, 213
2520, 844, 14, 811, 194
2521, 12, 726, 839, 191
2522, 88, 89, 247, 450
2523, 57, 58, 315, 238
2524, 319, 52, 53, 242
2525, 840, 137, 13, 347
2526, 13, 195, 840, 808
2527, 846, 214, 16, 838
2528, 253, 104, 103, 403
2529, 15, 173, 841, 724
2530, 444, 647, 163, 162
2531, 641, 2, 51, 229
2532, 229, 1, 70, 340
2533, 14, 423, 159, 647
2534, 337, 32, 6, 219
2535, 11, 651, 128, 338
2536, 4, 90, 426, 264
2537, 241, 8, 33, 640
2538, 9, 89, 642, 245
2539, 839, 350, 12, 137
2540, 15, 841, 214, 845
2541, 339, 7, 52, 241
2542, 245, 9, 10, 648
2543, 271, 53, 54, 243
2544, 245, 10, 108, 424
2545, 332, 54, 55, 244
2546, 264, 3, 71, 639
2547, 2, 1, 229, 216
2548, 264, 4, 3, 218
2549, 646, 8, 7, 241
2550, 162, 614, 645, 161
2551, 615, 85, 84, 253
2552, 250, 85, 86, 619
2553, 334, 55, 56, 237
2554, 257, 100, 99, 410
2555, 252, 102, 101, 409
2556, 97, 98, 417, 256
2557, 261, 96, 95, 416
2558, 883, 737, 878, 875
2559, 883, 878, 737, 698
2560, 883, 756, 843, 794
2561, 883, 843, 756, 878
2562, 878, 753, 812, 875
2563, 878, 812, 753, 791
2564, 873, 674, 660, 675
2565, 873, 660, 674, 850
2566, 878, 835, 710, 826
2567, 878, 710, 835, 875
2568, 899, 790, 796, 748
2569, 899, 796, 790, 896
2570, 734, 872, 868, 690
2571, 868, 872, 734, 849
2572, 876, 673, 660, 850
2573, 876, 660, 673, 125
2574, 894, 881, 738, 892
2575, 894, 738, 881, 868
2576, 899, 692, 837, 718
2577, 899, 837, 692, 896
2578, 830, 692, 837, 896
2579, 794, 844, 883, 811
2580, 794, 883, 844, 842
2581, 876, 583, 579, 125
2582, 876, 579, 583, 501
2583, 835, 710, 174, 669
2584, 835, 174, 710, 826
2585, 666, 829, 188, 825
2586, 188, 829, 666, 723
2587, 888, 736, 687, 857
2588, 888, 687, 736, 732
2589, 895, 492, 588, 111
2590, 895, 588, 492, 495
2591, 725, 346, 133, 711
2592, 133, 346, 725, 348
2593, 135, 886, 345, 346
2594, 345, 886, 135, 755
2595, 391, 571, 643, 607
2596, 643, 571, 391, 365
2597, 391, 389, 643, 365
2598, 333, 590, 300, 299
2599, 300, 590, 333, 456
2600, 282, 586, 239, 441
2601, 282, 239, 586, 316
2602, 48, 239, 586, 441
2603, 48, 586, 239, 316
2604, 504, 312, 604, 605
2605, 504, 604, 312, 309
2606, 540, 316, 299, 586
2607, 299, 316, 540, 267
2608, 561, 292, 567, 291
2609, 567, 292, 561, 538
2610, 409, 542, 380, 363
2611, 409, 380, 542, 541
2612, 616, 380, 542, 363
2613, 616, 542, 380, 541
2614, 381, 520, 421, 440
2615, 381, 421, 520, 358
2616, 284, 590, 586, 454
2617, 284, 586, 590, 299
2618, 292, 536, 436, 295
2619, 436, 536, 292, 538
2620, 524, 390, 388, 420
2621, 524, 388, 390, 565
2622, 297, 537, 568, 572
2623, 297, 568, 537, 301
2624, 443, 553, 399, 569
2625, 399, 553, 443, 359
2626, 399, 416, 443, 569
2627, 443, 416, 399, 359
2628, 518, 335, 270, 286
2629, 518, 270, 335, 455
2630, 606, 281, 446, 306
2631, 606, 446, 281, 564
2632, 592, 302, 572, 593
2633, 572, 302, 592, 323
2634, 417, 443, 395, 359
2635, 395, 443, 417, 555
2636, 570, 410, 376, 433
2637, 376, 410, 570, 355
2638, 417, 570, 395, 555
2639, 395, 570, 417, 355
2640, 302, 595, 537, 593
2641, 302, 537, 595, 328
2642, 560, 324, 274, 598
2643, 274, 324, 560, 290
2644, 300, 592, 591, 502
2645, 591, 592, 300, 323
2646, 445, 356, 258, 385
2647, 445, 258, 356, 577
2648, 93, 258, 356, 385
2649, 93, 356, 258, 577
2650, 637, 321, 573, 447
2651, 637, 573, 321, 279
2652, 294, 595, 536, 328
2653, 294, 536, 595, 539
2654, 756, 846, 878, 843
2655, 878, 846, 756, 810
2656, 597, 292, 561, 293
2657, 561, 292, 597, 538
2658, 573, 19, 217, 337
2659, 217, 19, 573, 447
2660, 217, 321, 573, 337
2661, 573, 321, 217, 447
2662, 630, 356, 631, 387
2663, 630, 631, 356, 577
2664, 363, 433, 249, 542
2665, 363, 249, 433, 410
2666, 81, 249, 433, 542
2667, 81, 433, 249, 410
2668, 453, 284, 441, 454
2669, 441, 284, 453, 283
2670, 416, 399, 622, 569
2671, 622, 399, 416, 402
2672, 622, 435, 416, 569
2673, 416, 435, 622, 402
2674, 633, 421, 513, 626
2675, 633, 513, 421, 382
2676, 285, 518, 341, 286
2677, 341, 518, 285, 517
2678, 638, 305, 338, 320
2679, 338, 305, 638, 446
2680, 338, 578, 638, 320
2681, 638, 578, 338, 446
2682, 421, 520, 422, 626
2683, 422, 520, 421, 358
2684, 615, 362, 85, 403
2685, 85, 362, 615, 619
2686, 424, 450, 367, 404
2687, 424, 367, 450, 642
2688, 430, 630, 429, 512
2689, 429, 630, 430, 387
2690, 611, 389, 449, 407
2691, 391, 449, 389, 407
2692, 524, 389, 388, 643
2693, 524, 388, 389, 420
2694, 448, 312, 322, 605
2695, 448, 322, 312, 271
2696, 351, 615, 408, 431
2697, 351, 408, 615, 403
2698, 635, 408, 615, 431
2699, 367, 642, 649, 610
2700, 367, 649, 642, 424
2701, 412, 534, 382, 514
2702, 412, 382, 534, 383
2703, 520, 422, 404, 358
2704, 404, 422, 520, 625
2705, 692, 837, 182, 830
2706, 692, 182, 837, 718
2707, 391, 449, 611, 389
2708, 611, 449, 391, 607
2709, 611, 643, 391, 389
2710, 391, 643, 611, 607
2711, 408, 615, 383, 635
2712, 408, 383, 615, 403
2713, 534, 383, 615, 635
2714, 383, 615, 362, 534
2715, 383, 362, 615, 403

*NSET, NSET=CONSTRAINT_1
1, 2, 3, 4, 5, 6, 12, 13, 17, 18, 19, 20, 21, 22, 23, 24
25, 26, 27, 28, 29, 30, 31, 32, 131, 132, 133, 134, 135, 136, 137, 215
216, 217, 218, 219, 220, 221, 222, 223, 224, 345, 346, 347, 348, 349, 350

*NSET, NSET=DLOAD_1
7, 8, 9, 10, 11, 14, 15, 16, 128, 129, 130, 157, 158, 159, 160, 161
162, 163, 164, 165, 166, 167, 168, 169, 170, 171, 172, 192, 193, 194, 214, 645
646, 647, 648, 649, 650, 651, 652, 653, 654, 842, 843, 844, 845, 846, 847

*MATERIAL, NAME=STRUCTURAL_STEEL
*ELASTIC
200000.000000, 0.300000

*SOLID SECTION, ELSET=ALL_ELEMENTS, MATERIAL=STRUCTURAL_STEEL

*BOUNDARY
CONSTRAINT_1, 1, 3

*STEP, NLGEOM=NO
*STATIC
0.1, 1.0

*CLOAD
DLOAD_1, 3, -8000.000000

*NODE FILE
U, RF
*EL FILE
S, E

*END STEP
